 Entering Gaussian System, Link 0=g16
 Input=C2H4_TS.gjf
 Output=C2H4_TS.log
 Initial command:
 /home/zhouoh/g16/l1.exe "/home/zhouoh/scratch/Gau-2814068.inp" -scrdir="/home/zhouoh/scratch/"
 Entering Link 1 = /home/zhouoh/g16/l1.exe PID=   2814070.
  
 Copyright (c) 1988,1990,1992,1993,1995,1998,2003,2009,2016,
            Gaussian, Inc.  All Rights Reserved.
  
 This is part of the Gaussian(R) 16 program.  It is based on
 the Gaussian(R) 09 system (copyright 2009, Gaussian, Inc.),
 the Gaussian(R) 03 system (copyright 2003, Gaussian, Inc.),
 the Gaussian(R) 98 system (copyright 1998, Gaussian, Inc.),
 the Gaussian(R) 94 system (copyright 1995, Gaussian, Inc.),
 the Gaussian 92(TM) system (copyright 1992, Gaussian, Inc.),
 the Gaussian 90(TM) system (copyright 1990, Gaussian, Inc.),
 the Gaussian 88(TM) system (copyright 1988, Gaussian, Inc.),
 the Gaussian 86(TM) system (copyright 1986, Carnegie Mellon
 University), and the Gaussian 82(TM) system (copyright 1983,
 Carnegie Mellon University). Gaussian is a federally registered
 trademark of Gaussian, Inc.
  
 This software contains proprietary and confidential information,
 including trade secrets, belonging to Gaussian, Inc.
  
 This software is provided under written license and may be
 used, copied, transmitted, or stored only in accord with that
 written license.
  
 The following legend is applicable only to US Government
 contracts under FAR:
  
                    RESTRICTED RIGHTS LEGEND
  
 Use, reproduction and disclosure by the US Government is
 subject to restrictions as set forth in subparagraphs (a)
 and (c) of the Commercial Computer Software - Restricted
 Rights clause in FAR 52.227-19.
  
 Gaussian, Inc.
 340 Quinnipiac St., Bldg. 40, Wallingford CT 06492
  
  
 ---------------------------------------------------------------
 Warning -- This program may not be used in any manner that
 competes with the business of Gaussian, Inc. or will provide
 assistance to any competitor of Gaussian, Inc.  The licensee
 of this program is prohibited from giving any competitor of
 Gaussian, Inc. access to this program.  By using this program,
 the user acknowledges that Gaussian, Inc. is engaged in the
 business of creating and licensing software in the field of
 computational chemistry and represents and warrants to the
 licensee that it is not a competitor of Gaussian, Inc. and that
 it will not use this program in any manner prohibited above.
 ---------------------------------------------------------------
  

 Cite this work as:
 Gaussian 16, Revision A.03,
 M. J. Frisch, G. W. Trucks, H. B. Schlegel, G. E. Scuseria, 
 M. A. Robb, J. R. Cheeseman, G. Scalmani, V. Barone, 
 G. A. Petersson, H. Nakatsuji, X. Li, M. Caricato, A. V. Marenich, 
 J. Bloino, B. G. Janesko, R. Gomperts, B. Mennucci, H. P. Hratchian, 
 J. V. Ortiz, A. F. Izmaylov, J. L. Sonnenberg, D. Williams-Young, 
 F. Ding, F. Lipparini, F. Egidi, J. Goings, B. Peng, A. Petrone, 
 T. Henderson, D. Ranasinghe, V. G. Zakrzewski, J. Gao, N. Rega, 
 G. Zheng, W. Liang, M. Hada, M. Ehara, K. Toyota, R. Fukuda, 
 J. Hasegawa, M. Ishida, T. Nakajima, Y. Honda, O. Kitao, H. Nakai, 
 T. Vreven, K. Throssell, J. A. Montgomery, Jr., J. E. Peralta, 
 F. Ogliaro, M. J. Bearpark, J. J. Heyd, E. N. Brothers, K. N. Kudin, 
 V. N. Staroverov, T. A. Keith, R. Kobayashi, J. Normand, 
 K. Raghavachari, A. P. Rendell, J. C. Burant, S. S. Iyengar, 
 J. Tomasi, M. Cossi, J. M. Millam, M. Klene, C. Adamo, R. Cammi, 
 J. W. Ochterski, R. L. Martin, K. Morokuma, O. Farkas, 
 J. B. Foresman, and D. J. Fox, Gaussian, Inc., Wallingford CT, 2016.
 
 ******************************************
 Gaussian 16:  ES64L-G16RevA.03 25-Dec-2016
                 6-Oct-2025 
 ******************************************
 %nprocshared=1
 Will use up to    1 processors via shared memory.
 ----------------------------------------------------------------------
 #p opt=(ts,noeigen,calcfc,nomicro) external='python ../GauUMA_client.p
 y'
 ----------------------------------------------------------------------
 1/5=1,10=4,11=1,18=20,26=1,38=1/1,3;
 2/9=110,12=2,17=6,18=5,40=1/2;
 3/11=9,25=1,30=1,41=9900000,43=2,71=2,140=1/1;
 4/20=17,22=2,24=3,113=1,114=1/2;
 6/7=2,8=2,9=2,10=2/1;
 7/25=1,44=-1/16;
 1/5=1,10=4,11=1,18=20,26=1/3(2);
 2/9=110/2;
 99//99;
 2/9=110/2;
 3/11=9,25=1,30=1,41=9900000,43=2,71=1/1;
 4/16=2,20=17,22=1,24=3,113=1,114=1/2;
 7/44=-1/16;
 1/5=1,11=1,18=20,26=1/3(-4);
 2/9=110/2;
 6/7=2,8=2,9=2,10=2/1;
 99//99;
 Leave Link    1 at Mon Oct  6 14:23:35 2025, MaxMem=           0 cpu:               0.0 elap:               0.0
 (Enter /home/zhouoh/g16/l101.exe)
 -
 t
 -
 Symbolic Z-matrix:
 Charge =  0 Multiplicity = 1
 C                     0.        0.66116   0. 
 H                     0.65422   1.22832   0.6502 
 H                    -0.65428   1.2282   -0.65027 
 C                     0.       -0.66116   0. 
 H                    -0.65422  -1.22832   0.6502 
 H                     0.65428  -1.2282   -0.65027 
 
 ITRead=  0  0  0  0  0  0
 MicOpt= -1 -1 -1 -1 -1 -1
 NAtoms=      6 NQM=        6 NQMF=       0 NMMI=      0 NMMIF=      0
                NMic=       0 NMicF=      0.
                    Isotopes and Nuclear Properties:
 (Nuclear quadrupole moments (NQMom) in fm**2, nuclear magnetic moments (NMagM)
  in nuclear magnetons)

  Atom         1           2           3           4           5           6
 IAtWgt=          12           1           1          12           1           1
 AtmWgt=  12.0000000   1.0078250   1.0078250  12.0000000   1.0078250   1.0078250
 NucSpn=           0           1           1           0           1           1
 AtZEff=  -0.0000000  -0.0000000  -0.0000000  -0.0000000  -0.0000000  -0.0000000
 NQMom=    0.0000000   0.0000000   0.0000000   0.0000000   0.0000000   0.0000000
 NMagM=    0.0000000   2.7928460   2.7928460   0.0000000   2.7928460   2.7928460
 AtZNuc=   6.0000000   1.0000000   1.0000000   6.0000000   1.0000000   1.0000000
 Leave Link  101 at Mon Oct  6 14:23:35 2025, MaxMem=   104857600 cpu:               0.1 elap:               0.1
 (Enter /home/zhouoh/g16/l103.exe)

 GradGradGradGradGradGradGradGradGradGradGradGradGradGradGradGradGradGrad
 Berny optimization.
 Initialization pass.
                           ----------------------------
                           !    Initial Parameters    !
                           ! (Angstroms and Degrees)  !
 --------------------------                            --------------------------
 ! Name  Definition              Value          Derivative Info.                !
 --------------------------------------------------------------------------------
 ! R1    R(1,2)                  1.0828         calculate D2E/DX2 analytically  !
 ! R2    R(1,3)                  1.0828         calculate D2E/DX2 analytically  !
 ! R3    R(1,4)                  1.3223         calculate D2E/DX2 analytically  !
 ! R4    R(4,5)                  1.0828         calculate D2E/DX2 analytically  !
 ! R5    R(4,6)                  1.0828         calculate D2E/DX2 analytically  !
 ! A1    A(2,1,3)              116.8337         calculate D2E/DX2 analytically  !
 ! A2    A(2,1,4)              121.5873         calculate D2E/DX2 analytically  !
 ! A3    A(3,1,4)              121.579          calculate D2E/DX2 analytically  !
 ! A4    A(1,4,5)              121.5873         calculate D2E/DX2 analytically  !
 ! A5    A(1,4,6)              121.579          calculate D2E/DX2 analytically  !
 ! A6    A(5,4,6)              116.8337         calculate D2E/DX2 analytically  !
 ! D1    D(2,1,4,5)             90.3529         calculate D2E/DX2 analytically  !
 ! D2    D(2,1,4,6)            -89.6471         calculate D2E/DX2 analytically  !
 ! D3    D(3,1,4,5)            -89.6471         calculate D2E/DX2 analytically  !
 ! D4    D(3,1,4,6)             90.3529         calculate D2E/DX2 analytically  !
 --------------------------------------------------------------------------------
 Trust Radius=3.00D-01 FncErr=1.00D-07 GrdErr=1.00D-07 EigMax=2.50D+02 EigMin=1.00D-04
 Number of steps in this run=     25 maximum allowed number of steps=    100.
 Search for a saddle point of order  1.
 GradGradGradGradGradGradGradGradGradGradGradGradGradGradGradGradGradGrad

 Leave Link  103 at Mon Oct  6 14:23:36 2025, MaxMem=   104857600 cpu:               0.0 elap:               0.0
 (Enter /home/zhouoh/g16/l202.exe)
                          Input orientation:                          
 ---------------------------------------------------------------------
 Center     Atomic      Atomic             Coordinates (Angstroms)
 Number     Number       Type             X           Y           Z
 ---------------------------------------------------------------------
      1          6           0        0.000000    0.661161    0.000000
      2          1           0        0.654215    1.228321    0.650198
      3          1           0       -0.654285    1.228198   -0.650267
      4          6           0        0.000000   -0.661161    0.000000
      5          1           0       -0.654215   -1.228321    0.650198
      6          1           0        0.654285   -1.228198   -0.650267
 ---------------------------------------------------------------------
                    Distance matrix (angstroms):
                    1          2          3          4          5
     1  C    0.000000
     2  H    1.082786   0.000000
     3  H    1.082805   1.844826   0.000000
     4  C    1.322322   2.102593   2.102526   0.000000
     5  H    2.102593   2.783358   2.779514   1.082786   0.000000
     6  H    2.102526   2.779514   2.783206   1.082805   1.844826
                    6
     6  H    0.000000
 Stoichiometry    C2H4
 Framework group  C2[X(C2H4)]
 Deg. of freedom     7
 Full point group                 C2      NOp   2
 Largest Abelian subgroup         C2      NOp   2
 Largest concise Abelian subgroup C2      NOp   2
                         Standard orientation:                         
 ---------------------------------------------------------------------
 Center     Atomic      Atomic             Coordinates (Angstroms)
 Number     Number       Type             X           Y           Z
 ---------------------------------------------------------------------
      1          6           0        0.000000    0.661161   -0.000009
      2          1           0       -0.654215    1.228321   -0.650207
      3          1           0        0.654285    1.228198    0.650259
      4          6           0       -0.000000   -0.661161   -0.000009
      5          1           0        0.654215   -1.228321   -0.650207
      6          1           0       -0.654285   -1.228198    0.650259
 ---------------------------------------------------------------------
 Rotational constants (GHZ):         147.3401937          27.6505434          27.6186198
 Leave Link  202 at Mon Oct  6 14:23:36 2025, MaxMem=   104857600 cpu:               0.0 elap:               0.0
 (Enter /home/zhouoh/g16/l301.exe)
 Standard basis: STO-3G (5D, 7F)
 Ernie: Thresh=  0.10000D-02 Tol=  0.10000D-05 Strict=F.
 There are     7 symmetry adapted cartesian basis functions of A   symmetry.
 There are     7 symmetry adapted cartesian basis functions of B   symmetry.
 There are     7 symmetry adapted basis functions of A   symmetry.
 There are     7 symmetry adapted basis functions of B   symmetry.
    14 basis functions,    42 primitive gaussians,    14 cartesian basis functions
     8 alpha electrons        8 beta electrons
       nuclear repulsion energy        33.5109845372 Hartrees.
 IExCor=    0 DFT=F Ex=HF Corr=None ExCW=0 ScaHFX=  1.000000
 ScaDFX=  1.000000  1.000000  1.000000  1.000000 ScalE2=  1.000000  1.000000
 IRadAn=      5 IRanWt=     -1 IRanGd=            0 ICorTp=0 IEmpDi=  4
 NAtoms=    6 NActive=    6 NUniq=    3 SFac= 4.00D+00 NAtFMM=   60 NAOKFM=F Big=F
 Integral buffers will be    131072 words long.
 Raffenetti 1 integral format.
 Two-electron integral symmetry is turned on.
 Leave Link  301 at Mon Oct  6 14:23:36 2025, MaxMem=   104857600 cpu:               0.0 elap:               0.0
 (Enter /home/zhouoh/g16/l402.exe)
 External calculation of energy, first and second derivatives.
 Running external command "python ../GauUMA_client.py R"
         input file       "/home/zhouoh/scratch/Gau-2814070.EIn"
         output file      "/home/zhouoh/scratch/Gau-2814070.EOu"
         message file     "/home/zhouoh/scratch/Gau-2814070.EMs"
         fchk file        "/home/zhouoh/scratch/Gau-2814070.EFC"
         mat. el file     "/home/zhouoh/scratch/Gau-2814070.EUF"
Sent job to server.
Received result from server:
SCF Done:  E(UMA) =  -78.41390222705277     A.U.
 Recovered energy= -78.4139022271     dipole=      0.000000000000      0.000000000000      0.000000000000
 Energy=    -78.4139022     NIter=   0.
 Dipole moment=       0.000000       0.000000       0.000000
 Leave Link  402 at Mon Oct  6 14:23:37 2025, MaxMem=   104857600 cpu:               0.0 elap:               1.0
 (Enter /home/zhouoh/g16/l601.exe)
 Leave Link  601 at Mon Oct  6 14:23:37 2025, MaxMem=   104857600 cpu:               0.0 elap:               0.0
 (Enter /home/zhouoh/g16/l716.exe)
 Dipole        = 0.00000000D+00 0.00000000D+00 0.00000000D+00
 ***** Axes restored to original set *****
 -------------------------------------------------------------------
 Center     Atomic                   Forces (Hartrees/Bohr)
 Number     Number              X              Y              Z
 -------------------------------------------------------------------
      1        6          -0.000013385    0.061852414   -0.000007554
      2        1           0.009584062    0.007881803   -0.004147571
      3        1          -0.009576766    0.007883443    0.004155130
      4        6           0.000013381   -0.061852414   -0.000007561
      5        1          -0.009584062   -0.007881803   -0.004147572
      6        1           0.009576770   -0.007883444    0.004155129
 -------------------------------------------------------------------
 Cartesian Forces:  Max     0.061852414 RMS     0.021520091
 Force constants in Cartesian coordinates: 
                1             2             3             4             5 
      1  0.268271D+00
      2  0.453903D-04  0.762541D+00
      3  0.237554D+00  0.354047D-04  0.253278D+00
      4 -0.132046D+00 -0.784316D-01 -0.114636D+00 -0.659416D-01
      5 -0.881027D-01 -0.107371D+00 -0.873263D-01  0.988589D-01  0.128870D+00
      6 -0.117308D+00 -0.839428D-01 -0.128447D+00  0.328594D+00  0.929930D-01
      7 -0.132155D+00  0.783969D-01 -0.114683D+00  0.192481D+00  0.893270D-02
      8  0.880642D-01 -0.107324D+00  0.873007D-01 -0.894834D-02  0.664616D-02
      9 -0.117182D+00  0.839113D-01 -0.128407D+00 -0.211227D+00  0.829248D-02
     10 -0.209598D-01 -0.158228D-05 -0.696071D-02  0.682651D-02 -0.105135D-01
     11 -0.110409D-04 -0.501448D+00 -0.981413D-05 -0.790405D-02 -0.232006D-01
     12 -0.449526D-02  0.294592D-05 -0.113702D-01  0.213105D-02 -0.749915D-02
     13  0.838893D-02 -0.789884D-02  0.209118D-02  0.200538D+00 -0.157915D-02
     14 -0.201275D-01 -0.232009D-01  0.140917D-01 -0.157839D-02 -0.372814D-02
     15  0.659310D-03  0.185518D-02  0.744954D-02  0.198968D+00 -0.484036D-03
     16  0.849980D-02  0.790620D-02  0.214025D-02 -0.203422D+00  0.201174D-02
     17  0.201311D-01 -0.231995D-01 -0.140952D-01 -0.200546D-02 -0.121665D-02
     18  0.772786D-03 -0.186177D-02  0.749654D-02 -0.199567D+00  0.620590D-03
                6             7             8             9            10 
      6 -0.700375D-01
      7 -0.211178D+00 -0.659241D-01
      8 -0.828711D-02 -0.988224D-01  0.128827D+00
      9  0.192134D+00  0.328593D+00 -0.929673D-01 -0.700660D-01
     10  0.779068D-03  0.683846D-02  0.105182D-01  0.763630D-03  0.268268D+00
     11 -0.184260D-02  0.791509D-02 -0.232031D-01  0.185364D-02  0.380297D-04
     12  0.453093D-02  0.211261D-02  0.750286D-02  0.455014D-02 -0.237555D+00
     13 -0.198919D+00 -0.203399D+00 -0.201082D-02  0.199536D+00 -0.132053D+00
     14  0.478899D-03  0.201144D-02 -0.121818D-02 -0.618750D-03 -0.881031D-01
     15 -0.197981D+00 -0.199543D+00 -0.617523D-03  0.196868D+00  0.117301D+00
     16  0.199518D+00  0.200530D+00  0.157716D-02 -0.198951D+00 -0.132144D+00
     17  0.609396D-03  0.157103D-02 -0.373075D-02 -0.470771D-03  0.880637D-01
     18  0.196851D+00  0.198961D+00  0.480432D-03 -0.198017D+00  0.117192D+00
               11            12            13            14            15 
     11  0.762545D+00
     12 -0.358956D-04  0.253275D+00
     13 -0.784268D-01  0.114641D+00 -0.659443D-01
     14 -0.107369D+00  0.873278D-01  0.988573D-01  0.128870D+00
     15  0.839451D-01 -0.128442D+00 -0.328597D+00 -0.929975D-01 -0.700411D-01
     16  0.783959D-01  0.114677D+00  0.192483D+00  0.893791D-02  0.211184D+00
     17 -0.107325D+00 -0.873011D-01 -0.894711D-02  0.664631D-02  0.828711D-02
     18 -0.839118D-01 -0.128408D+00  0.211230D+00 -0.828972D-02  0.192138D+00
               16            17            18 
     16 -0.659236D-01
     17 -0.988234D-01  0.128828D+00
     18 -0.328592D+00  0.929669D-01 -0.700668D-01
 FormGI is forming the generalized inverse of G from B-inverse, IUseBI=4.
 Force constants in internal coordinates: 
                1             2             3             4             5 
      1  0.343816D+00
      2  0.638050D-02  0.343761D+00
      3  0.221351D-01  0.221484D-01  0.604145D+00
      4  0.158468D-02  0.666145D-03  0.221385D-01  0.345509D+00
      5  0.665676D-03  0.158557D-02  0.221430D-01  0.468824D-02  0.345452D+00
      6  0.737349D-02  0.736855D-02 -0.265053D-01 -0.233681D-02 -0.233892D-02
      7  0.656121D-02 -0.139330D-01  0.132525D-01  0.275181D-02 -0.412567D-03
      8 -0.139347D-01  0.656446D-02  0.132528D-01 -0.414993D-03  0.275149D-02
      9  0.179868D-02  0.543071D-03  0.132501D-01  0.762288D-02 -0.149975D-01
     10  0.540423D-03  0.179767D-02  0.132533D-01 -0.149963D-01  0.762733D-02
     11 -0.233910D-02 -0.234075D-02 -0.265034D-01  0.737339D-02  0.737016D-02
     12 -0.448050D-03 -0.324309D-02  0.658740D-02 -0.240757D-02 -0.126743D-02
     13 -0.472332D-02  0.103099D-02  0.658674D-02 -0.150367D-02 -0.218169D-02
     14  0.999250D-03 -0.470276D-02  0.658965D-02 -0.217900D-02 -0.149549D-02
     15 -0.327602D-02 -0.428677D-03  0.658899D-02 -0.127510D-02 -0.240975D-02
                6             7             8             9            10 
      6  0.636896D-01
      7 -0.318400D-01  0.676106D-01
      8 -0.318496D-01 -0.357706D-01  0.676202D-01
      9 -0.811220D-03  0.330207D-02 -0.249085D-02  0.703434D-01
     10 -0.816516D-03 -0.249175D-02  0.330827D-02 -0.385036D-01  0.703531D-01
     11  0.162774D-02 -0.810322D-03 -0.817414D-03 -0.318398D-01 -0.318495D-01
     12 -0.385643D-02  0.982195D-02 -0.596552D-02  0.892335D-02 -0.508027D-02
     13 -0.385729D-02  0.372072D-02  0.136576D-03 -0.109037D-02  0.493672D-02
     14 -0.385968D-02  0.172503D-03  0.368717D-02  0.494729D-02 -0.110296D-02
     15 -0.386054D-02 -0.592873D-02  0.978927D-02 -0.506643D-02  0.891403D-02
               11            12            13            14            15 
     11  0.636893D-01
     12 -0.384309D-02 -0.292582D+00
     13 -0.384635D-02 -0.303679D+00 -0.295710D+00
     14 -0.384434D-02 -0.302299D+00 -0.310369D+00 -0.295686D+00
     15 -0.384761D-02 -0.313397D+00 -0.302400D+00 -0.303755D+00 -0.292758D+00
 Leave Link  716 at Mon Oct  6 14:23:37 2025, MaxMem=   104857600 cpu:               0.0 elap:               0.0
 (Enter /home/zhouoh/g16/l103.exe)

 GradGradGradGradGradGradGradGradGradGradGradGradGradGradGradGradGradGrad
 Berny optimization.
 Red2BG is reusing G-inverse.
 Internal  Forces:  Max     0.077617661 RMS     0.021060978
 Search for a saddle point.
 Step number   1 out of a maximum of   25
 All quantities printed in internal units (Hartrees-Bohrs-Radians)
 Swapping is turned off.
 Second derivative matrix not updated -- analytic derivatives used.
 The second derivative matrix:
                          R1        R2        R3        R4        R5
           R1           0.34382
           R2           0.00638   0.34376
           R3           0.02214   0.02215   0.60414
           R4           0.00158   0.00067   0.02214   0.34551
           R5           0.00067   0.00159   0.02214   0.00469   0.34545
           A1           0.00737   0.00737  -0.02651  -0.00234  -0.00234
           A2           0.00656  -0.01393   0.01325   0.00275  -0.00041
           A3          -0.01393   0.00656   0.01325  -0.00041   0.00275
           A4           0.00180   0.00054   0.01325   0.00762  -0.01500
           A5           0.00054   0.00180   0.01325  -0.01500   0.00763
           A6          -0.00234  -0.00234  -0.02650   0.00737   0.00737
           D1          -0.00045  -0.00324   0.00659  -0.00241  -0.00127
           D2          -0.00472   0.00103   0.00659  -0.00150  -0.00218
           D3           0.00100  -0.00470   0.00659  -0.00218  -0.00150
           D4          -0.00328  -0.00043   0.00659  -0.00128  -0.00241
                          A1        A2        A3        A4        A5
           A1           0.06369
           A2          -0.03184   0.06761
           A3          -0.03185  -0.03577   0.06762
           A4          -0.00081   0.00330  -0.00249   0.07034
           A5          -0.00082  -0.00249   0.00331  -0.03850   0.07035
           A6           0.00163  -0.00081  -0.00082  -0.03184  -0.03185
           D1          -0.00386   0.00982  -0.00597   0.00892  -0.00508
           D2          -0.00386   0.00372   0.00014  -0.00109   0.00494
           D3          -0.00386   0.00017   0.00369   0.00495  -0.00110
           D4          -0.00386  -0.00593   0.00979  -0.00507   0.00891
                          A6        D1        D2        D3        D4
           A6           0.06369
           D1          -0.00384  -0.29258
           D2          -0.00385  -0.30368  -0.29571
           D3          -0.00384  -0.30230  -0.31037  -0.29569
           D4          -0.00385  -0.31340  -0.30240  -0.30376  -0.29276
 ITU=  0
     Eigenvalues ---   -1.21240   0.01349   0.01647   0.09199   0.09332
     Eigenvalues ---    0.09900   0.11449   0.33890   0.34348   0.34597
     Eigenvalues ---    0.34902   0.61551
 Eigenvectors required to have negative eigenvalues:
                          D4        D2        D3        D1        R3
   1                    0.50003   0.49997   0.49995   0.49989  -0.00712
                          A1        A6        A2        A4        A5
   1                    0.00573   0.00571  -0.00289  -0.00286  -0.00285
 RFO step:  Lambda0=2.194516255D-04 Lambda=-1.03798249D-02.
 Linear search not attempted -- option 19 set.
 Iteration  1 RMS(Cart)=  0.05391565 RMS(Int)=  0.00016676
 Iteration  2 RMS(Cart)=  0.00017799 RMS(Int)=  0.00000001
 Iteration  3 RMS(Cart)=  0.00000002 RMS(Int)=  0.00000000
 ITry= 1 IFail=0 DXMaxC= 9.51D-02 DCOld= 1.00D+10 DXMaxT= 3.00D-01 DXLimC= 3.00D+00 Rises=F
 ClnCor:  largest displacement from symmetrization is 3.26D-06 for atom     5.
 Variable       Old X    -DE/DX   Delta X   Delta X   Delta X     New X
                                 (Linear)    (Quad)   (Total)
    R1        2.04617   0.00743   0.00000   0.01366   0.01366   2.05983
    R2        2.04621   0.00742   0.00000   0.01363   0.01363   2.05983
    R3        2.49883   0.07762   0.00000   0.12050   0.12050   2.61933
    R4        2.04617   0.00743   0.00000   0.01366   0.01366   2.05983
    R5        2.04621   0.00742   0.00000   0.01363   0.01363   2.05983
    A1        2.03913  -0.00640   0.00000  -0.03170  -0.03170   2.00744
    A2        2.12210   0.00319   0.00000   0.01579   0.01579   2.13789
    A3        2.12195   0.00320   0.00000   0.01590   0.01590   2.13786
    A4        2.12210   0.00319   0.00000   0.01579   0.01579   2.13789
    A5        2.12195   0.00320   0.00000   0.01590   0.01590   2.13786
    A6        2.03913  -0.00640   0.00000  -0.03169  -0.03170   2.00744
    D1        1.57696   0.00845   0.00000  -0.00607  -0.00607   1.57089
    D2       -1.56464   0.00845   0.00000  -0.00609  -0.00609  -1.57073
    D3       -1.56464   0.00845   0.00000  -0.00609  -0.00609  -1.57073
    D4        1.57696   0.00845   0.00000  -0.00612  -0.00612   1.57084
         Item               Value     Threshold  Converged?
 Maximum Force            0.077618     0.000450     NO 
 RMS     Force            0.021061     0.000300     NO 
 Maximum Displacement     0.095116     0.001800     NO 
 RMS     Displacement     0.053947     0.001200     NO 
 Predicted change in Energy=-5.174864D-03
 GradGradGradGradGradGradGradGradGradGradGradGradGradGradGradGradGradGrad

 Leave Link  103 at Mon Oct  6 14:23:37 2025, MaxMem=   104857600 cpu:               0.0 elap:               0.0
 (Enter /home/zhouoh/g16/l202.exe)
                          Input orientation:                          
 ---------------------------------------------------------------------
 Center     Atomic      Atomic             Coordinates (Angstroms)
 Number     Number       Type             X           Y           Z
 ---------------------------------------------------------------------
      1          6           0       -0.000024    0.693044   -0.000013
      2          1           0        0.650093    1.278603    0.650064
      3          1           0       -0.650178    1.278531   -0.650121
      4          6           0        0.000024   -0.693044   -0.000013
      5          1           0       -0.650093   -1.278603    0.650064
      6          1           0        0.650178   -1.278531   -0.650121
 ---------------------------------------------------------------------
                    Distance matrix (angstroms):
                    1          2          3          4          5
     1  C    0.000000
     2  H    1.090014   0.000000
     3  H    1.090017   1.838800   0.000000
     4  C    1.386088   2.175450   2.175434   0.000000
     5  H    2.175450   2.868761   2.868696   1.090014   0.000000
     6  H    2.175434   2.868696   2.868710   1.090017   1.838800
                    6
     6  H    0.000000
 Stoichiometry    C2H4
 Framework group  C2[X(C2H4)]
 Deg. of freedom     7
 Full point group                 C2      NOp   2
 RotChk:  IX=0 Diff= 4.88D-05
 Largest Abelian subgroup         C2      NOp   2
 Largest concise Abelian subgroup C2      NOp   2
                         Standard orientation:                         
 ---------------------------------------------------------------------
 Center     Atomic      Atomic             Coordinates (Angstroms)
 Number     Number       Type             X           Y           Z
 ---------------------------------------------------------------------
      1          6           0        0.000000    0.693044   -0.000004
      2          1           0       -0.650137    1.278581   -0.650081
      3          1           0        0.650134    1.278554    0.650104
      4          6           0       -0.000000   -0.693044   -0.000004
      5          1           0        0.650137   -1.278581   -0.650081
      6          1           0       -0.650134   -1.278554    0.650104
 ---------------------------------------------------------------------
 Rotational constants (GHZ):         148.3074826          25.4968212          25.4965279
 Leave Link  202 at Mon Oct  6 14:23:37 2025, MaxMem=   104857600 cpu:               0.0 elap:               0.0
 (Enter /home/zhouoh/g16/l301.exe)
 Standard basis: STO-3G (5D, 7F)
 Ernie: Thresh=  0.10000D-02 Tol=  0.10000D-05 Strict=F.
 There are     7 symmetry adapted cartesian basis functions of A   symmetry.
 There are     7 symmetry adapted cartesian basis functions of B   symmetry.
 There are     7 symmetry adapted basis functions of A   symmetry.
 There are     7 symmetry adapted basis functions of B   symmetry.
    14 basis functions,    42 primitive gaussians,    14 cartesian basis functions
     8 alpha electrons        8 beta electrons
       nuclear repulsion energy        32.5468682943 Hartrees.
 IExCor=    0 DFT=F Ex=HF Corr=None ExCW=0 ScaHFX=  1.000000
 ScaDFX=  1.000000  1.000000  1.000000  1.000000 ScalE2=  1.000000  1.000000
 IRadAn=      5 IRanWt=     -1 IRanGd=            0 ICorTp=0 IEmpDi=  4
 NAtoms=    6 NActive=    6 NUniq=    3 SFac= 4.00D+00 NAtFMM=   60 NAOKFM=F Big=F
 Integral buffers will be    131072 words long.
 Raffenetti 1 integral format.
 Two-electron integral symmetry is turned on.
 Leave Link  301 at Mon Oct  6 14:23:37 2025, MaxMem=   104857600 cpu:               0.0 elap:               0.0
 (Enter /home/zhouoh/g16/l402.exe)
 External calculation of energy and first derivatives.
 Running external command "python ../GauUMA_client.py R"
         input file       "/home/zhouoh/scratch/Gau-2814070.EIn"
         output file      "/home/zhouoh/scratch/Gau-2814070.EOu"
         message file     "/home/zhouoh/scratch/Gau-2814070.EMs"
         fchk file        "/home/zhouoh/scratch/Gau-2814070.EFC"
         mat. el file     "/home/zhouoh/scratch/Gau-2814070.EUF"
Sent job to server.
Received result from server:
SCF Done:  E(UMA) =  -78.41941101902835     A.U.
 Recovered energy= -78.4194110190     dipole=      0.000000000000      0.000000000000      0.000000000000
 Energy=    -78.4194110     NIter=   0.
 Dipole moment=       0.000000       0.000000       0.000000
 Leave Link  402 at Mon Oct  6 14:23:37 2025, MaxMem=   104857600 cpu:               0.0 elap:               0.1
 (Enter /home/zhouoh/g16/l716.exe)
 Dipole        = 0.00000000D+00 0.00000000D+00 0.00000000D+00
 ***** Axes restored to original set *****
 -------------------------------------------------------------------
 Center     Atomic                   Forces (Hartrees/Bohr)
 Number     Number              X              Y              Z
 -------------------------------------------------------------------
      1        6          -0.000001895    0.009288084   -0.000001318
      2        1           0.000430177    0.000490546    0.000129838
      3        1          -0.000429520    0.000491472   -0.000128514
      4        6           0.000001891   -0.009288096   -0.000001332
      5        1          -0.000430175   -0.000490534    0.000129841
      6        1           0.000429523   -0.000491473   -0.000128516
 -------------------------------------------------------------------
 Cartesian Forces:  Max     0.009288096 RMS     0.003111872
 Leave Link  716 at Mon Oct  6 14:23:37 2025, MaxMem=   104857600 cpu:               0.0 elap:               0.0
 (Enter /home/zhouoh/g16/l103.exe)

 GradGradGradGradGradGradGradGradGradGradGradGradGradGradGradGradGradGrad
 Berny optimization.
 FormGI is forming the generalized inverse of G from B-inverse, IUseBI=4.
 Internal  Forces:  Max     0.010270102 RMS     0.002674177
 Search for a saddle point.
 Step number   2 out of a maximum of   25
 All quantities printed in internal units (Hartrees-Bohrs-Radians)
 Swapping is turned off.
 Update second derivatives using D2CorX and points    1    2
 The second derivative matrix:
                          R1        R2        R3        R4        R5
           R1           0.34365
           R2           0.00622   0.34360
           R3           0.01829   0.01831   0.53094
           R4           0.00142   0.00050   0.01830   0.34535
           R5           0.00050   0.00142   0.01831   0.00452   0.34529
           A1           0.00723   0.00722  -0.02629  -0.00249  -0.00249
           A2           0.00664  -0.01386   0.01315   0.00283  -0.00034
           A3          -0.01386   0.00664   0.01314  -0.00034   0.00283
           A4           0.00187   0.00062   0.01315   0.00770  -0.01492
           A5           0.00061   0.00187   0.01313  -0.01492   0.00770
           A6          -0.00249  -0.00249  -0.02629   0.00723   0.00722
           D1          -0.00056  -0.00335   0.00532  -0.00252  -0.00137
           D2          -0.00483   0.00092   0.00532  -0.00161  -0.00229
           D3           0.00089  -0.00481   0.00532  -0.00229  -0.00160
           D4          -0.00338  -0.00054   0.00531  -0.00138  -0.00252
                          A1        A2        A3        A4        A5
           A1           0.06437
           A2          -0.03218   0.06778
           A3          -0.03219  -0.03560   0.06779
           A4          -0.00115   0.00347  -0.00232   0.07051
           A5          -0.00116  -0.00232   0.00348  -0.03833   0.07052
           A6           0.00231  -0.00115  -0.00116  -0.03218  -0.03219
           D1          -0.00368   0.00973  -0.00606   0.00883  -0.00517
           D2          -0.00368   0.00363   0.00005  -0.00118   0.00485
           D3          -0.00368   0.00008   0.00360   0.00486  -0.00119
           D4          -0.00368  -0.00602   0.00970  -0.00516   0.00882
                          A6        D1        D2        D3        D4
           A6           0.06437
           D1          -0.00366  -0.29256
           D2          -0.00366  -0.30365  -0.29569
           D3          -0.00366  -0.30228  -0.31034  -0.29566
           D4          -0.00367  -0.31337  -0.30238  -0.30373  -0.29273
 ITU=  0  0
     Eigenvalues ---   -1.21226   0.01349   0.01647   0.09199   0.09479
     Eigenvalues ---    0.09900   0.11449   0.33890   0.34348   0.34575
     Eigenvalues ---    0.34902   0.54240
 Eigenvectors required to have negative eigenvalues:
                          D4        D2        D3        D1        R3
   1                    0.50003   0.49997   0.49995   0.49989  -0.00596
                          A1        A6        A2        A4        A5
   1                    0.00547   0.00545  -0.00276  -0.00273  -0.00271
 RFO step:  Lambda0=7.908668431D-08 Lambda=-2.00838717D-04.
 Linear search not attempted -- option 19 set.
 Iteration  1 RMS(Cart)=  0.00559642 RMS(Int)=  0.00000077
 Iteration  2 RMS(Cart)=  0.00000080 RMS(Int)=  0.00000000
 ITry= 1 IFail=0 DXMaxC= 9.80D-03 DCOld= 1.00D+10 DXMaxT= 3.00D-01 DXLimC= 3.00D+00 Rises=F
 ClnCor:  largest displacement from symmetrization is 6.94D-07 for atom     4.
 Variable       Old X    -DE/DX   Delta X   Delta X   Delta X     New X
                                 (Linear)    (Quad)   (Total)
    R1        2.05983   0.00060   0.00000   0.00063   0.00063   2.06046
    R2        2.05983   0.00060   0.00000   0.00063   0.00063   2.06046
    R3        2.61933   0.01027   0.00000   0.01959   0.01959   2.63892
    R4        2.05983   0.00060   0.00000   0.00063   0.00063   2.06046
    R5        2.05983   0.00060   0.00000   0.00063   0.00063   2.06046
    A1        2.00744  -0.00028   0.00000   0.00230   0.00230   2.00974
    A2        2.13789   0.00014   0.00000  -0.00116  -0.00116   2.13673
    A3        2.13786   0.00014   0.00000  -0.00114  -0.00114   2.13672
    A4        2.13789   0.00014   0.00000  -0.00116  -0.00116   2.13673
    A5        2.13786   0.00014   0.00000  -0.00114  -0.00114   2.13672
    A6        2.00744  -0.00028   0.00000   0.00230   0.00230   2.00974
    D1        1.57089   0.00018   0.00000  -0.00010  -0.00010   1.57078
    D2       -1.57073   0.00018   0.00000  -0.00009  -0.00009  -1.57082
    D3       -1.57073   0.00018   0.00000  -0.00009  -0.00009  -1.57082
    D4        1.57084   0.00019   0.00000  -0.00008  -0.00008   1.57076
         Item               Value     Threshold  Converged?
 Maximum Force            0.010270     0.000450     NO 
 RMS     Force            0.002674     0.000300     NO 
 Maximum Displacement     0.009797     0.001800     NO 
 RMS     Displacement     0.005596     0.001200     NO 
 Predicted change in Energy=-1.004201D-04
 GradGradGradGradGradGradGradGradGradGradGradGradGradGradGradGradGradGrad

 Leave Link  103 at Mon Oct  6 14:23:37 2025, MaxMem=   104857600 cpu:               0.0 elap:               0.0
 (Enter /home/zhouoh/g16/l202.exe)
                          Input orientation:                          
 ---------------------------------------------------------------------
 Center     Atomic      Atomic             Coordinates (Angstroms)
 Number     Number       Type             X           Y           Z
 ---------------------------------------------------------------------
      1          6           0       -0.000027    0.698229   -0.000020
      2          1           0        0.650734    1.282899    0.650772
      3          1           0       -0.650827    1.282845   -0.650822
      4          6           0        0.000027   -0.698229   -0.000020
      5          1           0       -0.650734   -1.282899    0.650772
      6          1           0        0.650827   -1.282845   -0.650822
 ---------------------------------------------------------------------
                    Distance matrix (angstroms):
                    1          2          3          4          5
     1  C    0.000000
     2  H    1.090349   0.000000
     3  H    1.090349   1.840709   0.000000
     4  C    1.396457   2.184449   2.184446   0.000000
     5  H    2.184449   2.877002   2.877010   1.090349   0.000000
     6  H    2.184446   2.877010   2.876990   1.090349   1.840709
                    6
     6  H    0.000000
 Stoichiometry    C2H4
 Framework group  C2[X(C2H4)]
 Deg. of freedom     7
 Full point group                 C2      NOp   2
 RotChk:  IX=0 Diff= 6.17D-06
 Largest Abelian subgroup         C2      NOp   2
 Largest concise Abelian subgroup C2      NOp   2
                         Standard orientation:                         
 ---------------------------------------------------------------------
 Center     Atomic      Atomic             Coordinates (Angstroms)
 Number     Number       Type             X           Y           Z
 ---------------------------------------------------------------------
      1          6           0       -0.000000    0.698229   -0.000001
      2          1           0       -0.650784    1.282874   -0.650793
      3          1           0        0.650778    1.282870    0.650800
      4          6           0       -0.000000   -0.698229   -0.000001
      5          1           0        0.650784   -1.282874   -0.650793
      6          1           0       -0.650778   -1.282870    0.650800
 ---------------------------------------------------------------------
 Rotational constants (GHZ):         148.0000715          25.2154554          25.2153504
 Leave Link  202 at Mon Oct  6 14:23:37 2025, MaxMem=   104857600 cpu:               0.0 elap:               0.0
 (Enter /home/zhouoh/g16/l301.exe)
 Standard basis: STO-3G (5D, 7F)
 Ernie: Thresh=  0.10000D-02 Tol=  0.10000D-05 Strict=F.
 There are     7 symmetry adapted cartesian basis functions of A   symmetry.
 There are     7 symmetry adapted cartesian basis functions of B   symmetry.
 There are     7 symmetry adapted basis functions of A   symmetry.
 There are     7 symmetry adapted basis functions of B   symmetry.
    14 basis functions,    42 primitive gaussians,    14 cartesian basis functions
     8 alpha electrons        8 beta electrons
       nuclear repulsion energy        32.4144664598 Hartrees.
 IExCor=    0 DFT=F Ex=HF Corr=None ExCW=0 ScaHFX=  1.000000
 ScaDFX=  1.000000  1.000000  1.000000  1.000000 ScalE2=  1.000000  1.000000
 IRadAn=      5 IRanWt=     -1 IRanGd=            0 ICorTp=0 IEmpDi=  4
 NAtoms=    6 NActive=    6 NUniq=    3 SFac= 4.00D+00 NAtFMM=   60 NAOKFM=F Big=F
 Integral buffers will be    131072 words long.
 Raffenetti 1 integral format.
 Two-electron integral symmetry is turned on.
 Leave Link  301 at Mon Oct  6 14:23:37 2025, MaxMem=   104857600 cpu:               0.0 elap:               0.0
 (Enter /home/zhouoh/g16/l402.exe)
 External calculation of energy and first derivatives.
 Running external command "python ../GauUMA_client.py R"
         input file       "/home/zhouoh/scratch/Gau-2814070.EIn"
         output file      "/home/zhouoh/scratch/Gau-2814070.EOu"
         message file     "/home/zhouoh/scratch/Gau-2814070.EMs"
         fchk file        "/home/zhouoh/scratch/Gau-2814070.EFC"
         mat. el file     "/home/zhouoh/scratch/Gau-2814070.EUF"
Sent job to server.
Received result from server:
SCF Done:  E(UMA) =  -78.41953179059246     A.U.
 Recovered energy= -78.4195317906     dipole=      0.000000000000      0.000000000000      0.000000000000
 Energy=    -78.4195318     NIter=   0.
 Dipole moment=       0.000000       0.000000       0.000000
 Leave Link  402 at Mon Oct  6 14:23:37 2025, MaxMem=   104857600 cpu:               0.0 elap:               0.1
 (Enter /home/zhouoh/g16/l716.exe)
 Dipole        = 0.00000000D+00 0.00000000D+00 0.00000000D+00
 ***** Axes restored to original set *****
 -------------------------------------------------------------------
 Center     Atomic                   Forces (Hartrees/Bohr)
 Number     Number              X              Y              Z
 -------------------------------------------------------------------
      1        6           0.000000062    0.002123864   -0.000000089
      2        1           0.000081264    0.000036249   -0.000063893
      3        1          -0.000081501    0.000036561    0.000063985
      4        6          -0.000000066   -0.002123863   -0.000000093
      5        1          -0.000081263   -0.000036245   -0.000063892
      6        1           0.000081505   -0.000036566    0.000063982
 -------------------------------------------------------------------
 Cartesian Forces:  Max     0.002123864 RMS     0.000709841
 Leave Link  716 at Mon Oct  6 14:23:37 2025, MaxMem=   104857600 cpu:               0.0 elap:               0.0
 (Enter /home/zhouoh/g16/l103.exe)

 GradGradGradGradGradGradGradGradGradGradGradGradGradGradGradGradGradGrad
 Berny optimization.
 FormGI is forming the generalized inverse of G from B-inverse, IUseBI=4.
 Internal  Forces:  Max     0.002196674 RMS     0.000569456
 Search for a saddle point.
 Step number   3 out of a maximum of   25
 All quantities printed in internal units (Hartrees-Bohrs-Radians)
 Swapping is turned off.
 Update second derivatives using D2CorX and points    1    2    3
 The second derivative matrix:
                          R1        R2        R3        R4        R5
           R1           0.34365
           R2           0.00621   0.34359
           R3           0.01677   0.01678   0.41856
           R4           0.00141   0.00050   0.01677   0.34534
           R5           0.00050   0.00142   0.01678   0.00452   0.34528
           A1           0.00723   0.00723  -0.02462  -0.00248  -0.00248
           A2           0.00663  -0.01386   0.01233   0.00282  -0.00034
           A3          -0.01386   0.00663   0.01229  -0.00034   0.00282
           A4           0.00187   0.00061   0.01233   0.00769  -0.01493
           A5           0.00061   0.00187   0.01229  -0.01493   0.00770
           A6          -0.00248  -0.00248  -0.02462   0.00723   0.00723
           D1          -0.00063  -0.00343   0.00076  -0.00259  -0.00145
           D2          -0.00491   0.00084   0.00074  -0.00169  -0.00237
           D3           0.00081  -0.00489   0.00075  -0.00237  -0.00168
           D4          -0.00346  -0.00062   0.00073  -0.00146  -0.00260
                          A1        A2        A3        A4        A5
           A1           0.06450
           A2          -0.03224   0.06781
           A3          -0.03225  -0.03557   0.06782
           A4          -0.00122   0.00350  -0.00229   0.07055
           A5          -0.00122  -0.00229   0.00351  -0.03830   0.07056
           A6           0.00244  -0.00121  -0.00122  -0.03224  -0.03225
           D1          -0.00361   0.00970  -0.00609   0.00880  -0.00520
           D2          -0.00361   0.00360   0.00001  -0.00121   0.00481
           D3          -0.00361   0.00005   0.00356   0.00483  -0.00123
           D4          -0.00361  -0.00605   0.00966  -0.00519   0.00879
                          A6        D1        D2        D3        D4
           A6           0.06450
           D1          -0.00360  -0.29272
           D2          -0.00360  -0.30382  -0.29585
           D3          -0.00360  -0.30244  -0.31051  -0.29582
           D4          -0.00360  -0.31354  -0.30254  -0.30389  -0.29290
 ITU=  0  0  0
     Eigenvalues ---   -1.21285   0.01349   0.01647   0.09199   0.09428
     Eigenvalues ---    0.09900   0.11449   0.33890   0.34012   0.34348
     Eigenvalues ---    0.34902   0.43647
 Eigenvectors required to have negative eigenvalues:
                          D4        D2        D3        D1        A1
   1                    0.50004   0.49998   0.49996   0.49990   0.00547
                          A6        A2        A4        A5        A3
   1                    0.00545  -0.00276  -0.00273  -0.00271  -0.00271
 RFO step:  Lambda0=2.576666081D-08 Lambda=-1.18665752D-05.
 Linear search not attempted -- option 19 set.
 Iteration  1 RMS(Cart)=  0.00135788 RMS(Int)=  0.00000015
 Iteration  2 RMS(Cart)=  0.00000015 RMS(Int)=  0.00000000
 ITry= 1 IFail=0 DXMaxC= 2.73D-03 DCOld= 1.00D+10 DXMaxT= 3.00D-01 DXLimC= 3.00D+00 Rises=F
 ClnCor:  largest displacement from symmetrization is 1.06D-06 for atom     6.
 Variable       Old X    -DE/DX   Delta X   Delta X   Delta X     New X
                                 (Linear)    (Quad)   (Total)
    R1        2.06046   0.00003   0.00000  -0.00020  -0.00020   2.06026
    R2        2.06046   0.00003   0.00000  -0.00020  -0.00020   2.06026
    R3        2.63892   0.00220   0.00000   0.00546   0.00546   2.64438
    R4        2.06046   0.00003   0.00000  -0.00020  -0.00020   2.06026
    R5        2.06046   0.00003   0.00000  -0.00020  -0.00020   2.06026
    A1        2.00974  -0.00003   0.00000   0.00102   0.00102   2.01075
    A2        2.13673   0.00002   0.00000  -0.00051  -0.00051   2.13622
    A3        2.13672   0.00002   0.00000  -0.00051  -0.00051   2.13621
    A4        2.13673   0.00002   0.00000  -0.00051  -0.00051   2.13622
    A5        2.13672   0.00002   0.00000  -0.00051  -0.00051   2.13621
    A6        2.00974  -0.00003   0.00000   0.00102   0.00102   2.01075
    D1        1.57078   0.00009   0.00000  -0.00009  -0.00009   1.57069
    D2       -1.57082   0.00009   0.00000  -0.00008  -0.00008  -1.57090
    D3       -1.57082   0.00009   0.00000  -0.00008  -0.00008  -1.57090
    D4        1.57076   0.00009   0.00000  -0.00007  -0.00007   1.57069
         Item               Value     Threshold  Converged?
 Maximum Force            0.002197     0.000450     NO 
 RMS     Force            0.000569     0.000300     NO 
 Maximum Displacement     0.002730     0.001800     NO 
 RMS     Displacement     0.001358     0.001200     NO 
 Predicted change in Energy=-5.920404D-06
 GradGradGradGradGradGradGradGradGradGradGradGradGradGradGradGradGradGrad

 Leave Link  103 at Mon Oct  6 14:23:37 2025, MaxMem=   104857600 cpu:               0.0 elap:               0.0
 (Enter /home/zhouoh/g16/l202.exe)
                          Input orientation:                          
 ---------------------------------------------------------------------
 Center     Atomic      Atomic             Coordinates (Angstroms)
 Number     Number       Type             X           Y           Z
 ---------------------------------------------------------------------
      1          6           0       -0.000026    0.699673   -0.000023
      2          1           0        0.650855    1.283818    0.650946
      3          1           0       -0.650951    1.283768   -0.650993
      4          6           0        0.000026   -0.699673   -0.000023
      5          1           0       -0.650855   -1.283818    0.650946
      6          1           0        0.650951   -1.283768   -0.650993
 ---------------------------------------------------------------------
                    Distance matrix (angstroms):
                    1          2          3          4          5
     1  C    0.000000
     2  H    1.090244   0.000000
     3  H    1.090244   1.841126   0.000000
     4  C    1.399346   2.186682   2.186680   0.000000
     5  H    2.186682   2.878750   2.878809   1.090244   0.000000
     6  H    2.186680   2.878809   2.878748   1.090244   1.841126
                    6
     6  H    0.000000
 Stoichiometry    C2H4
 Framework group  C2[X(C2H4)]
 Deg. of freedom     7
 Full point group                 C2      NOp   2
 RotChk:  IX=0 Diff= 2.43D-06
 Largest Abelian subgroup         C2      NOp   2
 Largest concise Abelian subgroup C2      NOp   2
                         Standard orientation:                         
 ---------------------------------------------------------------------
 Center     Atomic      Atomic             Coordinates (Angstroms)
 Number     Number       Type             X           Y           Z
 ---------------------------------------------------------------------
      1          6           0        0.000000    0.699673   -0.000000
      2          1           0       -0.650902    1.283794   -0.650969
      3          1           0        0.650903    1.283792    0.650970
      4          6           0       -0.000000   -0.699673   -0.000000
      5          1           0        0.650902   -1.283794   -0.650969
      6          1           0       -0.650903   -1.283792    0.650970
 ---------------------------------------------------------------------
 Rotational constants (GHZ):         147.9330115          25.1419046          25.1414666
 Leave Link  202 at Mon Oct  6 14:23:37 2025, MaxMem=   104857600 cpu:               0.0 elap:               0.0
 (Enter /home/zhouoh/g16/l301.exe)
 Standard basis: STO-3G (5D, 7F)
 Ernie: Thresh=  0.10000D-02 Tol=  0.10000D-05 Strict=F.
 There are     7 symmetry adapted cartesian basis functions of A   symmetry.
 There are     7 symmetry adapted cartesian basis functions of B   symmetry.
 There are     7 symmetry adapted basis functions of A   symmetry.
 There are     7 symmetry adapted basis functions of B   symmetry.
    14 basis functions,    42 primitive gaussians,    14 cartesian basis functions
     8 alpha electrons        8 beta electrons
       nuclear repulsion energy        32.3808969753 Hartrees.
 IExCor=    0 DFT=F Ex=HF Corr=None ExCW=0 ScaHFX=  1.000000
 ScaDFX=  1.000000  1.000000  1.000000  1.000000 ScalE2=  1.000000  1.000000
 IRadAn=      5 IRanWt=     -1 IRanGd=            0 ICorTp=0 IEmpDi=  4
 NAtoms=    6 NActive=    6 NUniq=    3 SFac= 4.00D+00 NAtFMM=   60 NAOKFM=F Big=F
 Integral buffers will be    131072 words long.
 Raffenetti 1 integral format.
 Two-electron integral symmetry is turned on.
 Leave Link  301 at Mon Oct  6 14:23:37 2025, MaxMem=   104857600 cpu:               0.0 elap:               0.0
 (Enter /home/zhouoh/g16/l402.exe)
 External calculation of energy and first derivatives.
 Running external command "python ../GauUMA_client.py R"
         input file       "/home/zhouoh/scratch/Gau-2814070.EIn"
         output file      "/home/zhouoh/scratch/Gau-2814070.EOu"
         message file     "/home/zhouoh/scratch/Gau-2814070.EMs"
         fchk file        "/home/zhouoh/scratch/Gau-2814070.EFC"
         mat. el file     "/home/zhouoh/scratch/Gau-2814070.EUF"
Sent job to server.
Received result from server:
SCF Done:  E(UMA) =  -78.41953799389103     A.U.
 Recovered energy= -78.4195379939     dipole=      0.000000000000      0.000000000000      0.000000000000
 Energy=    -78.4195380     NIter=   0.
 Dipole moment=       0.000000       0.000000       0.000000
 Leave Link  402 at Mon Oct  6 14:23:37 2025, MaxMem=   104857600 cpu:               0.0 elap:               0.1
 (Enter /home/zhouoh/g16/l716.exe)
 Dipole        = 0.00000000D+00 0.00000000D+00 0.00000000D+00
 ***** Axes restored to original set *****
 -------------------------------------------------------------------
 Center     Atomic                   Forces (Hartrees/Bohr)
 Number     Number              X              Y              Z
 -------------------------------------------------------------------
      1        6          -0.000000135    0.000118042   -0.000000063
      2        1           0.000000532   -0.000001718   -0.000006341
      3        1          -0.000000468   -0.000001638    0.000006408
      4        6           0.000000136   -0.000118040   -0.000000066
      5        1          -0.000000531    0.000001720   -0.000006344
      6        1           0.000000467    0.000001634    0.000006407
 -------------------------------------------------------------------
 Cartesian Forces:  Max     0.000118042 RMS     0.000039470
 Leave Link  716 at Mon Oct  6 14:23:37 2025, MaxMem=   104857600 cpu:               0.0 elap:               0.0
 (Enter /home/zhouoh/g16/l103.exe)

 GradGradGradGradGradGradGradGradGradGradGradGradGradGradGradGradGradGrad
 Berny optimization.
 FormGI is forming the generalized inverse of G from B-inverse, IUseBI=4.
 Internal  Forces:  Max     0.000114686 RMS     0.000029783
 Search for a saddle point.
 Step number   4 out of a maximum of   25
 All quantities printed in internal units (Hartrees-Bohrs-Radians)
 Swapping is turned off.
 Update second derivatives using D2CorX and points    1    2    3    4
 The second derivative matrix:
                          R1        R2        R3        R4        R5
           R1           0.34357
           R2           0.00613   0.34351
           R3           0.01749   0.01750   0.39763
           R4           0.00133   0.00042   0.01748   0.34526
           R5           0.00041   0.00133   0.01751   0.00444   0.34520
           A1           0.00738   0.00737  -0.02461  -0.00233  -0.00233
           A2           0.00656  -0.01394   0.01234   0.00275  -0.00042
           A3          -0.01394   0.00656   0.01227  -0.00042   0.00275
           A4           0.00180   0.00054   0.01233   0.00762  -0.01500
           A5           0.00054   0.00179   0.01228  -0.01500   0.00762
           A6          -0.00233  -0.00234  -0.02461   0.00738   0.00738
           D1          -0.00055  -0.00334   0.00018  -0.00251  -0.00137
           D2          -0.00482   0.00093   0.00015  -0.00160  -0.00228
           D3           0.00090  -0.00480   0.00016  -0.00228  -0.00160
           D4          -0.00338  -0.00053   0.00013  -0.00138  -0.00251
                          A1        A2        A3        A4        A5
           A1           0.06486
           A2          -0.03242   0.06790
           A3          -0.03244  -0.03548   0.06791
           A4          -0.00140   0.00359  -0.00220   0.07064
           A5          -0.00140  -0.00220   0.00360  -0.03821   0.07065
           A6           0.00280  -0.00140  -0.00140  -0.03243  -0.03244
           D1          -0.00393   0.00986  -0.00593   0.00896  -0.00504
           D2          -0.00393   0.00376   0.00017  -0.00106   0.00497
           D3          -0.00393   0.00021   0.00372   0.00498  -0.00107
           D4          -0.00392  -0.00590   0.00982  -0.00504   0.00894
                          A6        D1        D2        D3        D4
           A6           0.06486
           D1          -0.00392  -0.29275
           D2          -0.00391  -0.30385  -0.29589
           D3          -0.00391  -0.30247  -0.31054  -0.29586
           D4          -0.00391  -0.31357  -0.30258  -0.30393  -0.29294
 ITU=  0  0  0  0
     Eigenvalues ---   -1.21301   0.01349   0.01647   0.09199   0.09488
     Eigenvalues ---    0.09900   0.11449   0.33577   0.33890   0.34348
     Eigenvalues ---    0.34902   0.42006
 Eigenvectors required to have negative eigenvalues:
                          D4        D2        D3        D1        A1
   1                    0.50004   0.49998   0.49996   0.49989   0.00595
                          A6        A2        A4        A5        A3
   1                    0.00593  -0.00300  -0.00298  -0.00296  -0.00295
 RFO step:  Lambda0=5.801892300D-11 Lambda=-3.53540611D-08.
 Linear search not attempted -- option 19 set.
 Iteration  1 RMS(Cart)=  0.00006979 RMS(Int)=  0.00000000
 Iteration  2 RMS(Cart)=  0.00000000 RMS(Int)=  0.00000000
 ITry= 1 IFail=0 DXMaxC= 1.53D-04 DCOld= 1.00D+10 DXMaxT= 3.00D-01 DXLimC= 3.00D+00 Rises=F
 ClnCor:  largest displacement from symmetrization is 7.52D-08 for atom     4.
 Variable       Old X    -DE/DX   Delta X   Delta X   Delta X     New X
                                 (Linear)    (Quad)   (Total)
    R1        2.06026  -0.00000   0.00000  -0.00003  -0.00003   2.06023
    R2        2.06026  -0.00000   0.00000  -0.00003  -0.00003   2.06023
    R3        2.64438   0.00011   0.00000   0.00031   0.00031   2.64469
    R4        2.06026  -0.00000   0.00000  -0.00003  -0.00003   2.06023
    R5        2.06026  -0.00000   0.00000  -0.00003  -0.00003   2.06023
    A1        2.01075  -0.00000   0.00000   0.00007   0.00007   2.01082
    A2        2.13622   0.00000   0.00000  -0.00003  -0.00003   2.13618
    A3        2.13621   0.00000   0.00000  -0.00003  -0.00003   2.13618
    A4        2.13622   0.00000   0.00000  -0.00003  -0.00003   2.13618
    A5        2.13621   0.00000   0.00000  -0.00003  -0.00003   2.13618
    A6        2.01075  -0.00000   0.00000   0.00007   0.00007   2.01082
    D1        1.57069   0.00000   0.00000  -0.00000  -0.00000   1.57069
    D2       -1.57090   0.00000   0.00000  -0.00000  -0.00000  -1.57090
    D3       -1.57090   0.00000   0.00000  -0.00000  -0.00000  -1.57090
    D4        1.57069   0.00000   0.00000  -0.00000  -0.00000   1.57069
         Item               Value     Threshold  Converged?
 Maximum Force            0.000115     0.000450     YES
 RMS     Force            0.000030     0.000300     YES
 Maximum Displacement     0.000153     0.001800     YES
 RMS     Displacement     0.000070     0.001200     YES
 Predicted change in Energy=-1.764802D-08
 Optimization completed.
    -- Stationary point found.
                           ----------------------------
                           !   Optimized Parameters   !
                           ! (Angstroms and Degrees)  !
 --------------------------                            --------------------------
 ! Name  Definition              Value          Derivative Info.                !
 --------------------------------------------------------------------------------
 ! R1    R(1,2)                  1.0902         -DE/DX =    0.0                 !
 ! R2    R(1,3)                  1.0902         -DE/DX =    0.0                 !
 ! R3    R(1,4)                  1.3993         -DE/DX =    0.0001              !
 ! R4    R(4,5)                  1.0902         -DE/DX =    0.0                 !
 ! R5    R(4,6)                  1.0902         -DE/DX =    0.0                 !
 ! A1    A(2,1,3)              115.2077         -DE/DX =    0.0                 !
 ! A2    A(2,1,4)              122.3962         -DE/DX =    0.0                 !
 ! A3    A(3,1,4)              122.3961         -DE/DX =    0.0                 !
 ! A4    A(1,4,5)              122.3962         -DE/DX =    0.0                 !
 ! A5    A(1,4,6)              122.3961         -DE/DX =    0.0                 !
 ! A6    A(5,4,6)              115.2077         -DE/DX =    0.0                 !
 ! D1    D(2,1,4,5)             89.9941         -DE/DX =    0.0                 !
 ! D2    D(2,1,4,6)            -90.0059         -DE/DX =    0.0                 !
 ! D3    D(3,1,4,5)            -90.0059         -DE/DX =    0.0                 !
 ! D4    D(3,1,4,6)             89.9941         -DE/DX =    0.0                 !
 --------------------------------------------------------------------------------
 Largest change from initial coordinates is atom    6       0.056 Angstoms.
 GradGradGradGradGradGradGradGradGradGradGradGradGradGradGradGradGradGrad

 Leave Link  103 at Mon Oct  6 14:23:37 2025, MaxMem=   104857600 cpu:               0.0 elap:               0.0
 (Enter /home/zhouoh/g16/l202.exe)
                          Input orientation:                          
 ---------------------------------------------------------------------
 Center     Atomic      Atomic             Coordinates (Angstroms)
 Number     Number       Type             X           Y           Z
 ---------------------------------------------------------------------
      1          6           0       -0.000026    0.699673   -0.000023
      2          1           0        0.650855    1.283818    0.650946
      3          1           0       -0.650951    1.283768   -0.650993
      4          6           0        0.000026   -0.699673   -0.000023
      5          1           0       -0.650855   -1.283818    0.650946
      6          1           0        0.650951   -1.283768   -0.650993
 ---------------------------------------------------------------------
                    Distance matrix (angstroms):
                    1          2          3          4          5
     1  C    0.000000
     2  H    1.090244   0.000000
     3  H    1.090244   1.841126   0.000000
     4  C    1.399346   2.186682   2.186680   0.000000
     5  H    2.186682   2.878750   2.878809   1.090244   0.000000
     6  H    2.186680   2.878809   2.878748   1.090244   1.841126
                    6
     6  H    0.000000
 Stoichiometry    C2H4
 Framework group  C2[X(C2H4)]
 Deg. of freedom     7
 Full point group                 C2      NOp   2
 RotChk:  IX=0 Diff= 1.13D-12
 Largest Abelian subgroup         C2      NOp   2
 Largest concise Abelian subgroup C2      NOp   2
                         Standard orientation:                         
 ---------------------------------------------------------------------
 Center     Atomic      Atomic             Coordinates (Angstroms)
 Number     Number       Type             X           Y           Z
 ---------------------------------------------------------------------
      1          6           0        0.000000    0.699673   -0.000000
      2          1           0       -0.650902    1.283794   -0.650969
      3          1           0        0.650903    1.283792    0.650970
      4          6           0       -0.000000   -0.699673   -0.000000
      5          1           0        0.650902   -1.283794   -0.650969
      6          1           0       -0.650903   -1.283792    0.650970
 ---------------------------------------------------------------------
 Rotational constants (GHZ):         147.9330115          25.1419046          25.1414666
 Leave Link  202 at Mon Oct  6 14:23:37 2025, MaxMem=   104857600 cpu:               0.0 elap:               0.0
 (Enter /home/zhouoh/g16/l601.exe)
 Leave Link  601 at Mon Oct  6 14:23:37 2025, MaxMem=   104857600 cpu:               0.0 elap:               0.0
 (Enter /home/zhouoh/g16/l9999.exe)
 1\1\GINC-ZHOUOH-B650M\FTS\RExternal='python ../GauUMA_client.py'\ZDO\C
 2H4\ZHOUOH\06-Oct-2025\0\\#p opt=(ts,noeigen,calcfc,nomicro) external=
 'python ../GauUMA_client.py'\\t\\0,1\C,-0.0000259749,0.6996731509,-0.0
 00022934\H,0.6508548241,1.2838179819,0.6509462596\H,-0.6509510318,1.28
 37677523,-0.6509930475\C,0.0000259749,-0.6996731509,-0.000022934\H,-0.
 6508548241,-1.2838179819,0.6509462596\H,0.6509510318,-1.2837677523,-0.
 6509930475\\Version=ES64L-G16RevA.03\HF=-78.419538\RMSD=0.000e+00\RMSF
 =3.947e-05\Dipole=0.,0.,0.\PG=C02 [X(C2H4)]\\@


 CHARLIE BROWN -- WHICH DO YOU THINK LASTS LONGER IN LIFE, THE GOOD THINGS 
                  OR THE BAD THINGS?
 LINUS --         GOOD THINGS LAST EIGHT SECONDS ..
                  BAD THINGS LAST THREE WEEKS
 CHARLIE BROWN -- WHAT ABOUT IN BETWEEN?
 SNOOPY --        IN BETWEEN YOU SHOULD TAKE A NAP ...
 Job cpu time:       0 days  0 hours  0 minutes  0.5 seconds.
 Elapsed time:       0 days  0 hours  0 minutes  1.7 seconds.
 File lengths (MBytes):  RWF=      6 Int=      0 D2E=      0 Chk=      1 Scr=      1
 Normal termination of Gaussian 16 at Mon Oct  6 14:23:37 2025.
