 Entering Gaussian System, Link 0=g16
 Input=C2H6.gjf
 Output=C2H6.log
 Initial command:
 /home/zhouoh/g16/l1.exe "/home/zhouoh/scratch/Gau-2811631.inp" -scrdir="/home/zhouoh/scratch/"
 Entering Link 1 = /home/zhouoh/g16/l1.exe PID=   2811633.
  
 Copyright (c) 1988,1990,1992,1993,1995,1998,2003,2009,2016,
            Gaussian, Inc.  All Rights Reserved.
  
 This is part of the Gaussian(R) 16 program.  It is based on
 the Gaussian(R) 09 system (copyright 2009, Gaussian, Inc.),
 the Gaussian(R) 03 system (copyright 2003, Gaussian, Inc.),
 the Gaussian(R) 98 system (copyright 1998, Gaussian, Inc.),
 the Gaussian(R) 94 system (copyright 1995, Gaussian, Inc.),
 the Gaussian 92(TM) system (copyright 1992, Gaussian, Inc.),
 the Gaussian 90(TM) system (copyright 1990, Gaussian, Inc.),
 the Gaussian 88(TM) system (copyright 1988, Gaussian, Inc.),
 the Gaussian 86(TM) system (copyright 1986, Carnegie Mellon
 University), and the Gaussian 82(TM) system (copyright 1983,
 Carnegie Mellon University). Gaussian is a federally registered
 trademark of Gaussian, Inc.
  
 This software contains proprietary and confidential information,
 including trade secrets, belonging to Gaussian, Inc.
  
 This software is provided under written license and may be
 used, copied, transmitted, or stored only in accord with that
 written license.
  
 The following legend is applicable only to US Government
 contracts under FAR:
  
                    RESTRICTED RIGHTS LEGEND
  
 Use, reproduction and disclosure by the US Government is
 subject to restrictions as set forth in subparagraphs (a)
 and (c) of the Commercial Computer Software - Restricted
 Rights clause in FAR 52.227-19.
  
 Gaussian, Inc.
 340 Quinnipiac St., Bldg. 40, Wallingford CT 06492
  
  
 ---------------------------------------------------------------
 Warning -- This program may not be used in any manner that
 competes with the business of Gaussian, Inc. or will provide
 assistance to any competitor of Gaussian, Inc.  The licensee
 of this program is prohibited from giving any competitor of
 Gaussian, Inc. access to this program.  By using this program,
 the user acknowledges that Gaussian, Inc. is engaged in the
 business of creating and licensing software in the field of
 computational chemistry and represents and warrants to the
 licensee that it is not a competitor of Gaussian, Inc. and that
 it will not use this program in any manner prohibited above.
 ---------------------------------------------------------------
  

 Cite this work as:
 Gaussian 16, Revision A.03,
 M. J. Frisch, G. W. Trucks, H. B. Schlegel, G. E. Scuseria, 
 M. A. Robb, J. R. Cheeseman, G. Scalmani, V. Barone, 
 G. A. Petersson, H. Nakatsuji, X. Li, M. Caricato, A. V. Marenich, 
 J. Bloino, B. G. Janesko, R. Gomperts, B. Mennucci, H. P. Hratchian, 
 J. V. Ortiz, A. F. Izmaylov, J. L. Sonnenberg, D. Williams-Young, 
 F. Ding, F. Lipparini, F. Egidi, J. Goings, B. Peng, A. Petrone, 
 T. Henderson, D. Ranasinghe, V. G. Zakrzewski, J. Gao, N. Rega, 
 G. Zheng, W. Liang, M. Hada, M. Ehara, K. Toyota, R. Fukuda, 
 J. Hasegawa, M. Ishida, T. Nakajima, Y. Honda, O. Kitao, H. Nakai, 
 T. Vreven, K. Throssell, J. A. Montgomery, Jr., J. E. Peralta, 
 F. Ogliaro, M. J. Bearpark, J. J. Heyd, E. N. Brothers, K. N. Kudin, 
 V. N. Staroverov, T. A. Keith, R. Kobayashi, J. Normand, 
 K. Raghavachari, A. P. Rendell, J. C. Burant, S. S. Iyengar, 
 J. Tomasi, M. Cossi, J. M. Millam, M. Klene, C. Adamo, R. Cammi, 
 J. W. Ochterski, R. L. Martin, K. Morokuma, O. Farkas, 
 J. B. Foresman, and D. J. Fox, Gaussian, Inc., Wallingford CT, 2016.
 
 ******************************************
 Gaussian 16:  ES64L-G16RevA.03 25-Dec-2016
                 6-Oct-2025 
 ******************************************
 %nproc=1
 Will use up to    1 processors via shared memory.
 -------------------------------------------------------------------
 #P opt=(nomicro,modredundant) external='python ../GauUMA_client.py'
 -------------------------------------------------------------------
 1/18=120,19=15,26=1,38=1/1,3;
 2/9=110,12=2,17=6,18=5,40=1/2;
 3/11=9,25=1,30=1,41=9900000,43=2,71=1/1;
 4/20=17,22=1,24=3,113=1,114=1/2;
 6/7=2,8=2,9=2,10=2/1;
 7/44=-1/16;
 1/18=20,19=15,26=1/3(2);
 2/9=110/2;
 99//99;
 2/9=110/2;
 3/11=9,25=1,30=1,41=9900000,43=2,71=1/1;
 4/16=2,20=17,22=1,24=3,113=1,114=1/2;
 7/44=-1/16;
 1/18=20,19=15,26=1/3(-4);
 2/9=110/2;
 6/7=2,8=2,9=2,10=2/1;
 99//99;
 Leave Link    1 at Mon Oct  6 14:21:00 2025, MaxMem=           0 cpu:               0.0 elap:               0.0
 (Enter /home/zhouoh/g16/l101.exe)
 -
 t
 -
 Symbolic Z-matrix:
 Charge =  0 Multiplicity = 1
 C                    -1.91621  -0.08242   0. 
 H                    -1.55955  -1.09123   0. 
 H                    -1.55954   0.42198  -0.87365 
 H                    -2.98621  -0.0824    0. 
 C                    -1.40287   0.64354   1.2574 
 H                    -0.33287   0.64183   1.25838 
 H                    -1.75792   1.65291   1.25643 
 H                    -1.76114   0.14027   2.13106 
 
 The following ModRedundant input section has been read:
 B       1       5 S  20 0.1000                                                
 
 ITRead=  0  0  0  0  0  0  0  0
 MicOpt= -1 -1 -1 -1 -1 -1 -1 -1
 NAtoms=      8 NQM=        8 NQMF=       0 NMMI=      0 NMMIF=      0
                NMic=       0 NMicF=      0.
                    Isotopes and Nuclear Properties:
 (Nuclear quadrupole moments (NQMom) in fm**2, nuclear magnetic moments (NMagM)
  in nuclear magnetons)

  Atom         1           2           3           4           5           6           7           8
 IAtWgt=          12           1           1           1          12           1           1           1
 AtmWgt=  12.0000000   1.0078250   1.0078250   1.0078250  12.0000000   1.0078250   1.0078250   1.0078250
 NucSpn=           0           1           1           1           0           1           1           1
 AtZEff=  -0.0000000  -0.0000000  -0.0000000  -0.0000000  -0.0000000  -0.0000000  -0.0000000  -0.0000000
 NQMom=    0.0000000   0.0000000   0.0000000   0.0000000   0.0000000   0.0000000   0.0000000   0.0000000
 NMagM=    0.0000000   2.7928460   2.7928460   2.7928460   0.0000000   2.7928460   2.7928460   2.7928460
 AtZNuc=   6.0000000   1.0000000   1.0000000   1.0000000   6.0000000   1.0000000   1.0000000   1.0000000
 Leave Link  101 at Mon Oct  6 14:21:00 2025, MaxMem=   104857600 cpu:               0.1 elap:               0.1
 (Enter /home/zhouoh/g16/l103.exe)

 GradGradGradGradGradGradGradGradGradGradGradGradGradGradGradGradGradGrad
 Berny optimization.
 Initialization pass.
                           ----------------------------
                           !    Initial Parameters    !
                           ! (Angstroms and Degrees)  !
 --------------------------                            --------------------------
 ! Name  Definition              Value          Derivative Info.                !
 --------------------------------------------------------------------------------
 ! R1    R(1,2)                  1.07           estimate D2E/DX2                !
 ! R2    R(1,3)                  1.07           estimate D2E/DX2                !
 ! R3    R(1,4)                  1.07           estimate D2E/DX2                !
 ! R4    R(1,5)                  1.54           Scan                            !
 ! R5    R(5,6)                  1.07           estimate D2E/DX2                !
 ! R6    R(5,7)                  1.07           estimate D2E/DX2                !
 ! R7    R(5,8)                  1.07           estimate D2E/DX2                !
 ! A1    A(2,1,3)              109.4712         estimate D2E/DX2                !
 ! A2    A(2,1,4)              109.4712         estimate D2E/DX2                !
 ! A3    A(2,1,5)              109.4712         estimate D2E/DX2                !
 ! A4    A(3,1,4)              109.4712         estimate D2E/DX2                !
 ! A5    A(3,1,5)              109.4713         estimate D2E/DX2                !
 ! A6    A(4,1,5)              109.4712         estimate D2E/DX2                !
 ! A7    A(1,5,6)              109.4712         estimate D2E/DX2                !
 ! A8    A(1,5,7)              109.4712         estimate D2E/DX2                !
 ! A9    A(1,5,8)              109.4712         estimate D2E/DX2                !
 ! A10   A(6,5,7)              109.4713         estimate D2E/DX2                !
 ! A11   A(6,5,8)              109.4712         estimate D2E/DX2                !
 ! A12   A(7,5,8)              109.4712         estimate D2E/DX2                !
 ! D1    D(2,1,5,6)             59.8889         estimate D2E/DX2                !
 ! D2    D(2,1,5,7)            179.8889         estimate D2E/DX2                !
 ! D3    D(2,1,5,8)            -60.1111         estimate D2E/DX2                !
 ! D4    D(3,1,5,6)            -60.1111         estimate D2E/DX2                !
 ! D5    D(3,1,5,7)             59.8889         estimate D2E/DX2                !
 ! D6    D(3,1,5,8)            179.8889         estimate D2E/DX2                !
 ! D7    D(4,1,5,6)            179.8889         estimate D2E/DX2                !
 ! D8    D(4,1,5,7)            -60.1111         estimate D2E/DX2                !
 ! D9    D(4,1,5,8)             59.8889         estimate D2E/DX2                !
 --------------------------------------------------------------------------------
 Trust Radius=3.00D-01 FncErr=1.00D-07 GrdErr=1.00D-07 EigMax=2.50D+02 EigMin=1.00D-04
 Number of optimizations in scan=  21
 Number of steps in this run=     38 maximum allowed number of steps=    100.
 GradGradGradGradGradGradGradGradGradGradGradGradGradGradGradGradGradGrad

 Leave Link  103 at Mon Oct  6 14:21:00 2025, MaxMem=   104857600 cpu:               0.0 elap:               0.0
 (Enter /home/zhouoh/g16/l202.exe)
                          Input orientation:                          
 ---------------------------------------------------------------------
 Center     Atomic      Atomic             Coordinates (Angstroms)
 Number     Number       Type             X           Y           Z
 ---------------------------------------------------------------------
      1          6           0       -1.916209   -0.082418    0.000000
      2          1           0       -1.559554   -1.091228    0.000000
      3          1           0       -1.559536    0.421981   -0.873652
      4          1           0       -2.986209   -0.082404    0.000000
      5          6           0       -1.402867    0.643539    1.257405
      6          1           0       -0.332868    0.641832    1.258383
      7          1           0       -1.757923    1.652912    1.256428
      8          1           0       -1.761136    0.140271    2.131055
 ---------------------------------------------------------------------
                    Distance matrix (angstroms):
                    1          2          3          4          5
     1  C    0.000000
     2  H    1.070000   0.000000
     3  H    1.070000   1.747302   0.000000
     4  H    1.070000   1.747303   1.747303   0.000000
     5  C    1.540000   2.148263   2.148263   2.148263   0.000000
     6  H    2.148263   2.468153   2.469538   3.024609   1.070000
     7  H    2.148263   3.024609   2.468154   2.469538   1.070000
     8  H    2.148263   2.469538   3.024610   2.468154   1.070000
                    6          7          8
     6  H    0.000000
     7  H    1.747303   0.000000
     8  H    1.747303   1.747303   0.000000
 Stoichiometry    C2H6
 Framework group  D3[C3(C.C),X(H6)]
 Deg. of freedom     4
 Full point group                 D3      NOp   6
 Largest Abelian subgroup         C2      NOp   2
 Largest concise Abelian subgroup C2      NOp   2
                         Standard orientation:                         
 ---------------------------------------------------------------------
 Center     Atomic      Atomic             Coordinates (Angstroms)
 Number     Number       Type             X           Y           Z
 ---------------------------------------------------------------------
      1          6           0       -0.000000    0.000000    0.770000
      2          1           0       -0.503556    0.874140    1.126666
      3          1           0        1.008805   -0.000978    1.126666
      4          1           0       -0.505250   -0.873162    1.126666
      5          6           0        0.000000    0.000000   -0.770000
      6          1           0        0.503556    0.874140   -1.126666
      7          1           0        0.505250   -0.873162   -1.126666
      8          1           0       -1.008805   -0.000978   -1.126666
 ---------------------------------------------------------------------
 Rotational constants (GHZ):          82.1231632          20.2293894          20.2293894
 Leave Link  202 at Mon Oct  6 14:21:00 2025, MaxMem=   104857600 cpu:               0.0 elap:               0.0
 (Enter /home/zhouoh/g16/l301.exe)
 Standard basis: STO-3G (5D, 7F)
 Ernie: Thresh=  0.10000D-02 Tol=  0.10000D-05 Strict=F.
 There are     8 symmetry adapted cartesian basis functions of A   symmetry.
 There are     8 symmetry adapted cartesian basis functions of B   symmetry.
 There are     8 symmetry adapted basis functions of A   symmetry.
 There are     8 symmetry adapted basis functions of B   symmetry.
    16 basis functions,    48 primitive gaussians,    16 cartesian basis functions
     9 alpha electrons        9 beta electrons
       nuclear repulsion energy        42.6703239662 Hartrees.
 IExCor=    0 DFT=F Ex=HF Corr=None ExCW=0 ScaHFX=  1.000000
 ScaDFX=  1.000000  1.000000  1.000000  1.000000 ScalE2=  1.000000  1.000000
 IRadAn=      5 IRanWt=     -1 IRanGd=            0 ICorTp=0 IEmpDi=  4
 NAtoms=    8 NActive=    8 NUniq=    2 SFac= 4.00D+00 NAtFMM=   60 NAOKFM=F Big=F
 Integral buffers will be    131072 words long.
 Raffenetti 1 integral format.
 Two-electron integral symmetry is turned on.
 Leave Link  301 at Mon Oct  6 14:21:00 2025, MaxMem=   104857600 cpu:               0.0 elap:               0.0
 (Enter /home/zhouoh/g16/l402.exe)
 External calculation of energy and first derivatives.
 Running external command "python ../GauUMA_client.py R"
         input file       "/home/zhouoh/scratch/Gau-2811633.EIn"
         output file      "/home/zhouoh/scratch/Gau-2811633.EOu"
         message file     "/home/zhouoh/scratch/Gau-2811633.EMs"
         fchk file        "/home/zhouoh/scratch/Gau-2811633.EFC"
         mat. el file     "/home/zhouoh/scratch/Gau-2811633.EUF"
Sent job to server.
Received result from server:
SCF Done:  E(UMA) =  -79.7898654227763     A.U.
 Recovered energy= -79.7898654228     dipole=      0.000000000000      0.000000000000      0.000000000000
 Energy=    -79.7898654     NIter=   0.
 Dipole moment=       0.000000       0.000000       0.000000
 Leave Link  402 at Mon Oct  6 14:21:00 2025, MaxMem=   104857600 cpu:               0.0 elap:               0.1
 (Enter /home/zhouoh/g16/l601.exe)
 Leave Link  601 at Mon Oct  6 14:21:00 2025, MaxMem=   104857600 cpu:               0.0 elap:               0.0
 (Enter /home/zhouoh/g16/l716.exe)
 Dipole        = 0.00000000D+00 0.00000000D+00 0.00000000D+00
 ***** Axes restored to original set *****
 -------------------------------------------------------------------
 Center     Atomic                   Forces (Hartrees/Bohr)
 Number     Number              X              Y              Z
 -------------------------------------------------------------------
      1        6           0.008397584    0.011875697    0.020569499
      2        1           0.002776772   -0.013404699   -0.003202180
      3        1           0.002786227    0.003929572   -0.013206801
      4        1          -0.013565271   -0.001841530   -0.003192216
      5        6          -0.008397617   -0.011875672   -0.020569489
      6        1           0.013563690    0.001830533    0.003213386
      7        1          -0.002766903    0.013409825    0.003181011
      8        1          -0.002794481   -0.003923727    0.013206793
 -------------------------------------------------------------------
 Cartesian Forces:  Max     0.020569499 RMS     0.010114051
 Leave Link  716 at Mon Oct  6 14:21:00 2025, MaxMem=   104857600 cpu:               0.0 elap:               0.0
 (Enter /home/zhouoh/g16/l103.exe)

 GradGradGradGradGradGradGradGradGradGradGradGradGradGradGradGradGradGrad
 Berny optimization.
 FormGI is forming the generalized inverse of G from B-inverse, IUseBI=4.
 Internal  Forces:  Max     0.013565247 RMS     0.006741523
 Search for a local minimum.
 Step number   1 out of a maximum of   38 on scan point     1 out of    21
 All quantities printed in internal units (Hartrees-Bohrs-Radians)
 RMS Force = .68614D-02 SwitMx=.10000D-02 MixMth= 1
 Mixed Optimization -- RFO/linear search
 Second derivative matrix not updated -- first step.
 ITU=  0
     Eigenvalues ---    0.00237   0.05720   0.05720   0.05720   0.05720
     Eigenvalues ---    0.16000   0.16000   0.16000   0.16000   0.16000
     Eigenvalues ---    0.16000   0.37230   0.37230   0.37230   0.37230
     Eigenvalues ---    0.37230   0.372301000.000001000.000001000.00000
     Eigenvalues --- 1000.000001000.000001000.000001000.000001000.00000
     Eigenvalues --- 1000.000001000.000001000.00000
 RFO step:  Lambda=-3.95373649D-03 EMin= 2.36825132D-03
 Linear search not attempted -- first point.
 Iteration  1 RMS(Cart)=  0.02692244 RMS(Int)=  0.00028182
 Iteration  2 RMS(Cart)=  0.00027981 RMS(Int)=  0.00017250
 Iteration  3 RMS(Cart)=  0.00000012 RMS(Int)=  0.00017250
 Iteration  1 RMS(Cart)=  0.00000004 RMS(Int)=  0.00000000
 ITry= 1 IFail=0 DXMaxC= 5.57D-02 DCOld= 1.00D+10 DXMaxT= 3.00D-01 DXLimC= 3.00D+00 Rises=F
 ClnCor:  largest displacement from symmetrization is 2.60D-04 for atom     7.
 Variable       Old X    -DE/DX   Delta X   Delta X   Delta X     New X
                                 (Linear)    (Quad)   (Total)
    R1        2.02201   0.01356   0.00000   0.03605   0.03607   2.05808
    R2        2.02201   0.01356   0.00000   0.03605   0.03607   2.05808
    R3        2.02201   0.01357   0.00000   0.03605   0.03607   2.05808
    R4        2.91018  -0.00119   0.00000   0.00000   0.00000   2.91018
    R5        2.02201   0.01356   0.00000   0.03605   0.03607   2.05808
    R6        2.02201   0.01357   0.00000   0.03605   0.03607   2.05808
    R7        2.02201   0.01356   0.00000   0.03605   0.03607   2.05808
    A1        1.91063  -0.00374   0.00000  -0.02279  -0.02309   1.88755
    A2        1.91063  -0.00373   0.00000  -0.02277  -0.02309   1.88755
    A3        1.91063   0.00374   0.00000   0.02283   0.02256   1.93319
    A4        1.91063  -0.00373   0.00000  -0.02274  -0.02309   1.88755
    A5        1.91063   0.00373   0.00000   0.02277   0.02256   1.93319
    A6        1.91063   0.00372   0.00000   0.02270   0.02256   1.93319
    A7        1.91063   0.00374   0.00000   0.02283   0.02256   1.93319
    A8        1.91063   0.00372   0.00000   0.02270   0.02256   1.93319
    A9        1.91063   0.00373   0.00000   0.02277   0.02256   1.93319
   A10        1.91063  -0.00373   0.00000  -0.02277  -0.02309   1.88755
   A11        1.91063  -0.00374   0.00000  -0.02279  -0.02309   1.88755
   A12        1.91063  -0.00373   0.00000  -0.02274  -0.02309   1.88755
    D1        1.04526   0.00000   0.00000   0.00029   0.00028   1.04554
    D2        3.13965   0.00000   0.00000   0.00029   0.00028   3.13993
    D3       -1.04914   0.00000   0.00000   0.00028   0.00028  -1.04886
    D4       -1.04914   0.00000   0.00000   0.00028   0.00028  -1.04886
    D5        1.04526   0.00000   0.00000   0.00028   0.00028   1.04554
    D6        3.13965   0.00000   0.00000   0.00027   0.00028   3.13993
    D7        3.13965   0.00000   0.00000   0.00029   0.00028   3.13993
    D8       -1.04914   0.00000   0.00000   0.00029   0.00028  -1.04886
    D9        1.04526   0.00000   0.00000   0.00028   0.00028   1.04554
         Item               Value     Threshold  Converged?
 Maximum Force            0.013565     0.000450     NO 
 RMS     Force            0.006861     0.000300     NO 
 Maximum Displacement     0.055827     0.001800     NO 
 RMS     Displacement     0.027067     0.001200     NO 
 Predicted change in Energy=-2.004587D-03
 GradGradGradGradGradGradGradGradGradGradGradGradGradGradGradGradGradGrad

 Leave Link  103 at Mon Oct  6 14:21:00 2025, MaxMem=   104857600 cpu:               0.0 elap:               0.0
 (Enter /home/zhouoh/g16/l202.exe)
                          Input orientation:                          
 ---------------------------------------------------------------------
 Center     Atomic      Atomic             Coordinates (Angstroms)
 Number     Number       Type             X           Y           Z
 ---------------------------------------------------------------------
      1          6           0       -1.916209   -0.082418   -0.000000
      2          1           0       -1.564980   -1.113098   -0.021204
      3          1           0       -1.564731    0.414391   -0.903193
      4          1           0       -3.005020   -0.094565   -0.021345
      5          6           0       -1.402867    0.643539    1.257405
      6          1           0       -0.314057    0.654220    1.279597
      7          1           0       -1.752713    1.674706    1.277763
      8          1           0       -1.755726    0.147709    2.160597
 ---------------------------------------------------------------------
                    Distance matrix (angstroms):
                    1          2          3          4          5
     1  C    0.000000
     2  H    1.089088   0.000000
     3  H    1.089088   1.763838   0.000000
     4  H    1.089088   1.763838   1.763838   0.000000
     5  C    1.540000   2.178737   2.178737   2.178737   0.000000
     6  H    2.178737   2.525926   2.527108   3.081300   1.089088
     7  H    2.178737   3.081300   2.525926   2.527108   1.089088
     8  H    2.178737   2.527108   3.081300   2.525926   1.089088
                    6          7          8
     6  H    0.000000
     7  H    1.763838   0.000000
     8  H    1.763838   1.763838   0.000000
 Stoichiometry    C2H6
 Framework group  D3[C3(C.C),X(H6)]
 Deg. of freedom     4
 Full point group                 D3      NOp   6
 RotChk:  IX=0 Diff= 9.86D-16
 Largest Abelian subgroup         C2      NOp   2
 Largest concise Abelian subgroup C2      NOp   2
                         Standard orientation:                         
 ---------------------------------------------------------------------
 Center     Atomic      Atomic             Coordinates (Angstroms)
 Number     Number       Type             X           Y           Z
 ---------------------------------------------------------------------
      1          6           0       -0.000000   -0.000000    0.770000
      2          1           0       -0.508443    0.882342    1.156097
      3          1           0        1.018352   -0.000846    1.156097
      4          1           0       -0.509909   -0.881496    1.156097
      5          6           0        0.000000   -0.000000   -0.770000
      6          1           0        0.508443    0.882342   -1.156097
      7          1           0        0.509909   -0.881496   -1.156097
      8          1           0       -1.018352   -0.000846   -1.156097
 ---------------------------------------------------------------------
 Rotational constants (GHZ):          80.5906160          19.8599138          19.8599138
 Leave Link  202 at Mon Oct  6 14:21:00 2025, MaxMem=   104857600 cpu:               0.0 elap:               0.0
 (Enter /home/zhouoh/g16/l301.exe)
 Standard basis: STO-3G (5D, 7F)
 Ernie: Thresh=  0.10000D-02 Tol=  0.10000D-05 Strict=F.
 There are     8 symmetry adapted cartesian basis functions of A   symmetry.
 There are     8 symmetry adapted cartesian basis functions of B   symmetry.
 There are     8 symmetry adapted basis functions of A   symmetry.
 There are     8 symmetry adapted basis functions of B   symmetry.
    16 basis functions,    48 primitive gaussians,    16 cartesian basis functions
     9 alpha electrons        9 beta electrons
       nuclear repulsion energy        42.1781917685 Hartrees.
 IExCor=    0 DFT=F Ex=HF Corr=None ExCW=0 ScaHFX=  1.000000
 ScaDFX=  1.000000  1.000000  1.000000  1.000000 ScalE2=  1.000000  1.000000
 IRadAn=      5 IRanWt=     -1 IRanGd=            0 ICorTp=0 IEmpDi=  4
 NAtoms=    8 NActive=    8 NUniq=    2 SFac= 4.00D+00 NAtFMM=   60 NAOKFM=F Big=F
 Integral buffers will be    131072 words long.
 Raffenetti 1 integral format.
 Two-electron integral symmetry is turned on.
 Leave Link  301 at Mon Oct  6 14:21:00 2025, MaxMem=   104857600 cpu:               0.0 elap:               0.0
 (Enter /home/zhouoh/g16/l402.exe)
 External calculation of energy and first derivatives.
 Running external command "python ../GauUMA_client.py R"
         input file       "/home/zhouoh/scratch/Gau-2811633.EIn"
         output file      "/home/zhouoh/scratch/Gau-2811633.EOu"
         message file     "/home/zhouoh/scratch/Gau-2811633.EMs"
         fchk file        "/home/zhouoh/scratch/Gau-2811633.EFC"
         mat. el file     "/home/zhouoh/scratch/Gau-2811633.EUF"
Sent job to server.
Received result from server:
SCF Done:  E(UMA) =  -79.79200236932361     A.U.
 Recovered energy= -79.7920023693     dipole=      0.000000000000      0.000000000000      0.000000000000
 Energy=    -79.7920024     NIter=   0.
 Dipole moment=       0.000000       0.000000       0.000000
 Leave Link  402 at Mon Oct  6 14:21:01 2025, MaxMem=   104857600 cpu:               0.0 elap:               0.1
 (Enter /home/zhouoh/g16/l716.exe)
 Dipole        = 0.00000000D+00 0.00000000D+00 0.00000000D+00
 ***** Axes restored to original set *****
 -------------------------------------------------------------------
 Center     Atomic                   Forces (Hartrees/Bohr)
 Number     Number              X              Y              Z
 -------------------------------------------------------------------
      1        6           0.003294745    0.004659400    0.008070424
      2        1          -0.000183070   -0.000757663   -0.000736867
      3        1          -0.000175729   -0.000257523   -0.001021948
      4        1          -0.000655590   -0.000419392   -0.000725956
      5        6          -0.003294797   -0.004659365   -0.008070419
      6        1           0.000653317    0.000424581    0.000737186
      7        1           0.000177434    0.000758078    0.000725627
      8        1           0.000183689    0.000251884    0.001021953
 -------------------------------------------------------------------
 Cartesian Forces:  Max     0.008070424 RMS     0.002902899
 Leave Link  716 at Mon Oct  6 14:21:01 2025, MaxMem=   104857600 cpu:               0.0 elap:               0.0
 (Enter /home/zhouoh/g16/l103.exe)

 GradGradGradGradGradGradGradGradGradGradGradGradGradGradGradGradGradGrad
 Berny optimization.
 Using GEDIIS/GDIIS optimizer.
 FormGI is forming the generalized inverse of G from B-inverse, IUseBI=4.
 Internal  Forces:  Max     0.006840981 RMS     0.001437598
 Search for a local minimum.
 Step number   2 out of a maximum of   38 on scan point     1 out of    21
 All quantities printed in internal units (Hartrees-Bohrs-Radians)
 RMS Force = .64026D-03 SwitMx=.10000D-02 MixMth= 2
 Mixed Optimization -- En-DIIS/RFO-DIIS
 Update second derivatives using D2CorX and points    1    2
 DE= -2.14D-03 DEPred=-2.00D-03 R= 1.07D+00
 TightC=F SS=  1.41D+00  RLast= 1.19D-01 DXNew= 5.0454D-01 3.5571D-01
 Trust test= 1.07D+00 RLast= 1.19D-01 DXMaxT set to 3.56D-01
 ITU=  1  0
 Use linear search instead of GDIIS.
     Eigenvalues ---    0.00237   0.05480   0.05480   0.05480   0.05480
     Eigenvalues ---    0.14572   0.16000   0.16000   0.16000   0.16000
     Eigenvalues ---    0.16000   0.37230   0.37230   0.37230   0.37230
     Eigenvalues ---    0.37230   0.374971000.000001000.000001000.00000
     Eigenvalues --- 1000.000001000.000001000.000001000.000001000.00000
     Eigenvalues --- 1000.000001000.000001000.00000
 RFO step:  Lambda=-3.03705289D-05 EMin= 2.36825191D-03
 Quartic linear search produced a step of  0.11031.
 Iteration  1 RMS(Cart)=  0.00577838 RMS(Int)=  0.00003291
 Iteration  2 RMS(Cart)=  0.00001482 RMS(Int)=  0.00002962
 Iteration  3 RMS(Cart)=  0.00000000 RMS(Int)=  0.00002962
 Iteration  1 RMS(Cart)=  0.00000000 RMS(Int)=  0.00000000
 ITry= 1 IFail=0 DXMaxC= 1.08D-02 DCOld= 1.00D+10 DXMaxT= 3.56D-01 DXLimC= 3.00D+00 Rises=F
 ClnCor:  largest displacement from symmetrization is 2.53D-04 for atom     4.
 Variable       Old X    -DE/DX   Delta X   Delta X   Delta X     New X
                                 (Linear)    (Quad)   (Total)
    R1        2.05808   0.00067   0.00398  -0.00162   0.00238   2.06046
    R2        2.05808   0.00067   0.00398  -0.00161   0.00238   2.06046
    R3        2.05808   0.00067   0.00398  -0.00161   0.00238   2.06046
    R4        2.91018  -0.00684   0.00000   0.00000   0.00000   2.91018
    R5        2.05808   0.00067   0.00398  -0.00162   0.00238   2.06046
    R6        2.05808   0.00067   0.00398  -0.00161   0.00238   2.06046
    R7        2.05808   0.00067   0.00398  -0.00161   0.00238   2.06046
    A1        1.88755  -0.00086  -0.00255  -0.00370  -0.00632   1.88122
    A2        1.88755  -0.00085  -0.00255  -0.00367  -0.00632   1.88122
    A3        1.93319   0.00083   0.00249   0.00357   0.00601   1.93920
    A4        1.88755  -0.00085  -0.00255  -0.00364  -0.00632   1.88122
    A5        1.93319   0.00081   0.00249   0.00351   0.00601   1.93920
    A6        1.93319   0.00080   0.00249   0.00344   0.00601   1.93920
    A7        1.93319   0.00083   0.00249   0.00357   0.00601   1.93920
    A8        1.93319   0.00080   0.00249   0.00344   0.00601   1.93920
    A9        1.93319   0.00081   0.00249   0.00351   0.00601   1.93920
   A10        1.88755  -0.00085  -0.00255  -0.00367  -0.00632   1.88122
   A11        1.88755  -0.00086  -0.00255  -0.00370  -0.00632   1.88122
   A12        1.88755  -0.00085  -0.00255  -0.00364  -0.00632   1.88122
    D1        1.04554   0.00000   0.00003   0.00055   0.00057   1.04610
    D2        3.13993   0.00000   0.00003   0.00055   0.00057   3.14050
    D3       -1.04886   0.00000   0.00003   0.00054   0.00057  -1.04829
    D4       -1.04886   0.00000   0.00003   0.00054   0.00057  -1.04829
    D5        1.04554   0.00000   0.00003   0.00054   0.00057   1.04610
    D6        3.13993   0.00000   0.00003   0.00054   0.00057   3.14050
    D7        3.13993   0.00000   0.00003   0.00055   0.00057   3.14050
    D8       -1.04886   0.00000   0.00003   0.00055   0.00057  -1.04829
    D9        1.04554   0.00000   0.00003   0.00054   0.00057   1.04610
         Item               Value     Threshold  Converged?
 Maximum Force            0.000858     0.000450     NO 
 RMS     Force            0.000640     0.000300     NO 
 Maximum Displacement     0.011041     0.001800     NO 
 RMS     Displacement     0.005839     0.001200     NO 
 Predicted change in Energy=-3.366277D-05
 GradGradGradGradGradGradGradGradGradGradGradGradGradGradGradGradGradGrad

 Leave Link  103 at Mon Oct  6 14:21:01 2025, MaxMem=   104857600 cpu:               0.0 elap:               0.0
 (Enter /home/zhouoh/g16/l202.exe)
                          Input orientation:                          
 ---------------------------------------------------------------------
 Center     Atomic      Atomic             Coordinates (Angstroms)
 Number     Number       Type             X           Y           Z
 ---------------------------------------------------------------------
      1          6           0       -1.916209   -0.082418   -0.000000
      2          1           0       -1.567952   -1.115309   -0.026756
      3          1           0       -1.567231    0.410354   -0.907884
      4          1           0       -3.006114   -0.097603   -0.027186
      5          6           0       -1.402867    0.643539    1.257405
      6          1           0       -0.312963    0.657762    1.285148
      7          1           0       -1.750215    1.676750    1.283606
      8          1           0       -1.752752    0.151410    2.165288
 ---------------------------------------------------------------------
                    Distance matrix (angstroms):
                    1          2          3          4          5
     1  C    0.000000
     2  H    1.090350   0.000000
     3  H    1.090350   1.761827   0.000000
     4  H    1.090350   1.761827   1.761827   0.000000
     5  C    1.540000   2.184003   2.184003   2.184003   0.000000
     6  H    2.184003   2.537690   2.538462   3.089638   1.090350
     7  H    2.184003   3.089638   2.537690   2.538462   1.090350
     8  H    2.184003   2.538462   3.089638   2.537690   1.090350
                    6          7          8
     6  H    0.000000
     7  H    1.761827   0.000000
     8  H    1.761827   1.761827   0.000000
 Stoichiometry    C2H6
 Framework group  D3[C3(C.C),X(H6)]
 Deg. of freedom     4
 Full point group                 D3      NOp   6
 RotChk:  IX=0 Diff= 7.29D-16
 Largest Abelian subgroup         C2      NOp   2
 Largest concise Abelian subgroup C2      NOp   2
                         Standard orientation:                         
 ---------------------------------------------------------------------
 Center     Atomic      Atomic             Coordinates (Angstroms)
 Number     Number       Type             X           Y           Z
 ---------------------------------------------------------------------
      1          6           0       -0.000000   -0.000000    0.770000
      2          1           0       -0.508114    0.881191    1.162664
      3          1           0        1.017191   -0.000556    1.162664
      4          1           0       -0.509077   -0.880635    1.162664
      5          6           0        0.000000   -0.000000   -0.770000
      6          1           0        0.508114    0.881191   -1.162664
      7          1           0        0.509077   -0.880635   -1.162664
      8          1           0       -1.017191   -0.000556   -1.162664
 ---------------------------------------------------------------------
 Rotational constants (GHZ):          80.7747693          19.7938563          19.7938563
 Leave Link  202 at Mon Oct  6 14:21:01 2025, MaxMem=   104857600 cpu:               0.0 elap:               0.0
 (Enter /home/zhouoh/g16/l301.exe)
 Standard basis: STO-3G (5D, 7F)
 Ernie: Thresh=  0.10000D-02 Tol=  0.10000D-05 Strict=F.
 There are     8 symmetry adapted cartesian basis functions of A   symmetry.
 There are     8 symmetry adapted cartesian basis functions of B   symmetry.
 There are     8 symmetry adapted basis functions of A   symmetry.
 There are     8 symmetry adapted basis functions of B   symmetry.
    16 basis functions,    48 primitive gaussians,    16 cartesian basis functions
     9 alpha electrons        9 beta electrons
       nuclear repulsion energy        42.1318120401 Hartrees.
 IExCor=    0 DFT=F Ex=HF Corr=None ExCW=0 ScaHFX=  1.000000
 ScaDFX=  1.000000  1.000000  1.000000  1.000000 ScalE2=  1.000000  1.000000
 IRadAn=      5 IRanWt=     -1 IRanGd=            0 ICorTp=0 IEmpDi=  4
 NAtoms=    8 NActive=    8 NUniq=    2 SFac= 4.00D+00 NAtFMM=   60 NAOKFM=F Big=F
 Integral buffers will be    131072 words long.
 Raffenetti 1 integral format.
 Two-electron integral symmetry is turned on.
 Leave Link  301 at Mon Oct  6 14:21:01 2025, MaxMem=   104857600 cpu:               0.0 elap:               0.0
 (Enter /home/zhouoh/g16/l402.exe)
 External calculation of energy and first derivatives.
 Running external command "python ../GauUMA_client.py R"
         input file       "/home/zhouoh/scratch/Gau-2811633.EIn"
         output file      "/home/zhouoh/scratch/Gau-2811633.EOu"
         message file     "/home/zhouoh/scratch/Gau-2811633.EMs"
         fchk file        "/home/zhouoh/scratch/Gau-2811633.EFC"
         mat. el file     "/home/zhouoh/scratch/Gau-2811633.EUF"
Sent job to server.
Received result from server:
SCF Done:  E(UMA) =  -79.79203827047596     A.U.
 Recovered energy= -79.7920382705     dipole=      0.000000000000      0.000000000000      0.000000000000
 Energy=    -79.7920383     NIter=   0.
 Dipole moment=       0.000000       0.000000       0.000000
 Leave Link  402 at Mon Oct  6 14:21:01 2025, MaxMem=   104857600 cpu:               0.0 elap:               0.1
 (Enter /home/zhouoh/g16/l716.exe)
 Dipole        = 0.00000000D+00 0.00000000D+00 0.00000000D+00
 ***** Axes restored to original set *****
 -------------------------------------------------------------------
 Center     Atomic                   Forces (Hartrees/Bohr)
 Number     Number              X              Y              Z
 -------------------------------------------------------------------
      1        6           0.002684278    0.003795878    0.006574757
      2        1          -0.000025364    0.000045045   -0.000019961
      3        1          -0.000021169   -0.000035681    0.000031607
      4        1           0.000048357   -0.000006617   -0.000006926
      5        6          -0.002684119   -0.003795988   -0.006574744
      6        1          -0.000050927    0.000008994    0.000019903
      7        1           0.000022281   -0.000043418    0.000006969
      8        1           0.000026661    0.000031787   -0.000031604
 -------------------------------------------------------------------
 Cartesian Forces:  Max     0.006574757 RMS     0.002324679
 Leave Link  716 at Mon Oct  6 14:21:01 2025, MaxMem=   104857600 cpu:               0.0 elap:               0.0
 (Enter /home/zhouoh/g16/l103.exe)

 GradGradGradGradGradGradGradGradGradGradGradGradGradGradGradGradGradGrad
 Berny optimization.
 Using GEDIIS/GDIIS optimizer.
 FormGI is forming the generalized inverse of G from B-inverse, IUseBI=4.
 Internal  Forces:  Max     0.008058177 RMS     0.001523069
 Search for a local minimum.
 Step number   3 out of a maximum of   38 on scan point     1 out of    21
 All quantities printed in internal units (Hartrees-Bohrs-Radians)
 RMS Force = .26167D-04 SwitMx=.10000D-02 MixMth= 2
 Mixed Optimization -- En-DIIS/RFO-DIIS
 Swapping is turned off.
 Update second derivatives using D2CorX and points    1    2    3
 DE= -3.59D-05 DEPred=-3.37D-05 R= 1.07D+00
 TightC=F SS=  1.41D+00  RLast= 2.22D-02 DXNew= 5.9824D-01 6.6656D-02
 Trust test= 1.07D+00 RLast= 2.22D-02 DXMaxT set to 3.56D-01
 ITU=  1  1  0
     Eigenvalues ---    0.00237   0.05417   0.05417   0.05417   0.05417
     Eigenvalues ---    0.13626   0.16000   0.16000   0.16000   0.16000
     Eigenvalues ---    0.16000   0.37230   0.37230   0.37230   0.37230
     Eigenvalues ---    0.37230   0.378141000.000001000.000001000.00000
     Eigenvalues --- 1000.000001000.000001000.000001000.000001000.00000
     Eigenvalues --- 1000.000001000.000001000.00000
 En-DIIS/RFO-DIIS/Sim-DIIS IScMMF=       -3 using points:     3    2
 RFO step:  Lambda=-1.26954004D-07.
 NNeg= 0 NGDIIS= 2 SimSw=  2.50D-03 Rises=F DC= -3.59D-05 SmlDif=  1.00D-05
 NRisDI= 0 DoIntr=F SqrtH=F CThrHd= 10.0 CDAdj=  3.0
 RMS Error=  0.1122695155D-03 NUsed= 2 OKEnD=T EnDIS=F
 InvSVX:  RCond= 1.23D-04 Info=           0 Equed=N FErr=  1.02D-15 BErr=  9.12D-17
 DidBck=F Rises=F RFO-DIIS coefs:    1.01191   -0.01191
 Iteration  1 RMS(Cart)=  0.00013480 RMS(Int)=  0.00000014
 Iteration  2 RMS(Cart)=  0.00000001 RMS(Int)=  0.00000014
 Iteration  1 RMS(Cart)=  0.00000000 RMS(Int)=  0.00000000
 ITry= 1 IFail=0 DXMaxC= 3.52D-04 DCOld= 1.00D+10 DXMaxT= 3.56D-01 DXLimC= 3.00D+00 Rises=F
 ClnCor:  largest displacement from symmetrization is 2.56D-04 for atom     7.
 Variable       Old X    -DE/DX   Delta X   Delta X   Delta X     New X
                                 (Linear)    (Quad)   (Total)
    R1        2.06046  -0.00005   0.00003  -0.00015  -0.00010   2.06036
    R2        2.06046  -0.00005   0.00003  -0.00015  -0.00010   2.06036
    R3        2.06046  -0.00005   0.00003  -0.00015  -0.00010   2.06036
    R4        2.91018  -0.00806   0.00000   0.00000  -0.00000   2.91018
    R5        2.06046  -0.00005   0.00003  -0.00015  -0.00010   2.06036
    R6        2.06046  -0.00005   0.00003  -0.00015  -0.00010   2.06036
    R7        2.06046  -0.00005   0.00003  -0.00015  -0.00010   2.06036
    A1        1.88122  -0.00002  -0.00008  -0.00007  -0.00018   1.88104
    A2        1.88122  -0.00002  -0.00008  -0.00004  -0.00018   1.88104
    A3        1.93920   0.00003   0.00007   0.00010   0.00017   1.93937
    A4        1.88122  -0.00001  -0.00008  -0.00001  -0.00018   1.88104
    A5        1.93920   0.00002   0.00007   0.00004   0.00017   1.93937
    A6        1.93920   0.00001   0.00007  -0.00003   0.00017   1.93937
    A7        1.93920   0.00003   0.00007   0.00010   0.00017   1.93937
    A8        1.93920   0.00001   0.00007  -0.00003   0.00017   1.93937
    A9        1.93920   0.00002   0.00007   0.00004   0.00017   1.93937
   A10        1.88122  -0.00002  -0.00008  -0.00004  -0.00018   1.88104
   A11        1.88122  -0.00002  -0.00008  -0.00007  -0.00018   1.88104
   A12        1.88122  -0.00001  -0.00008  -0.00001  -0.00018   1.88104
    D1        1.04610   0.00000   0.00001  -0.00011  -0.00011   1.04599
    D2        3.14050   0.00000   0.00001  -0.00011  -0.00011   3.14039
    D3       -1.04829  -0.00000   0.00001  -0.00011  -0.00011  -1.04840
    D4       -1.04829  -0.00000   0.00001  -0.00011  -0.00011  -1.04840
    D5        1.04610  -0.00000   0.00001  -0.00011  -0.00011   1.04599
    D6        3.14050  -0.00000   0.00001  -0.00012  -0.00011   3.14039
    D7        3.14050   0.00000   0.00001  -0.00011  -0.00011   3.14039
    D8       -1.04829   0.00000   0.00001  -0.00011  -0.00011  -1.04840
    D9        1.04610  -0.00000   0.00001  -0.00011  -0.00011   1.04599
         Item               Value     Threshold  Converged?
 Maximum Force            0.000050     0.000450     YES
 RMS     Force            0.000026     0.000300     YES
 Maximum Displacement     0.000352     0.001800     YES
 RMS     Displacement     0.000175     0.001200     YES
 Predicted change in Energy=-2.609038D-08
 Optimization completed.
    -- Stationary point found.
                           ----------------------------
                           !   Optimized Parameters   !
                           ! (Angstroms and Degrees)  !
 --------------------------                            --------------------------
 ! Name  Definition              Value          Derivative Info.                !
 --------------------------------------------------------------------------------
 ! R1    R(1,2)                  1.0903         -DE/DX =   -0.0001              !
 ! R2    R(1,3)                  1.0903         -DE/DX =    0.0                 !
 ! R3    R(1,4)                  1.0903         -DE/DX =    0.0                 !
 ! R4    R(1,5)                  1.54           -DE/DX =   -0.0081              !
 ! R5    R(5,6)                  1.0903         -DE/DX =   -0.0001              !
 ! R6    R(5,7)                  1.0903         -DE/DX =    0.0                 !
 ! R7    R(5,8)                  1.0903         -DE/DX =    0.0                 !
 ! A1    A(2,1,3)              107.786          -DE/DX =    0.0                 !
 ! A2    A(2,1,4)              107.786          -DE/DX =    0.0                 !
 ! A3    A(2,1,5)              111.108          -DE/DX =    0.0                 !
 ! A4    A(3,1,4)              107.786          -DE/DX =    0.0                 !
 ! A5    A(3,1,5)              111.108          -DE/DX =    0.0                 !
 ! A6    A(4,1,5)              111.108          -DE/DX =    0.0                 !
 ! A7    A(1,5,6)              111.108          -DE/DX =    0.0                 !
 ! A8    A(1,5,7)              111.108          -DE/DX =    0.0                 !
 ! A9    A(1,5,8)              111.108          -DE/DX =    0.0                 !
 ! A10   A(6,5,7)              107.786          -DE/DX =    0.0                 !
 ! A11   A(6,5,8)              107.786          -DE/DX =    0.0                 !
 ! A12   A(7,5,8)              107.786          -DE/DX =    0.0                 !
 ! D1    D(2,1,5,6)             59.9374         -DE/DX =    0.0                 !
 ! D2    D(2,1,5,7)            179.9374         -DE/DX =    0.0                 !
 ! D3    D(2,1,5,8)            -60.0626         -DE/DX =    0.0                 !
 ! D4    D(3,1,5,6)            -60.0626         -DE/DX =    0.0                 !
 ! D5    D(3,1,5,7)             59.9374         -DE/DX =    0.0                 !
 ! D6    D(3,1,5,8)            179.9374         -DE/DX =    0.0                 !
 ! D7    D(4,1,5,6)            179.9374         -DE/DX =    0.0                 !
 ! D8    D(4,1,5,7)            -60.0626         -DE/DX =    0.0                 !
 ! D9    D(4,1,5,8)             59.9374         -DE/DX =    0.0                 !
 --------------------------------------------------------------------------------
 Iteration  1 RMS(Cart)=  0.05050506 RMS(Int)=  0.00000011
 Iteration  2 RMS(Cart)=  0.00000020 RMS(Int)=  0.00000000
 Iteration  1 RMS(Cart)=  0.00000001 RMS(Int)=  0.00000000
 GradGradGradGradGradGradGradGradGradGradGradGradGradGradGradGradGradGrad

 Leave Link  103 at Mon Oct  6 14:21:01 2025, MaxMem=   104857600 cpu:               0.0 elap:               0.0
 (Enter /home/zhouoh/g16/l202.exe)
                          Input orientation:                          
 ---------------------------------------------------------------------
 Center     Atomic      Atomic             Coordinates (Angstroms)
 Number     Number       Type             X           Y           Z
 ---------------------------------------------------------------------
      1          6           0       -1.932876   -0.105988   -0.040825
      2          1           0       -1.584679   -1.138836   -0.067767
      3          1           0       -1.584050    0.386667   -0.948765
      4          1           0       -3.022720   -0.121314   -0.068140
      5          6           0       -1.386200    0.667109    1.298230
      6          1           0       -0.296356    0.681374    1.326159
      7          1           0       -1.733395    1.700310    1.324560
      8          1           0       -1.736025    0.175163    2.206169
 ---------------------------------------------------------------------
                    Distance matrix (angstroms):
                    1          2          3          4          5
     1  C    0.000000
     2  H    1.090295   0.000000
     3  H    1.090295   1.761623   0.000000
     4  H    1.090295   1.761623   1.761623   0.000000
     5  C    1.640000   2.273055   2.273055   2.273055   0.000000
     6  H    2.273055   2.629823   2.630643   3.165666   1.090295
     7  H    2.273055   3.165666   2.629823   2.630643   1.090295
     8  H    2.273055   2.630643   3.165666   2.629823   1.090295
                    6          7          8
     6  H    0.000000
     7  H    1.761623   0.000000
     8  H    1.761623   1.761623   0.000000
 Stoichiometry    C2H6
 Framework group  D3[C3(C.C),X(H6)]
 Deg. of freedom     4
 Full point group                 D3      NOp   6
 RotChk:  IX=0 Diff= 5.41D-11
 Largest Abelian subgroup         C2      NOp   2
 Largest concise Abelian subgroup C2      NOp   2
                         Standard orientation:                         
 ---------------------------------------------------------------------
 Center     Atomic      Atomic             Coordinates (Angstroms)
 Number     Number       Type             X           Y           Z
 ---------------------------------------------------------------------
      1          6           0       -0.000000   -0.000000    0.820000
      2          1           0       -0.508006    0.881118    1.212816
      3          1           0        1.017073   -0.000613    1.212816
      4          1           0       -0.509067   -0.880505    1.212816
      5          6           0        0.000000   -0.000000   -0.820000
      6          1           0        0.508006    0.881118   -1.212816
      7          1           0        0.509067   -0.880505   -1.212816
      8          1           0       -1.017073   -0.000613   -1.212816
 ---------------------------------------------------------------------
 Rotational constants (GHZ):          80.7934624          17.9468323          17.9468323
 Leave Link  202 at Mon Oct  6 14:21:01 2025, MaxMem=   104857600 cpu:               0.0 elap:               0.0
 (Enter /home/zhouoh/g16/l301.exe)
 Standard basis: STO-3G (5D, 7F)
 Ernie: Thresh=  0.10000D-02 Tol=  0.10000D-05 Strict=F.
 There are     8 symmetry adapted cartesian basis functions of A   symmetry.
 There are     8 symmetry adapted cartesian basis functions of B   symmetry.
 There are     8 symmetry adapted basis functions of A   symmetry.
 There are     8 symmetry adapted basis functions of B   symmetry.
    16 basis functions,    48 primitive gaussians,    16 cartesian basis functions
     9 alpha electrons        9 beta electrons
       nuclear repulsion energy        40.9807112865 Hartrees.
 IExCor=    0 DFT=F Ex=HF Corr=None ExCW=0 ScaHFX=  1.000000
 ScaDFX=  1.000000  1.000000  1.000000  1.000000 ScalE2=  1.000000  1.000000
 IRadAn=      5 IRanWt=     -1 IRanGd=            0 ICorTp=0 IEmpDi=  4
 NAtoms=    8 NActive=    8 NUniq=    2 SFac= 4.00D+00 NAtFMM=   60 NAOKFM=F Big=F
 Integral buffers will be    131072 words long.
 Raffenetti 1 integral format.
 Two-electron integral symmetry is turned on.
 Leave Link  301 at Mon Oct  6 14:21:01 2025, MaxMem=   104857600 cpu:               0.0 elap:               0.0
 (Enter /home/zhouoh/g16/l402.exe)
 External calculation of energy and first derivatives.
 Running external command "python ../GauUMA_client.py R"
         input file       "/home/zhouoh/scratch/Gau-2811633.EIn"
         output file      "/home/zhouoh/scratch/Gau-2811633.EOu"
         message file     "/home/zhouoh/scratch/Gau-2811633.EMs"
         fchk file        "/home/zhouoh/scratch/Gau-2811633.EFC"
         mat. el file     "/home/zhouoh/scratch/Gau-2811633.EUF"
Sent job to server.
Received result from server:
SCF Done:  E(UMA) =  -79.78636368483221     A.U.
 Recovered energy= -79.7863636848     dipole=      0.000000000000      0.000000000000      0.000000000000
 Energy=    -79.7863637     NIter=   0.
 Dipole moment=       0.000000       0.000000       0.000000
 Leave Link  402 at Mon Oct  6 14:21:01 2025, MaxMem=   104857600 cpu:               0.0 elap:               0.1
 (Enter /home/zhouoh/g16/l716.exe)
 Dipole        = 0.00000000D+00 0.00000000D+00 0.00000000D+00
 ***** Axes restored to original set *****
 -------------------------------------------------------------------
 Center     Atomic                   Forces (Hartrees/Bohr)
 Number     Number              X              Y              Z
 -------------------------------------------------------------------
      1        6           0.013337078    0.018860952    0.032668481
      2        1           0.001016159    0.001202518    0.002342503
      3        1           0.001016733    0.001433920    0.002212836
      4        1           0.000788780    0.001353930    0.002356225
      5        6          -0.013337054   -0.018860973   -0.032668479
      6        1          -0.000795070   -0.001359118   -0.002342353
      7        1          -0.001013339   -0.001194871   -0.002356382
      8        1          -0.001013289   -0.001436360   -0.002212834
 -------------------------------------------------------------------
 Cartesian Forces:  Max     0.032668481 RMS     0.011636159
 Leave Link  716 at Mon Oct  6 14:21:01 2025, MaxMem=   104857600 cpu:               0.0 elap:               0.0
 (Enter /home/zhouoh/g16/l103.exe)

 GradGradGradGradGradGradGradGradGradGradGradGradGradGradGradGradGradGrad
 Berny optimization.
 FormGI is forming the generalized inverse of G from B-inverse, IUseBI=4.
 Internal  Forces:  Max     0.048475439 RMS     0.009337385
 Search for a local minimum.
 Step number   1 out of a maximum of   38 on scan point     2 out of    21
 All quantities printed in internal units (Hartrees-Bohrs-Radians)
 RMS Force = .18395D-02 SwitMx=.10000D-02 MixMth= 1
 Mixed Optimization -- RFO/linear search
 Second derivative matrix not updated -- first step.
 ITU=  0
     Eigenvalues ---    0.00237   0.05415   0.05415   0.05415   0.05415
     Eigenvalues ---    0.13626   0.16000   0.16000   0.16000   0.16000
     Eigenvalues ---    0.16000   0.37230   0.37230   0.37230   0.37230
     Eigenvalues ---    0.37230   0.378141000.000001000.000001000.00000
     Eigenvalues --- 1000.000001000.000001000.000001000.000001000.00000
     Eigenvalues --- 1000.000001000.000001000.00000
 RFO step:  Lambda=-6.58797829D-04 EMin= 2.36822215D-03
 Linear search not attempted -- first point.
 Iteration  1 RMS(Cart)=  0.01842100 RMS(Int)=  0.00023607
 Iteration  2 RMS(Cart)=  0.00022841 RMS(Int)=  0.00012011
 Iteration  3 RMS(Cart)=  0.00000004 RMS(Int)=  0.00012011
 Iteration  1 RMS(Cart)=  0.00000000 RMS(Int)=  0.00000000
 ITry= 1 IFail=0 DXMaxC= 3.51D-02 DCOld= 1.00D+10 DXMaxT= 3.56D-01 DXLimC= 3.00D+00 Rises=F
 ClnCor:  largest displacement from symmetrization is 1.61D-04 for atom     4.
 Variable       Old X    -DE/DX   Delta X   Delta X   Delta X     New X
                                 (Linear)    (Quad)   (Total)
    R1        2.06036  -0.00087   0.00000  -0.00380  -0.00380   2.05656
    R2        2.06036  -0.00087   0.00000  -0.00379  -0.00380   2.05656
    R3        2.06036  -0.00087   0.00000  -0.00379  -0.00380   2.05656
    R4        3.09915  -0.04848   0.00000   0.00000   0.00000   3.09915
    R5        2.06036  -0.00087   0.00000  -0.00380  -0.00380   2.05656
    R6        2.06036  -0.00087   0.00000  -0.00379  -0.00380   2.05656
    R7        2.06036  -0.00087   0.00000  -0.00379  -0.00380   2.05656
    A1        1.88104   0.00276   0.00000   0.02032   0.02013   1.90117
    A2        1.88104   0.00277   0.00000   0.02035   0.02013   1.90117
    A3        1.93937  -0.00260   0.00000  -0.01918  -0.01937   1.92000
    A4        1.88104   0.00277   0.00000   0.02039   0.02013   1.90117
    A5        1.93937  -0.00261   0.00000  -0.01922  -0.01937   1.92000
    A6        1.93937  -0.00262   0.00000  -0.01926  -0.01937   1.92000
    A7        1.93937  -0.00260   0.00000  -0.01918  -0.01937   1.92000
    A8        1.93937  -0.00262   0.00000  -0.01926  -0.01937   1.92000
    A9        1.93937  -0.00261   0.00000  -0.01922  -0.01937   1.92000
   A10        1.88104   0.00277   0.00000   0.02035   0.02013   1.90117
   A11        1.88104   0.00276   0.00000   0.02032   0.02013   1.90117
   A12        1.88104   0.00277   0.00000   0.02039   0.02013   1.90117
    D1        1.04599  -0.00000   0.00000  -0.00078  -0.00078   1.04521
    D2        3.14039  -0.00000   0.00000  -0.00078  -0.00078   3.13961
    D3       -1.04840  -0.00000   0.00000  -0.00076  -0.00078  -1.04918
    D4       -1.04840  -0.00000   0.00000  -0.00076  -0.00078  -1.04918
    D5        1.04599  -0.00000   0.00000  -0.00076  -0.00078   1.04521
    D6        3.14039  -0.00000   0.00000  -0.00074  -0.00078   3.13961
    D7        3.14039  -0.00000   0.00000  -0.00078  -0.00078   3.13961
    D8       -1.04840  -0.00000   0.00000  -0.00078  -0.00078  -1.04918
    D9        1.04599  -0.00000   0.00000  -0.00076  -0.00078   1.04521
         Item               Value     Threshold  Converged?
 Maximum Force            0.002770     0.000450     NO 
 RMS     Force            0.001839     0.000300     NO 
 Maximum Displacement     0.034969     0.001800     NO 
 RMS     Displacement     0.018543     0.001200     NO 
 Predicted change in Energy=-3.309269D-04
 GradGradGradGradGradGradGradGradGradGradGradGradGradGradGradGradGradGrad

 Leave Link  103 at Mon Oct  6 14:21:01 2025, MaxMem=   104857600 cpu:               0.0 elap:               0.0
 (Enter /home/zhouoh/g16/l202.exe)
                          Input orientation:                          
 ---------------------------------------------------------------------
 Center     Atomic      Atomic             Coordinates (Angstroms)
 Number     Number       Type             X           Y           Z
 ---------------------------------------------------------------------
      1          6           0       -1.932876   -0.105988   -0.040825
      2          1           0       -1.574929   -1.133684   -0.049665
      3          1           0       -1.574948    0.400226   -0.935252
      4          1           0       -3.021113   -0.111091   -0.049641
      5          6           0       -1.386200    0.667109    1.298230
      6          1           0       -0.297964    0.670455    1.308062
      7          1           0       -1.742488    1.695390    1.306055
      8          1           0       -1.745784    0.162068    2.192656
 ---------------------------------------------------------------------
                    Distance matrix (angstroms):
                    1          2          3          4          5
     1  C    0.000000
     2  H    1.088285   0.000000
     3  H    1.088285   1.771199   0.000000
     4  H    1.088285   1.771199   1.771199   0.000000
     5  C    1.640000   2.257276   2.257276   2.257276   0.000000
     6  H    2.257276   2.594027   2.595413   3.141610   1.088285
     7  H    2.257276   3.141610   2.594027   2.595413   1.088285
     8  H    2.257276   2.595413   3.141610   2.594027   1.088285
                    6          7          8
     6  H    0.000000
     7  H    1.771199   0.000000
     8  H    1.771199   1.771199   0.000000
 Stoichiometry    C2H6
 Framework group  D3[C3(C.C),X(H6)]
 Deg. of freedom     4
 Full point group                 D3      NOp   6
 RotChk:  IX=0 Diff= 5.19D-16
 Largest Abelian subgroup         C2      NOp   2
 Largest concise Abelian subgroup C2      NOp   2
                         Standard orientation:                         
 ---------------------------------------------------------------------
 Center     Atomic      Atomic             Coordinates (Angstroms)
 Number     Number       Type             X           Y           Z
 ---------------------------------------------------------------------
      1          6           0        0.000000   -0.000000    0.820000
      2          1           0       -0.510422    0.886107    1.192356
      3          1           0        1.022602   -0.001015    1.192356
      4          1           0       -0.512180   -0.885092    1.192356
      5          6           0       -0.000000   -0.000000   -0.820000
      6          1           0        0.510422    0.886107   -1.192356
      7          1           0        0.512180   -0.885092   -1.192356
      8          1           0       -1.022602   -0.001015   -1.192356
 ---------------------------------------------------------------------
 Rotational constants (GHZ):          79.9221740          18.1163284          18.1163284
 Leave Link  202 at Mon Oct  6 14:21:01 2025, MaxMem=   104857600 cpu:               0.0 elap:               0.0
 (Enter /home/zhouoh/g16/l301.exe)
 Standard basis: STO-3G (5D, 7F)
 Ernie: Thresh=  0.10000D-02 Tol=  0.10000D-05 Strict=F.
 There are     8 symmetry adapted cartesian basis functions of A   symmetry.
 There are     8 symmetry adapted cartesian basis functions of B   symmetry.
 There are     8 symmetry adapted basis functions of A   symmetry.
 There are     8 symmetry adapted basis functions of B   symmetry.
    16 basis functions,    48 primitive gaussians,    16 cartesian basis functions
     9 alpha electrons        9 beta electrons
       nuclear repulsion energy        41.0821758420 Hartrees.
 IExCor=    0 DFT=F Ex=HF Corr=None ExCW=0 ScaHFX=  1.000000
 ScaDFX=  1.000000  1.000000  1.000000  1.000000 ScalE2=  1.000000  1.000000
 IRadAn=      5 IRanWt=     -1 IRanGd=            0 ICorTp=0 IEmpDi=  4
 NAtoms=    8 NActive=    8 NUniq=    2 SFac= 4.00D+00 NAtFMM=   60 NAOKFM=F Big=F
 Integral buffers will be    131072 words long.
 Raffenetti 1 integral format.
 Two-electron integral symmetry is turned on.
 Leave Link  301 at Mon Oct  6 14:21:01 2025, MaxMem=   104857600 cpu:               0.0 elap:               0.0
 (Enter /home/zhouoh/g16/l402.exe)
 External calculation of energy and first derivatives.
 Running external command "python ../GauUMA_client.py R"
         input file       "/home/zhouoh/scratch/Gau-2811633.EIn"
         output file      "/home/zhouoh/scratch/Gau-2811633.EOu"
         message file     "/home/zhouoh/scratch/Gau-2811633.EMs"
         fchk file        "/home/zhouoh/scratch/Gau-2811633.EFC"
         mat. el file     "/home/zhouoh/scratch/Gau-2811633.EUF"
Sent job to server.
Received result from server:
SCF Done:  E(UMA) =  -79.78671566507448     A.U.
 Recovered energy= -79.7867156651     dipole=      0.000000000000      0.000000000000      0.000000000000
 Energy=    -79.7867157     NIter=   0.
 Dipole moment=       0.000000       0.000000       0.000000
 Leave Link  402 at Mon Oct  6 14:21:01 2025, MaxMem=   104857600 cpu:               0.0 elap:               0.1
 (Enter /home/zhouoh/g16/l716.exe)
 Dipole        = 0.00000000D+00 0.00000000D+00 0.00000000D+00
 ***** Axes restored to original set *****
 -------------------------------------------------------------------
 Center     Atomic                   Forces (Hartrees/Bohr)
 Number     Number              X              Y              Z
 -------------------------------------------------------------------
      1        6           0.014902827    0.021075166    0.036503648
      2        1           0.000109860   -0.000037539    0.000152521
      3        1           0.000114245    0.000154145    0.000044219
      4        1          -0.000077283    0.000091081    0.000162961
      5        6          -0.014902771   -0.021075201   -0.036503637
      6        1           0.000072004   -0.000091277   -0.000152401
      7        1          -0.000111415    0.000042575   -0.000163091
      8        1          -0.000107467   -0.000158949   -0.000044216
 -------------------------------------------------------------------
 Cartesian Forces:  Max     0.036503648 RMS     0.012906358
 Leave Link  716 at Mon Oct  6 14:21:01 2025, MaxMem=   104857600 cpu:               0.0 elap:               0.0
 (Enter /home/zhouoh/g16/l103.exe)

 GradGradGradGradGradGradGradGradGradGradGradGradGradGradGradGradGradGrad
 Berny optimization.
 Using GEDIIS/GDIIS optimizer.
 FormGI is forming the generalized inverse of G from B-inverse, IUseBI=4.
 Internal  Forces:  Max     0.045148180 RMS     0.008533142
 Search for a local minimum.
 Step number   2 out of a maximum of   38 on scan point     2 out of    21
 All quantities printed in internal units (Hartrees-Bohrs-Radians)
 RMS Force = .12883D-03 SwitMx=.10000D-02 MixMth= 2
 Mixed Optimization -- En-DIIS/RFO-DIIS
 Update second derivatives using D2CorX and points    1    2
 DE= -3.52D-04 DEPred=-3.31D-04 R= 1.06D+00
 TightC=F SS=  1.41D+00  RLast= 6.91D-02 DXNew= 5.9824D-01 2.0729D-01
 Trust test= 1.06D+00 RLast= 6.91D-02 DXMaxT set to 3.56D-01
 ITU=  1  0
 Use linear search instead of GDIIS.
     Eigenvalues ---    0.00237   0.05620   0.05620   0.05620   0.05620
     Eigenvalues ---    0.12787   0.16000   0.16000   0.16000   0.16000
     Eigenvalues ---    0.16000   0.37230   0.37230   0.37230   0.37230
     Eigenvalues ---    0.37230   0.379431000.000001000.000001000.00000
     Eigenvalues --- 1000.000001000.000001000.000001000.000001000.00000
     Eigenvalues --- 1000.000001000.000001000.00000
 RFO step:  Lambda=-3.08399725D-07 EMin= 2.36823837D-03
 Quartic linear search produced a step of  0.06761.
 Iteration  1 RMS(Cart)=  0.00132426 RMS(Int)=  0.00000910
 Iteration  2 RMS(Cart)=  0.00000136 RMS(Int)=  0.00000903
 Iteration  3 RMS(Cart)=  0.00000000 RMS(Int)=  0.00000903
 Iteration  1 RMS(Cart)=  0.00000002 RMS(Int)=  0.00000000
 ITry= 1 IFail=0 DXMaxC= 2.57D-03 DCOld= 1.00D+10 DXMaxT= 3.56D-01 DXLimC= 3.00D+00 Rises=F
 ClnCor:  largest displacement from symmetrization is 1.65D-04 for atom     7.
 Variable       Old X    -DE/DX   Delta X   Delta X   Delta X     New X
                                 (Linear)    (Quad)   (Total)
    R1        2.05656   0.00007  -0.00026   0.00035   0.00010   2.05666
    R2        2.05656   0.00007  -0.00026   0.00036   0.00010   2.05666
    R3        2.05656   0.00008  -0.00026   0.00037   0.00010   2.05666
    R4        3.09915  -0.04515   0.00000   0.00000  -0.00000   3.09915
    R5        2.05656   0.00007  -0.00026   0.00035   0.00010   2.05666
    R6        2.05656   0.00008  -0.00026   0.00037   0.00010   2.05666
    R7        2.05656   0.00007  -0.00026   0.00036   0.00010   2.05666
    A1        1.90117   0.00018   0.00136   0.00003   0.00138   1.90255
    A2        1.90117   0.00019   0.00136   0.00007   0.00138   1.90255
    A3        1.92000  -0.00018  -0.00131  -0.00003  -0.00135   1.91865
    A4        1.90117   0.00019   0.00136   0.00010   0.00138   1.90255
    A5        1.92000  -0.00018  -0.00131  -0.00007  -0.00135   1.91865
    A6        1.92000  -0.00019  -0.00131  -0.00011  -0.00135   1.91865
    A7        1.92000  -0.00018  -0.00131  -0.00003  -0.00135   1.91865
    A8        1.92000  -0.00019  -0.00131  -0.00011  -0.00135   1.91865
    A9        1.92000  -0.00018  -0.00131  -0.00007  -0.00135   1.91865
   A10        1.90117   0.00019   0.00136   0.00007   0.00138   1.90255
   A11        1.90117   0.00018   0.00136   0.00003   0.00138   1.90255
   A12        1.90117   0.00019   0.00136   0.00010   0.00138   1.90255
    D1        1.04521  -0.00000  -0.00005   0.00002  -0.00004   1.04517
    D2        3.13961  -0.00000  -0.00005   0.00002  -0.00004   3.13957
    D3       -1.04918   0.00000  -0.00005   0.00003  -0.00004  -1.04922
    D4       -1.04918   0.00000  -0.00005   0.00003  -0.00004  -1.04922
    D5        1.04521   0.00000  -0.00005   0.00003  -0.00004   1.04517
    D6        3.13961   0.00000  -0.00005   0.00005  -0.00004   3.13957
    D7        3.13961  -0.00000  -0.00005   0.00002  -0.00004   3.13957
    D8       -1.04918  -0.00000  -0.00005   0.00002  -0.00004  -1.04922
    D9        1.04521   0.00000  -0.00005   0.00003  -0.00004   1.04517
         Item               Value     Threshold  Converged?
 Maximum Force            0.000192     0.000450     YES
 RMS     Force            0.000129     0.000300     YES
 Maximum Displacement     0.002425     0.001800     NO 
 RMS     Displacement     0.001287     0.001200     NO 
 Predicted change in Energy=-1.622604D-06
 GradGradGradGradGradGradGradGradGradGradGradGradGradGradGradGradGradGrad

 Leave Link  103 at Mon Oct  6 14:21:01 2025, MaxMem=   104857600 cpu:               0.0 elap:               0.0
 (Enter /home/zhouoh/g16/l202.exe)
                          Input orientation:                          
 ---------------------------------------------------------------------
 Center     Atomic      Atomic             Coordinates (Angstroms)
 Number     Number       Type             X           Y           Z
 ---------------------------------------------------------------------
      1          6           0       -1.932876   -0.105988   -0.040825
      2          1           0       -1.574197   -1.133496   -0.048403
      3          1           0       -1.574250    0.401249   -0.934458
      4          1           0       -3.021180   -0.110374   -0.048358
      5          6           0       -1.386200    0.667109    1.298230
      6          1           0       -0.297898    0.669701    1.306800
      7          1           0       -1.743186    1.695213    1.304772
      8          1           0       -1.746516    0.161070    2.191862
 ---------------------------------------------------------------------
                    Distance matrix (angstroms):
                    1          2          3          4          5
     1  C    0.000000
     2  H    1.088339   0.000000
     3  H    1.088339   1.772156   0.000000
     4  H    1.088339   1.772156   1.772156   0.000000
     5  C    1.640000   2.256311   2.256311   2.256311   0.000000
     6  H    2.256311   2.591724   2.593140   3.140260   1.088339
     7  H    2.256311   3.140260   2.591724   2.593140   1.088339
     8  H    2.256311   2.593140   3.140260   2.591724   1.088339
                    6          7          8
     6  H    0.000000
     7  H    1.772156   0.000000
     8  H    1.772156   1.772156   0.000000
 Stoichiometry    C2H6
 Framework group  D3[C3(C.C),X(H6)]
 Deg. of freedom     4
 Full point group                 D3      NOp   6
 RotChk:  IX=0 Diff= 7.02D-16
 Largest Abelian subgroup         C2      NOp   2
 Largest concise Abelian subgroup C2      NOp   2
                         Standard orientation:                         
 ---------------------------------------------------------------------
 Center     Atomic      Atomic             Coordinates (Angstroms)
 Number     Number       Type             X           Y           Z
 ---------------------------------------------------------------------
      1          6           0       -0.000000   -0.000000    0.820000
      2          1           0       -0.510680    0.886595    1.190993
      3          1           0        1.023154   -0.001036    1.190993
      4          1           0       -0.512474   -0.885560    1.190993
      5          6           0        0.000000   -0.000000   -0.820000
      6          1           0        0.510680    0.886595   -1.190993
      7          1           0        0.512474   -0.885560   -1.190993
      8          1           0       -1.023154   -0.001036   -1.190993
 ---------------------------------------------------------------------
 Rotational constants (GHZ):          79.8358979          18.1268751          18.1268751
 Leave Link  202 at Mon Oct  6 14:21:01 2025, MaxMem=   104857600 cpu:               0.0 elap:               0.0
 (Enter /home/zhouoh/g16/l301.exe)
 Standard basis: STO-3G (5D, 7F)
 Ernie: Thresh=  0.10000D-02 Tol=  0.10000D-05 Strict=F.
 There are     8 symmetry adapted cartesian basis functions of A   symmetry.
 There are     8 symmetry adapted cartesian basis functions of B   symmetry.
 There are     8 symmetry adapted basis functions of A   symmetry.
 There are     8 symmetry adapted basis functions of B   symmetry.
    16 basis functions,    48 primitive gaussians,    16 cartesian basis functions
     9 alpha electrons        9 beta electrons
       nuclear repulsion energy        41.0852512582 Hartrees.
 IExCor=    0 DFT=F Ex=HF Corr=None ExCW=0 ScaHFX=  1.000000
 ScaDFX=  1.000000  1.000000  1.000000  1.000000 ScalE2=  1.000000  1.000000
 IRadAn=      5 IRanWt=     -1 IRanGd=            0 ICorTp=0 IEmpDi=  4
 NAtoms=    8 NActive=    8 NUniq=    2 SFac= 4.00D+00 NAtFMM=   60 NAOKFM=F Big=F
 Integral buffers will be    131072 words long.
 Raffenetti 1 integral format.
 Two-electron integral symmetry is turned on.
 Leave Link  301 at Mon Oct  6 14:21:01 2025, MaxMem=   104857600 cpu:               0.0 elap:               0.0
 (Enter /home/zhouoh/g16/l402.exe)
 External calculation of energy and first derivatives.
 Running external command "python ../GauUMA_client.py R"
         input file       "/home/zhouoh/scratch/Gau-2811633.EIn"
         output file      "/home/zhouoh/scratch/Gau-2811633.EOu"
         message file     "/home/zhouoh/scratch/Gau-2811633.EMs"
         fchk file        "/home/zhouoh/scratch/Gau-2811633.EFC"
         mat. el file     "/home/zhouoh/scratch/Gau-2811633.EUF"
Sent job to server.
Received result from server:
SCF Done:  E(UMA) =  -79.78671726627901     A.U.
 Recovered energy= -79.7867172663     dipole=      0.000000000000      0.000000000000      0.000000000000
 Energy=    -79.7867173     NIter=   0.
 Dipole moment=       0.000000       0.000000       0.000000
 Leave Link  402 at Mon Oct  6 14:21:01 2025, MaxMem=   104857600 cpu:               0.0 elap:               0.1
 (Enter /home/zhouoh/g16/l716.exe)
 Dipole        = 0.00000000D+00 0.00000000D+00 0.00000000D+00
 ***** Axes restored to original set *****
 -------------------------------------------------------------------
 Center     Atomic                   Forces (Hartrees/Bohr)
 Number     Number              X              Y              Z
 -------------------------------------------------------------------
      1        6           0.014971335    0.021172207    0.036671646
      2        1           0.000005519   -0.000007034   -0.000000024
      3        1           0.000010061    0.000006621   -0.000005607
      4        1          -0.000013633    0.000003064    0.000010272
      5        6          -0.014971430   -0.021172137   -0.036671639
      6        1           0.000008467   -0.000002872    0.000000031
      7        1          -0.000007405    0.000011837   -0.000010290
      8        1          -0.000002913   -0.000011686    0.000005611
 -------------------------------------------------------------------
 Cartesian Forces:  Max     0.036671646 RMS     0.012965380
 Leave Link  716 at Mon Oct  6 14:21:01 2025, MaxMem=   104857600 cpu:               0.0 elap:               0.0
 (Enter /home/zhouoh/g16/l103.exe)

 GradGradGradGradGradGradGradGradGradGradGradGradGradGradGradGradGradGrad
 Berny optimization.
 Using GEDIIS/GDIIS optimizer.
 FormGI is forming the generalized inverse of G from B-inverse, IUseBI=4.
 Internal  Forces:  Max     0.044919080 RMS     0.008488911
 Search for a local minimum.
 Step number   3 out of a maximum of   38 on scan point     2 out of    21
 All quantities printed in internal units (Hartrees-Bohrs-Radians)
 RMS Force = .74139D-05 SwitMx=.10000D-02 MixMth= 2
 Mixed Optimization -- En-DIIS/RFO-DIIS
 Swapping is turned off.
 Update second derivatives using D2CorX and points    1    2    3
 DE= -1.60D-06 DEPred=-1.62D-06 R= 9.87D-01
 TightC=F SS=  1.41D+00  RLast= 4.73D-03 DXNew= 5.9824D-01 1.4188D-02
 Trust test= 9.87D-01 RLast= 4.73D-03 DXMaxT set to 3.56D-01
 ITU=  1  1  0
     Eigenvalues ---    0.00237   0.05635   0.05635   0.05635   0.05635
     Eigenvalues ---    0.13082   0.16000   0.16000   0.16000   0.16000
     Eigenvalues ---    0.16000   0.37230   0.37230   0.37230   0.37230
     Eigenvalues ---    0.37230   0.376191000.000001000.000001000.00000
     Eigenvalues --- 1000.000001000.000001000.000001000.000001000.00000
     Eigenvalues --- 1000.000001000.000001000.00000
 En-DIIS/RFO-DIIS/Sim-DIIS IScMMF=       -3 using points:     3    2
 RFO step:  Lambda=-2.02312303D-06.
 NNeg= 0 NGDIIS= 2 SimSw=  2.50D-03 Rises=F DC= -1.60D-06 SmlDif=  1.00D-05
 NRisDI= 0 DoIntr=F SqrtH=F CThrHd= 10.0 CDAdj=  3.0
 RMS Error=  0.4928902912D-04 NUsed= 2 OKEnD=F EnDIS=F
 InvSVX:  RCond= 5.59D-06 Info=           0 Equed=N FErr=  9.55D-16 BErr=  8.99D-18
 DidBck=F Rises=F RFO-DIIS coefs:    1.03434   -0.03434
 Iteration  1 RMS(Cart)=  0.00005962 RMS(Int)=  0.00000002
 Iteration  2 RMS(Cart)=  0.00000000 RMS(Int)=  0.00000002
 Iteration  1 RMS(Cart)=  0.00000001 RMS(Int)=  0.00000000
 ITry= 1 IFail=0 DXMaxC= 1.83D-04 DCOld= 1.00D+10 DXMaxT= 3.56D-01 DXLimC= 3.00D+00 Rises=F
 ClnCor:  largest displacement from symmetrization is 1.64D-04 for atom     7.
 Variable       Old X    -DE/DX   Delta X   Delta X   Delta X     New X
                                 (Linear)    (Quad)   (Total)
    R1        2.05666   0.00001   0.00000   0.00002   0.00003   2.05669
    R2        2.05666   0.00001   0.00000   0.00002   0.00003   2.05669
    R3        2.05666   0.00001   0.00000   0.00003   0.00003   2.05669
    R4        3.09915  -0.04492  -0.00000   0.00000   0.00000   3.09915
    R5        2.05666   0.00001   0.00000   0.00002   0.00003   2.05669
    R6        2.05666   0.00001   0.00000   0.00003   0.00003   2.05669
    R7        2.05666   0.00001   0.00000   0.00002   0.00003   2.05669
    A1        1.90255   0.00000   0.00005  -0.00004   0.00000   1.90255
    A2        1.90255   0.00001   0.00005  -0.00000   0.00000   1.90255
    A3        1.91865   0.00000  -0.00005   0.00004  -0.00000   1.91864
    A4        1.90255   0.00001   0.00005   0.00003   0.00000   1.90255
    A5        1.91865  -0.00001  -0.00005   0.00000  -0.00000   1.91864
    A6        1.91865  -0.00001  -0.00005  -0.00004  -0.00000   1.91864
    A7        1.91865   0.00000  -0.00005   0.00004  -0.00000   1.91864
    A8        1.91865  -0.00001  -0.00005  -0.00004  -0.00000   1.91864
    A9        1.91865  -0.00001  -0.00005   0.00000  -0.00000   1.91864
   A10        1.90255   0.00001   0.00005  -0.00000   0.00000   1.90255
   A11        1.90255   0.00000   0.00005  -0.00004   0.00000   1.90255
   A12        1.90255   0.00001   0.00005   0.00003   0.00000   1.90255
    D1        1.04517  -0.00000  -0.00000  -0.00006  -0.00007   1.04511
    D2        3.13957  -0.00000  -0.00000  -0.00006  -0.00007   3.13950
    D3       -1.04922   0.00000  -0.00000  -0.00005  -0.00007  -1.04929
    D4       -1.04922   0.00000  -0.00000  -0.00005  -0.00007  -1.04929
    D5        1.04517   0.00000  -0.00000  -0.00005  -0.00007   1.04511
    D6        3.13957   0.00000  -0.00000  -0.00003  -0.00007   3.13950
    D7        3.13957  -0.00000  -0.00000  -0.00006  -0.00007   3.13950
    D8       -1.04922  -0.00000  -0.00000  -0.00006  -0.00007  -1.04929
    D9        1.04517   0.00000  -0.00000  -0.00005  -0.00007   1.04511
         Item               Value     Threshold  Converged?
 Maximum Force            0.000014     0.000450     YES
 RMS     Force            0.000007     0.000300     YES
 Maximum Displacement     0.000066     0.001800     YES
 RMS     Displacement     0.000033     0.001200     YES
 Predicted change in Energy=-8.195859D-10
 Optimization completed.
    -- Stationary point found.
                           ----------------------------
                           !   Optimized Parameters   !
                           ! (Angstroms and Degrees)  !
 --------------------------                            --------------------------
 ! Name  Definition              Value          Derivative Info.                !
 --------------------------------------------------------------------------------
 ! R1    R(1,2)                  1.0883         -DE/DX =    0.0                 !
 ! R2    R(1,3)                  1.0883         -DE/DX =    0.0                 !
 ! R3    R(1,4)                  1.0883         -DE/DX =    0.0                 !
 ! R4    R(1,5)                  1.64           -DE/DX =   -0.0449              !
 ! R5    R(5,6)                  1.0883         -DE/DX =    0.0                 !
 ! R6    R(5,7)                  1.0883         -DE/DX =    0.0                 !
 ! R7    R(5,8)                  1.0883         -DE/DX =    0.0                 !
 ! A1    A(2,1,3)              109.0081         -DE/DX =    0.0                 !
 ! A2    A(2,1,4)              109.0081         -DE/DX =    0.0                 !
 ! A3    A(2,1,5)              109.9305         -DE/DX =    0.0                 !
 ! A4    A(3,1,4)              109.0081         -DE/DX =    0.0                 !
 ! A5    A(3,1,5)              109.9305         -DE/DX =    0.0                 !
 ! A6    A(4,1,5)              109.9305         -DE/DX =    0.0                 !
 ! A7    A(1,5,6)              109.9305         -DE/DX =    0.0                 !
 ! A8    A(1,5,7)              109.9305         -DE/DX =    0.0                 !
 ! A9    A(1,5,8)              109.9305         -DE/DX =    0.0                 !
 ! A10   A(6,5,7)              109.0081         -DE/DX =    0.0                 !
 ! A11   A(6,5,8)              109.0081         -DE/DX =    0.0                 !
 ! A12   A(7,5,8)              109.0081         -DE/DX =    0.0                 !
 ! D1    D(2,1,5,6)             59.884          -DE/DX =    0.0                 !
 ! D2    D(2,1,5,7)            179.884          -DE/DX =    0.0                 !
 ! D3    D(2,1,5,8)            -60.116          -DE/DX =    0.0                 !
 ! D4    D(3,1,5,6)            -60.116          -DE/DX =    0.0                 !
 ! D5    D(3,1,5,7)             59.884          -DE/DX =    0.0                 !
 ! D6    D(3,1,5,8)            179.884          -DE/DX =    0.0                 !
 ! D7    D(4,1,5,6)            179.884          -DE/DX =    0.0                 !
 ! D8    D(4,1,5,7)            -60.116          -DE/DX =    0.0                 !
 ! D9    D(4,1,5,8)             59.884          -DE/DX =    0.0                 !
 --------------------------------------------------------------------------------
 Iteration  1 RMS(Cart)=  0.05050506 RMS(Int)=  0.00000000
 Iteration  2 RMS(Cart)=  0.00000000 RMS(Int)=  0.00000000
 Iteration  1 RMS(Cart)=  0.00000000 RMS(Int)=  0.00000000
 GradGradGradGradGradGradGradGradGradGradGradGradGradGradGradGradGradGrad

 Leave Link  103 at Mon Oct  6 14:21:01 2025, MaxMem=   104857600 cpu:               0.0 elap:               0.0
 (Enter /home/zhouoh/g16/l202.exe)
                          Input orientation:                          
 ---------------------------------------------------------------------
 Center     Atomic      Atomic             Coordinates (Angstroms)
 Number     Number       Type             X           Y           Z
 ---------------------------------------------------------------------
      1          6           0       -1.949543   -0.129558   -0.081650
      2          1           0       -1.590829   -1.157069   -0.089240
      3          1           0       -1.590938    0.377709   -0.975291
      4          1           0       -3.037861   -0.133972   -0.089162
      5          6           0       -1.369533    0.690679    1.339055
      6          1           0       -0.281217    0.693239    1.347638
      7          1           0       -1.726498    1.718806    1.345576
      8          1           0       -1.729884    0.184650    2.232695
 ---------------------------------------------------------------------
                    Distance matrix (angstroms):
                    1          2          3          4          5
     1  C    0.000000
     2  H    1.088353   0.000000
     3  H    1.088353   1.772182   0.000000
     4  H    1.088353   1.772182   1.772182   0.000000
     5  C    1.740000   2.345883   2.345883   2.345883   0.000000
     6  H    2.345883   2.683904   2.685317   3.216793   1.088353
     7  H    2.345883   3.216793   2.683904   2.685317   1.088353
     8  H    2.345883   2.685317   3.216793   2.683904   1.088353
                    6          7          8
     6  H    0.000000
     7  H    1.772182   0.000000
     8  H    1.772182   1.772182   0.000000
 Stoichiometry    C2H6
 Framework group  D3[C3(C.C),X(H6)]
 Deg. of freedom     4
 Full point group                 D3      NOp   6
 RotChk:  IX=0 Diff= 2.54D-14
 Largest Abelian subgroup         C2      NOp   2
 Largest concise Abelian subgroup C2      NOp   2
                         Standard orientation:                         
 ---------------------------------------------------------------------
 Center     Atomic      Atomic             Coordinates (Angstroms)
 Number     Number       Type             X           Y           Z
 ---------------------------------------------------------------------
      1          6           0       -0.000000   -0.000000    0.870000
      2          1           0       -0.510658    0.886625    1.240993
      3          1           0        1.023169   -0.001070    1.240993
      4          1           0       -0.512511   -0.885555    1.240993
      5          6           0        0.000000   -0.000000   -0.870000
      6          1           0        0.510658    0.886625   -1.240993
      7          1           0        0.512511   -0.885555   -1.240993
      8          1           0       -1.023169   -0.001070   -1.240993
 ---------------------------------------------------------------------
 Rotational constants (GHZ):          79.8335870          16.4922116          16.4922116
 Leave Link  202 at Mon Oct  6 14:21:01 2025, MaxMem=   104857600 cpu:               0.0 elap:               0.0
 (Enter /home/zhouoh/g16/l301.exe)
 Standard basis: STO-3G (5D, 7F)
 Ernie: Thresh=  0.10000D-02 Tol=  0.10000D-05 Strict=F.
 There are     8 symmetry adapted cartesian basis functions of A   symmetry.
 There are     8 symmetry adapted cartesian basis functions of B   symmetry.
 There are     8 symmetry adapted basis functions of A   symmetry.
 There are     8 symmetry adapted basis functions of B   symmetry.
    16 basis functions,    48 primitive gaussians,    16 cartesian basis functions
     9 alpha electrons        9 beta electrons
       nuclear repulsion energy        40.0409456043 Hartrees.
 IExCor=    0 DFT=F Ex=HF Corr=None ExCW=0 ScaHFX=  1.000000
 ScaDFX=  1.000000  1.000000  1.000000  1.000000 ScalE2=  1.000000  1.000000
 IRadAn=      5 IRanWt=     -1 IRanGd=            0 ICorTp=0 IEmpDi=  4
 NAtoms=    8 NActive=    8 NUniq=    2 SFac= 4.00D+00 NAtFMM=   60 NAOKFM=F Big=F
 Integral buffers will be    131072 words long.
 Raffenetti 1 integral format.
 Two-electron integral symmetry is turned on.
 Leave Link  301 at Mon Oct  6 14:21:01 2025, MaxMem=   104857600 cpu:               0.0 elap:               0.0
 (Enter /home/zhouoh/g16/l402.exe)
 External calculation of energy and first derivatives.
 Running external command "python ../GauUMA_client.py R"
         input file       "/home/zhouoh/scratch/Gau-2811633.EIn"
         output file      "/home/zhouoh/scratch/Gau-2811633.EOu"
         message file     "/home/zhouoh/scratch/Gau-2811633.EMs"
         fchk file        "/home/zhouoh/scratch/Gau-2811633.EFC"
         mat. el file     "/home/zhouoh/scratch/Gau-2811633.EUF"
Sent job to server.
Received result from server:
SCF Done:  E(UMA) =  -79.77576262215162     A.U.
 Recovered energy= -79.7757626221     dipole=      0.000000000000      0.000000000000      0.000000000000
 Energy=    -79.7757626     NIter=   0.
 Dipole moment=       0.000000       0.000000       0.000000
 Leave Link  402 at Mon Oct  6 14:21:01 2025, MaxMem=   104857600 cpu:               0.0 elap:               0.1
 (Enter /home/zhouoh/g16/l716.exe)
 Dipole        = 0.00000000D+00 0.00000000D+00 0.00000000D+00
 ***** Axes restored to original set *****
 -------------------------------------------------------------------
 Center     Atomic                   Forces (Hartrees/Bohr)
 Number     Number              X              Y              Z
 -------------------------------------------------------------------
      1        6           0.020383723    0.028826226    0.049928890
      2        1           0.000952988    0.001008077    0.002124359
      3        1           0.000952350    0.001343063    0.001934207
      4        1           0.000624550    0.001226516    0.002138265
      5        6          -0.020383774   -0.028826194   -0.049928888
      6        1          -0.000632805   -0.001234866   -0.002124143
      7        1          -0.000947837   -0.000997527   -0.002138490
      8        1          -0.000949200   -0.001345300   -0.001934206
 -------------------------------------------------------------------
 Cartesian Forces:  Max     0.049928890 RMS     0.017698158
 Leave Link  716 at Mon Oct  6 14:21:01 2025, MaxMem=   104857600 cpu:               0.0 elap:               0.0
 (Enter /home/zhouoh/g16/l103.exe)

 GradGradGradGradGradGradGradGradGradGradGradGradGradGradGradGradGradGrad
 Berny optimization.
 FormGI is forming the generalized inverse of G from B-inverse, IUseBI=4.
 Internal  Forces:  Max     0.068739671 RMS     0.013097065
 Search for a local minimum.
 Step number   1 out of a maximum of   38 on scan point     3 out of    21
 All quantities printed in internal units (Hartrees-Bohrs-Radians)
 RMS Force = .16973D-02 SwitMx=.10000D-02 MixMth= 1
 Mixed Optimization -- RFO/linear search
 Second derivative matrix not updated -- first step.
 ITU=  0
     Eigenvalues ---    0.00237   0.05635   0.05635   0.05635   0.05635
     Eigenvalues ---    0.13082   0.16000   0.16000   0.16000   0.16000
     Eigenvalues ---    0.16000   0.37230   0.37230   0.37230   0.37230
     Eigenvalues ---    0.37230   0.376191000.000001000.000001000.00000
     Eigenvalues --- 1000.000001000.000001000.000001000.000001000.00000
     Eigenvalues --- 1000.000001000.000001000.00000
 RFO step:  Lambda=-5.85441621D-04 EMin= 2.36823043D-03
 Linear search not attempted -- first point.
 Iteration  1 RMS(Cart)=  0.01811659 RMS(Int)=  0.00023931
 Iteration  2 RMS(Cart)=  0.00023483 RMS(Int)=  0.00012606
 Iteration  3 RMS(Cart)=  0.00000005 RMS(Int)=  0.00012606
 Iteration  1 RMS(Cart)=  0.00000000 RMS(Int)=  0.00000000
 ITry= 1 IFail=0 DXMaxC= 3.47D-02 DCOld= 1.00D+10 DXMaxT= 3.56D-01 DXLimC= 3.00D+00 Rises=F
 ClnCor:  largest displacement from symmetrization is 1.19D-04 for atom     7.
 Variable       Old X    -DE/DX   Delta X   Delta X   Delta X     New X
                                 (Linear)    (Quad)   (Total)
    R1        2.05669  -0.00065   0.00000  -0.00262  -0.00263   2.05406
    R2        2.05669  -0.00065   0.00000  -0.00261  -0.00263   2.05406
    R3        2.05669  -0.00064   0.00000  -0.00261  -0.00263   2.05406
    R4        3.28812  -0.06874   0.00000   0.00000   0.00000   3.28812
    R5        2.05669  -0.00065   0.00000  -0.00262  -0.00263   2.05406
    R6        2.05669  -0.00064   0.00000  -0.00261  -0.00263   2.05406
    R7        2.05669  -0.00065   0.00000  -0.00261  -0.00263   2.05406
    A1        1.90255   0.00252   0.00000   0.01926   0.01908   1.92163
    A2        1.90255   0.00253   0.00000   0.01930   0.01908   1.92163
    A3        1.91864  -0.00248   0.00000  -0.01895  -0.01914   1.89950
    A4        1.90255   0.00253   0.00000   0.01934   0.01908   1.92163
    A5        1.91864  -0.00248   0.00000  -0.01898  -0.01914   1.89950
    A6        1.91864  -0.00249   0.00000  -0.01901  -0.01914   1.89950
    A7        1.91864  -0.00248   0.00000  -0.01895  -0.01914   1.89950
    A8        1.91864  -0.00249   0.00000  -0.01901  -0.01914   1.89950
    A9        1.91864  -0.00248   0.00000  -0.01898  -0.01914   1.89950
   A10        1.90255   0.00253   0.00000   0.01930   0.01908   1.92163
   A11        1.90255   0.00252   0.00000   0.01926   0.01908   1.92163
   A12        1.90255   0.00253   0.00000   0.01934   0.01908   1.92163
    D1        1.04511  -0.00000   0.00000  -0.00097  -0.00096   1.04414
    D2        3.13950  -0.00000   0.00000  -0.00097  -0.00096   3.13854
    D3       -1.04929  -0.00000   0.00000  -0.00093  -0.00096  -1.05025
    D4       -1.04929  -0.00000   0.00000  -0.00093  -0.00096  -1.05025
    D5        1.04511  -0.00000   0.00000  -0.00093  -0.00096   1.04414
    D6        3.13950   0.00000   0.00000  -0.00090  -0.00096   3.13854
    D7        3.13950  -0.00000   0.00000  -0.00097  -0.00096   3.13854
    D8       -1.04929  -0.00000   0.00000  -0.00097  -0.00096  -1.05025
    D9        1.04511  -0.00000   0.00000  -0.00093  -0.00096   1.04414
         Item               Value     Threshold  Converged?
 Maximum Force            0.002530     0.000450     NO 
 RMS     Force            0.001697     0.000300     NO 
 Maximum Displacement     0.034550     0.001800     NO 
 RMS     Displacement     0.018259     0.001200     NO 
 Predicted change in Energy=-2.939725D-04
 GradGradGradGradGradGradGradGradGradGradGradGradGradGradGradGradGradGrad

 Leave Link  103 at Mon Oct  6 14:21:01 2025, MaxMem=   104857600 cpu:               0.0 elap:               0.0
 (Enter /home/zhouoh/g16/l202.exe)
                          Input orientation:                          
 ---------------------------------------------------------------------
 Center     Atomic      Atomic             Coordinates (Angstroms)
 Number     Number       Type             X           Y           Z
 ---------------------------------------------------------------------
      1          6           0       -1.949543   -0.129558   -0.081650
      2          1           0       -1.581084   -1.152113   -0.071459
      3          1           0       -1.582004    0.391203   -0.962109
      4          1           0       -3.036437   -0.123992   -0.070884
      5          6           0       -1.369533    0.690679    1.339055
      6          1           0       -0.282641    0.682391    1.329862
      7          1           0       -1.735423    1.714140    1.327293
      8          1           0       -1.739638    0.171735    2.219513
 ---------------------------------------------------------------------
                    Distance matrix (angstroms):
                    1          2          3          4          5
     1  C    0.000000
     2  H    1.086962   0.000000
     3  H    1.086962   1.781877   0.000000
     4  H    1.086962   1.781877   1.781877   0.000000
     5  C    1.740000   2.330276   2.330276   2.330276   0.000000
     6  H    2.330276   2.648596   2.650711   3.193076   1.086962
     7  H    2.330276   3.193076   2.648596   2.650711   1.086962
     8  H    2.330276   2.650711   3.193076   2.648596   1.086962
                    6          7          8
     6  H    0.000000
     7  H    1.781877   0.000000
     8  H    1.781877   1.781877   0.000000
 Stoichiometry    C2H6
 Framework group  D3[C3(C.C),X(H6)]
 Deg. of freedom     4
 Full point group                 D3      NOp   6
 RotChk:  IX=0 Diff= 9.37D-16
 Largest Abelian subgroup         C2      NOp   2
 Largest concise Abelian subgroup C2      NOp   2
                         Standard orientation:                         
 ---------------------------------------------------------------------
 Center     Atomic      Atomic             Coordinates (Angstroms)
 Number     Number       Type             X           Y           Z
 ---------------------------------------------------------------------
      1          6           0       -0.000000   -0.000000    0.870000
      2          1           0       -0.513021    0.891723    1.220891
      3          1           0        1.028766   -0.001572    1.220891
      4          1           0       -0.515744   -0.890151    1.220891
      5          6           0        0.000000   -0.000000   -0.870000
      6          1           0        0.513021    0.891723   -1.220891
      7          1           0        0.515744   -0.890151   -1.220891
      8          1           0       -1.028766   -0.001572   -1.220891
 ---------------------------------------------------------------------
 Rotational constants (GHZ):          78.9671851          16.6358234          16.6358234
 Leave Link  202 at Mon Oct  6 14:21:01 2025, MaxMem=   104857600 cpu:               0.0 elap:               0.0
 (Enter /home/zhouoh/g16/l301.exe)
 Standard basis: STO-3G (5D, 7F)
 Ernie: Thresh=  0.10000D-02 Tol=  0.10000D-05 Strict=F.
 There are     8 symmetry adapted cartesian basis functions of A   symmetry.
 There are     8 symmetry adapted cartesian basis functions of B   symmetry.
 There are     8 symmetry adapted basis functions of A   symmetry.
 There are     8 symmetry adapted basis functions of B   symmetry.
    16 basis functions,    48 primitive gaussians,    16 cartesian basis functions
     9 alpha electrons        9 beta electrons
       nuclear repulsion energy        40.1272552671 Hartrees.
 IExCor=    0 DFT=F Ex=HF Corr=None ExCW=0 ScaHFX=  1.000000
 ScaDFX=  1.000000  1.000000  1.000000  1.000000 ScalE2=  1.000000  1.000000
 IRadAn=      5 IRanWt=     -1 IRanGd=            0 ICorTp=0 IEmpDi=  4
 NAtoms=    8 NActive=    8 NUniq=    2 SFac= 4.00D+00 NAtFMM=   60 NAOKFM=F Big=F
 Integral buffers will be    131072 words long.
 Raffenetti 1 integral format.
 Two-electron integral symmetry is turned on.
 Leave Link  301 at Mon Oct  6 14:21:01 2025, MaxMem=   104857600 cpu:               0.0 elap:               0.0
 (Enter /home/zhouoh/g16/l402.exe)
 External calculation of energy and first derivatives.
 Running external command "python ../GauUMA_client.py R"
         input file       "/home/zhouoh/scratch/Gau-2811633.EIn"
         output file      "/home/zhouoh/scratch/Gau-2811633.EOu"
         message file     "/home/zhouoh/scratch/Gau-2811633.EMs"
         fchk file        "/home/zhouoh/scratch/Gau-2811633.EFC"
         mat. el file     "/home/zhouoh/scratch/Gau-2811633.EUF"
Sent job to server.
Received result from server:
SCF Done:  E(UMA) =  -79.77607323611798     A.U.
 Recovered energy= -79.7760732361     dipole=      0.000000000000      0.000000000000      0.000000000000
 Energy=    -79.7760732     NIter=   0.
 Dipole moment=       0.000000       0.000000       0.000000
 Leave Link  402 at Mon Oct  6 14:21:02 2025, MaxMem=   104857600 cpu:               0.0 elap:               0.1
 (Enter /home/zhouoh/g16/l716.exe)
 Dipole        = 0.00000000D+00 0.00000000D+00 0.00000000D+00
 ***** Axes restored to original set *****
 -------------------------------------------------------------------
 Center     Atomic                   Forces (Hartrees/Bohr)
 Number     Number              X              Y              Z
 -------------------------------------------------------------------
      1        6           0.021761018    0.030773807    0.053302405
      2        1           0.000020922    0.000140369    0.000107499
      3        1           0.000024366    0.000026981    0.000174615
      4        1           0.000118090    0.000063801    0.000118161
      5        6          -0.021760921   -0.030773874   -0.053302397
      6        1          -0.000125375   -0.000066382   -0.000107572
      7        1          -0.000020892   -0.000132646   -0.000118098
      8        1          -0.000017208   -0.000032054   -0.000174610
 -------------------------------------------------------------------
 Cartesian Forces:  Max     0.053302405 RMS     0.018845447
 Leave Link  716 at Mon Oct  6 14:21:02 2025, MaxMem=   104857600 cpu:               0.0 elap:               0.0
 (Enter /home/zhouoh/g16/l103.exe)

 GradGradGradGradGradGradGradGradGradGradGradGradGradGradGradGradGradGrad
 Berny optimization.
 Using GEDIIS/GDIIS optimizer.
 FormGI is forming the generalized inverse of G from B-inverse, IUseBI=4.
 Internal  Forces:  Max     0.065772062 RMS     0.012430199
 Search for a local minimum.
 Step number   2 out of a maximum of   38 on scan point     3 out of    21
 All quantities printed in internal units (Hartrees-Bohrs-Radians)
 RMS Force = .10745D-03 SwitMx=.10000D-02 MixMth= 2
 Mixed Optimization -- En-DIIS/RFO-DIIS
 Update second derivatives using D2CorX and points    1    2
 DE= -3.11D-04 DEPred=-2.94D-04 R= 1.06D+00
 TightC=F SS=  1.41D+00  RLast= 6.66D-02 DXNew= 5.9824D-01 1.9973D-01
 Trust test= 1.06D+00 RLast= 6.66D-02 DXMaxT set to 3.56D-01
 ITU=  1  0
 Use linear search instead of GDIIS.
     Eigenvalues ---    0.00237   0.05838   0.05838   0.05838   0.05838
     Eigenvalues ---    0.12436   0.16000   0.16000   0.16000   0.16000
     Eigenvalues ---    0.16000   0.37230   0.37230   0.37230   0.37230
     Eigenvalues ---    0.37230   0.375331000.000001000.000001000.00000
     Eigenvalues --- 1000.000001000.000001000.000001000.000001000.00000
     Eigenvalues --- 1000.000001000.000001000.00000
 RFO step:  Lambda=-1.29714434D-07 EMin= 2.36821514D-03
 Quartic linear search produced a step of  0.05919.
 Iteration  1 RMS(Cart)=  0.00108573 RMS(Int)=  0.00000819
 Iteration  2 RMS(Cart)=  0.00000074 RMS(Int)=  0.00000816
 Iteration  1 RMS(Cart)=  0.00000003 RMS(Int)=  0.00000000
 ITry= 1 IFail=0 DXMaxC= 2.18D-03 DCOld= 1.00D+10 DXMaxT= 3.56D-01 DXLimC= 3.00D+00 Rises=F
 ClnCor:  largest displacement from symmetrization is 1.29D-04 for atom     7.
 Variable       Old X    -DE/DX   Delta X   Delta X   Delta X     New X
                                 (Linear)    (Quad)   (Total)
    R1        2.05406  -0.00012  -0.00016  -0.00025  -0.00040   2.05366
    R2        2.05406  -0.00012  -0.00016  -0.00024  -0.00040   2.05366
    R3        2.05406  -0.00012  -0.00016  -0.00023  -0.00040   2.05366
    R4        3.28812  -0.06577   0.00000   0.00000  -0.00000   3.28812
    R5        2.05406  -0.00012  -0.00016  -0.00025  -0.00040   2.05366
    R6        2.05406  -0.00012  -0.00016  -0.00023  -0.00040   2.05366
    R7        2.05406  -0.00012  -0.00016  -0.00024  -0.00040   2.05366
    A1        1.92163   0.00013   0.00113  -0.00007   0.00106   1.92269
    A2        1.92163   0.00014   0.00113  -0.00003   0.00106   1.92269
    A3        1.89950  -0.00013  -0.00113   0.00006  -0.00109   1.89841
    A4        1.92163   0.00014   0.00113   0.00001   0.00106   1.92269
    A5        1.89950  -0.00014  -0.00113   0.00003  -0.00109   1.89841
    A6        1.89950  -0.00014  -0.00113  -0.00000  -0.00109   1.89841
    A7        1.89950  -0.00013  -0.00113   0.00006  -0.00109   1.89841
    A8        1.89950  -0.00014  -0.00113  -0.00000  -0.00109   1.89841
    A9        1.89950  -0.00014  -0.00113   0.00003  -0.00109   1.89841
   A10        1.92163   0.00014   0.00113  -0.00003   0.00106   1.92269
   A11        1.92163   0.00013   0.00113  -0.00007   0.00106   1.92269
   A12        1.92163   0.00014   0.00113   0.00001   0.00106   1.92269
    D1        1.04414  -0.00000  -0.00006  -0.00023  -0.00029   1.04385
    D2        3.13854  -0.00000  -0.00006  -0.00023  -0.00029   3.13825
    D3       -1.05025  -0.00000  -0.00006  -0.00020  -0.00029  -1.05054
    D4       -1.05025  -0.00000  -0.00006  -0.00020  -0.00029  -1.05054
    D5        1.04414  -0.00000  -0.00006  -0.00020  -0.00029   1.04385
    D6        3.13854   0.00000  -0.00006  -0.00017  -0.00029   3.13825
    D7        3.13854  -0.00000  -0.00006  -0.00023  -0.00029   3.13825
    D8       -1.05025  -0.00000  -0.00006  -0.00023  -0.00029  -1.05054
    D9        1.04414  -0.00000  -0.00006  -0.00020  -0.00029   1.04385
         Item               Value     Threshold  Converged?
 Maximum Force            0.000144     0.000450     YES
 RMS     Force            0.000107     0.000300     YES
 Maximum Displacement     0.002072     0.001800     NO 
 RMS     Displacement     0.001059     0.001200     YES
 Predicted change in Energy=-1.074670D-06
 GradGradGradGradGradGradGradGradGradGradGradGradGradGradGradGradGradGrad

 Leave Link  103 at Mon Oct  6 14:21:02 2025, MaxMem=   104857600 cpu:               0.0 elap:               0.0
 (Enter /home/zhouoh/g16/l202.exe)
                          Input orientation:                          
 ---------------------------------------------------------------------
 Center     Atomic      Atomic             Coordinates (Angstroms)
 Number     Number       Type             X           Y           Z
 ---------------------------------------------------------------------
      1          6           0       -1.949543   -0.129558   -0.081650
      2          1           0       -1.580482   -1.151660   -0.070512
      3          1           0       -1.581645    0.391969   -0.961243
      4          1           0       -3.036211   -0.123531   -0.069788
      5          6           0       -1.369533    0.690679    1.339055
      6          1           0       -0.282868    0.681672    1.328915
      7          1           0       -1.735781    1.713772    1.326197
      8          1           0       -1.740240    0.171142    2.218646
 ---------------------------------------------------------------------
                    Distance matrix (angstroms):
                    1          2          3          4          5
     1  C    0.000000
     2  H    1.086749   0.000000
     3  H    1.086749   1.782188   0.000000
     4  H    1.086749   1.782188   1.782188   0.000000
     5  C    1.740000   2.329290   2.329290   2.329290   0.000000
     6  H    2.329290   2.646376   2.648693   3.191491   1.086749
     7  H    2.329290   3.191491   2.646376   2.648693   1.086749
     8  H    2.329290   2.648693   3.191491   2.646376   1.086749
                    6          7          8
     6  H    0.000000
     7  H    1.782188   0.000000
     8  H    1.782188   1.782188   0.000000
 Stoichiometry    C2H6
 Framework group  D3[C3(C.C),X(H6)]
 Deg. of freedom     4
 Full point group                 D3      NOp   6
 RotChk:  IX=0 Diff= 8.29D-16
 Largest Abelian subgroup         C2      NOp   2
 Largest concise Abelian subgroup C2      NOp   2
                         Standard orientation:                         
 ---------------------------------------------------------------------
 Center     Atomic      Atomic             Coordinates (Angstroms)
 Number     Number       Type             X           Y           Z
 ---------------------------------------------------------------------
      1          6           0       -0.000000   -0.000000    0.870000
      2          1           0       -0.512982    0.891954    1.219703
      3          1           0        1.028946   -0.001721    1.219703
      4          1           0       -0.515963   -0.890232    1.219703
      5          6           0        0.000000   -0.000000   -0.870000
      6          1           0        0.512982    0.891954   -1.219703
      7          1           0        0.515963   -0.890232   -1.219703
      8          1           0       -1.028946   -0.001721   -1.219703
 ---------------------------------------------------------------------
 Rotational constants (GHZ):          78.9395768          16.6448156          16.6448156
 Leave Link  202 at Mon Oct  6 14:21:02 2025, MaxMem=   104857600 cpu:               0.0 elap:               0.0
 (Enter /home/zhouoh/g16/l301.exe)
 Standard basis: STO-3G (5D, 7F)
 Ernie: Thresh=  0.10000D-02 Tol=  0.10000D-05 Strict=F.
 There are     8 symmetry adapted cartesian basis functions of A   symmetry.
 There are     8 symmetry adapted cartesian basis functions of B   symmetry.
 There are     8 symmetry adapted basis functions of A   symmetry.
 There are     8 symmetry adapted basis functions of B   symmetry.
    16 basis functions,    48 primitive gaussians,    16 cartesian basis functions
     9 alpha electrons        9 beta electrons
       nuclear repulsion energy        40.1350392650 Hartrees.
 IExCor=    0 DFT=F Ex=HF Corr=None ExCW=0 ScaHFX=  1.000000
 ScaDFX=  1.000000  1.000000  1.000000  1.000000 ScalE2=  1.000000  1.000000
 IRadAn=      5 IRanWt=     -1 IRanGd=            0 ICorTp=0 IEmpDi=  4
 NAtoms=    8 NActive=    8 NUniq=    2 SFac= 4.00D+00 NAtFMM=   60 NAOKFM=F Big=F
 Integral buffers will be    131072 words long.
 Raffenetti 1 integral format.
 Two-electron integral symmetry is turned on.
 Leave Link  301 at Mon Oct  6 14:21:02 2025, MaxMem=   104857600 cpu:               0.0 elap:               0.0
 (Enter /home/zhouoh/g16/l402.exe)
 External calculation of energy and first derivatives.
 Running external command "python ../GauUMA_client.py R"
         input file       "/home/zhouoh/scratch/Gau-2811633.EIn"
         output file      "/home/zhouoh/scratch/Gau-2811633.EOu"
         message file     "/home/zhouoh/scratch/Gau-2811633.EMs"
         fchk file        "/home/zhouoh/scratch/Gau-2811633.EFC"
         mat. el file     "/home/zhouoh/scratch/Gau-2811633.EUF"
Sent job to server.
Received result from server:
SCF Done:  E(UMA) =  -79.77607427219151     A.U.
 Recovered energy= -79.7760742722     dipole=      0.000000000000      0.000000000000      0.000000000000
 Energy=    -79.7760743     NIter=   0.
 Dipole moment=       0.000000       0.000000       0.000000
 Leave Link  402 at Mon Oct  6 14:21:02 2025, MaxMem=   104857600 cpu:               0.0 elap:               0.1
 (Enter /home/zhouoh/g16/l716.exe)
 Dipole        = 0.00000000D+00 0.00000000D+00 0.00000000D+00
 ***** Axes restored to original set *****
 -------------------------------------------------------------------
 Center     Atomic                   Forces (Hartrees/Bohr)
 Number     Number              X              Y              Z
 -------------------------------------------------------------------
      1        6           0.021861810    0.030916634    0.053549510
      2        1           0.000001338    0.000004327   -0.000002069
      3        1           0.000005529   -0.000000484    0.000002125
      4        1          -0.000003458    0.000000794    0.000008154
      5        6          -0.021861984   -0.030916508   -0.053549503
      6        1          -0.000003640   -0.000002698    0.000002063
      7        1          -0.000001890    0.000002992   -0.000008161
      8        1           0.000002292   -0.000005059   -0.000002122
 -------------------------------------------------------------------
 Cartesian Forces:  Max     0.053549510 RMS     0.018932614
 Leave Link  716 at Mon Oct  6 14:21:02 2025, MaxMem=   104857600 cpu:               0.0 elap:               0.0
 (Enter /home/zhouoh/g16/l103.exe)

 GradGradGradGradGradGradGradGradGradGradGradGradGradGradGradGradGradGrad
 Berny optimization.
 Using GEDIIS/GDIIS optimizer.
 FormGI is forming the generalized inverse of G from B-inverse, IUseBI=4.
 Internal  Forces:  Max     0.065594531 RMS     0.012396202
 Search for a local minimum.
 Step number   3 out of a maximum of   38 on scan point     3 out of    21
 All quantities printed in internal units (Hartrees-Bohrs-Radians)
 RMS Force = .40378D-05 SwitMx=.10000D-02 MixMth= 2
 Mixed Optimization -- En-DIIS/RFO-DIIS
 Swapping is turned off.
 Update second derivatives using D2CorX and points    1    2    3
 DE= -1.04D-06 DEPred=-1.07D-06 R= 9.64D-01
 TightC=F SS=  1.41D+00  RLast= 3.95D-03 DXNew= 5.9824D-01 1.1838D-02
 Trust test= 9.64D-01 RLast= 3.95D-03 DXMaxT set to 3.56D-01
 ITU=  1  1  0
     Eigenvalues ---    0.00237   0.05849   0.05849   0.05849   0.05849
     Eigenvalues ---    0.12753   0.16000   0.16000   0.16000   0.16000
     Eigenvalues ---    0.16000   0.37184   0.37230   0.37230   0.37230
     Eigenvalues ---    0.37230   0.372301000.000001000.000001000.00000
     Eigenvalues --- 1000.000001000.000001000.000001000.000001000.00000
     Eigenvalues --- 1000.000001000.000001000.00000
 En-DIIS/RFO-DIIS/Sim-DIIS IScMMF=       -3 using points:     3    2
 RFO step:  Lambda=-4.30468407D-06.
 NNeg= 0 NGDIIS= 2 SimSw=  2.50D-03 Rises=F DC= -1.04D-06 SmlDif=  1.00D-05
 NRisDI= 0 DoIntr=F SqrtH=F CThrHd= 10.0 CDAdj=  3.0
 RMS Error=  0.1085229508D-03 NUsed= 2 OKEnD=F EnDIS=F
 InvSVX:  RCond= 3.89D-06 Info=           0 Equed=N FErr=  1.14D-15 BErr=  5.26D-17
 DidBck=F Rises=F RFO-DIIS coefs:    1.05483   -0.05483
 Iteration  1 RMS(Cart)=  0.00009114 RMS(Int)=  0.00000002
 Iteration  2 RMS(Cart)=  0.00000000 RMS(Int)=  0.00000002
 Iteration  1 RMS(Cart)=  0.00000001 RMS(Int)=  0.00000000
 ITry= 1 IFail=0 DXMaxC= 2.06D-04 DCOld= 1.00D+10 DXMaxT= 3.56D-01 DXLimC= 3.00D+00 Rises=F
 ClnCor:  largest displacement from symmetrization is 1.30D-04 for atom     7.
 Variable       Old X    -DE/DX   Delta X   Delta X   Delta X     New X
                                 (Linear)    (Quad)   (Total)
    R1        2.05366  -0.00000  -0.00002   0.00001  -0.00001   2.05365
    R2        2.05366  -0.00000  -0.00002   0.00002  -0.00001   2.05365
    R3        2.05366   0.00000  -0.00002   0.00003  -0.00001   2.05365
    R4        3.28812  -0.06559  -0.00000   0.00000  -0.00000   3.28812
    R5        2.05366  -0.00000  -0.00002   0.00001  -0.00001   2.05365
    R6        2.05366   0.00000  -0.00002   0.00003  -0.00001   2.05365
    R7        2.05366  -0.00000  -0.00002   0.00002  -0.00001   2.05365
    A1        1.92269  -0.00000   0.00006  -0.00007  -0.00000   1.92269
    A2        1.92269   0.00000   0.00006  -0.00003  -0.00000   1.92269
    A3        1.89841   0.00000  -0.00006   0.00006   0.00000   1.89842
    A4        1.92269   0.00001   0.00006   0.00001  -0.00000   1.92269
    A5        1.89841  -0.00000  -0.00006   0.00003   0.00000   1.89842
    A6        1.89841  -0.00001  -0.00006  -0.00000   0.00000   1.89842
    A7        1.89841   0.00000  -0.00006   0.00006   0.00000   1.89842
    A8        1.89841  -0.00001  -0.00006  -0.00000   0.00000   1.89842
    A9        1.89841  -0.00000  -0.00006   0.00003   0.00000   1.89842
   A10        1.92269   0.00000   0.00006  -0.00003  -0.00000   1.92269
   A11        1.92269  -0.00000   0.00006  -0.00007  -0.00000   1.92269
   A12        1.92269   0.00001   0.00006   0.00001  -0.00000   1.92269
    D1        1.04385  -0.00000  -0.00002  -0.00019  -0.00020   1.04365
    D2        3.13825  -0.00000  -0.00002  -0.00019  -0.00020   3.13805
    D3       -1.05054   0.00000  -0.00002  -0.00016  -0.00020  -1.05075
    D4       -1.05054   0.00000  -0.00002  -0.00016  -0.00020  -1.05075
    D5        1.04385   0.00000  -0.00002  -0.00016  -0.00020   1.04365
    D6        3.13825   0.00000  -0.00002  -0.00013  -0.00020   3.13805
    D7        3.13825  -0.00000  -0.00002  -0.00019  -0.00020   3.13805
    D8       -1.05054  -0.00000  -0.00002  -0.00019  -0.00020  -1.05075
    D9        1.04385   0.00000  -0.00002  -0.00016  -0.00020   1.04365
         Item               Value     Threshold  Converged?
 Maximum Force            0.000010     0.000450     YES
 RMS     Force            0.000004     0.000300     YES
 Maximum Displacement     0.000172     0.001800     YES
 RMS     Displacement     0.000091     0.001200     YES
 Predicted change in Energy=-2.089305D-10
 Optimization completed.
    -- Stationary point found.
                           ----------------------------
                           !   Optimized Parameters   !
                           ! (Angstroms and Degrees)  !
 --------------------------                            --------------------------
 ! Name  Definition              Value          Derivative Info.                !
 --------------------------------------------------------------------------------
 ! R1    R(1,2)                  1.0867         -DE/DX =    0.0                 !
 ! R2    R(1,3)                  1.0867         -DE/DX =    0.0                 !
 ! R3    R(1,4)                  1.0867         -DE/DX =    0.0                 !
 ! R4    R(1,5)                  1.74           -DE/DX =   -0.0656              !
 ! R5    R(5,6)                  1.0867         -DE/DX =    0.0                 !
 ! R6    R(5,7)                  1.0867         -DE/DX =    0.0                 !
 ! R7    R(5,8)                  1.0867         -DE/DX =    0.0                 !
 ! A1    A(2,1,3)              110.1622         -DE/DX =    0.0                 !
 ! A2    A(2,1,4)              110.1622         -DE/DX =    0.0                 !
 ! A3    A(2,1,5)              108.7711         -DE/DX =    0.0                 !
 ! A4    A(3,1,4)              110.1622         -DE/DX =    0.0                 !
 ! A5    A(3,1,5)              108.7711         -DE/DX =    0.0                 !
 ! A6    A(4,1,5)              108.7711         -DE/DX =    0.0                 !
 ! A7    A(1,5,6)              108.7711         -DE/DX =    0.0                 !
 ! A8    A(1,5,7)              108.7711         -DE/DX =    0.0                 !
 ! A9    A(1,5,8)              108.7711         -DE/DX =    0.0                 !
 ! A10   A(6,5,7)              110.1622         -DE/DX =    0.0                 !
 ! A11   A(6,5,8)              110.1622         -DE/DX =    0.0                 !
 ! A12   A(7,5,8)              110.1622         -DE/DX =    0.0                 !
 ! D1    D(2,1,5,6)             59.8083         -DE/DX =    0.0                 !
 ! D2    D(2,1,5,7)            179.8083         -DE/DX =    0.0                 !
 ! D3    D(2,1,5,8)            -60.1917         -DE/DX =    0.0                 !
 ! D4    D(3,1,5,6)            -60.1917         -DE/DX =    0.0                 !
 ! D5    D(3,1,5,7)             59.8083         -DE/DX =    0.0                 !
 ! D6    D(3,1,5,8)            179.8083         -DE/DX =    0.0                 !
 ! D7    D(4,1,5,6)            179.8083         -DE/DX =    0.0                 !
 ! D8    D(4,1,5,7)            -60.1917         -DE/DX =    0.0                 !
 ! D9    D(4,1,5,8)             59.8083         -DE/DX =    0.0                 !
 --------------------------------------------------------------------------------
 Iteration  1 RMS(Cart)=  0.05050506 RMS(Int)=  0.00000000
 Iteration  2 RMS(Cart)=  0.00000001 RMS(Int)=  0.00000000
 Iteration  1 RMS(Cart)=  0.00000000 RMS(Int)=  0.00000000
 GradGradGradGradGradGradGradGradGradGradGradGradGradGradGradGradGradGrad

 Leave Link  103 at Mon Oct  6 14:21:02 2025, MaxMem=   104857600 cpu:               0.0 elap:               0.0
 (Enter /home/zhouoh/g16/l202.exe)
                          Input orientation:                          
 ---------------------------------------------------------------------
 Center     Atomic      Atomic             Coordinates (Angstroms)
 Number     Number       Type             X           Y           Z
 ---------------------------------------------------------------------
      1          6           0       -1.966210   -0.153128   -0.122475
      2          1           0       -1.597067   -1.175194   -0.111390
      3          1           0       -1.598400    0.368454   -1.002064
      4          1           0       -3.052870   -0.147192   -0.110563
      5          6           0       -1.352866    0.714249    1.379880
      6          1           0       -0.266208    0.705153    1.369794
      7          1           0       -1.719026    1.737366    1.366971
      8          1           0       -1.723654    0.194777    2.259467
 ---------------------------------------------------------------------
                    Distance matrix (angstroms):
                    1          2          3          4          5
     1  C    0.000000
     2  H    1.086742   0.000000
     3  H    1.086742   1.782176   0.000000
     4  H    1.086742   1.782176   1.782176   0.000000
     5  C    1.840000   2.419404   2.419404   2.419404   0.000000
     6  H    2.419404   2.738758   2.741133   3.268552   1.086742
     7  H    2.419404   3.268552   2.738758   2.741133   1.086742
     8  H    2.419404   2.741133   3.268552   2.738758   1.086742
                    6          7          8
     6  H    0.000000
     7  H    1.782176   0.000000
     8  H    1.782176   1.782176   0.000000
 Stoichiometry    C2H6
 Framework group  D3[C3(C.C),X(H6)]
 Deg. of freedom     4
 Full point group                 D3      NOp   6
 RotChk:  IX=0 Diff= 1.83D-13
 Largest Abelian subgroup         C2      NOp   2
 Largest concise Abelian subgroup C2      NOp   2
                         Standard orientation:                         
 ---------------------------------------------------------------------
 Center     Atomic      Atomic             Coordinates (Angstroms)
 Number     Number       Type             X           Y           Z
 ---------------------------------------------------------------------
      1          6           0       -0.000000    0.000000    0.920000
      2          1           0       -0.512888    0.891999    1.269703
      3          1           0        1.028938   -0.001825    1.269703
      4          1           0       -0.516050   -0.890174    1.269703
      5          6           0        0.000000    0.000000   -0.920000
      6          1           0        0.512888    0.891999   -1.269703
      7          1           0        0.516050   -0.890174   -1.269703
      8          1           0       -1.028938   -0.001825   -1.269703
 ---------------------------------------------------------------------
 Rotational constants (GHZ):          78.9406956          15.1933538          15.1933538
 Leave Link  202 at Mon Oct  6 14:21:02 2025, MaxMem=   104857600 cpu:               0.0 elap:               0.0
 (Enter /home/zhouoh/g16/l301.exe)
 Standard basis: STO-3G (5D, 7F)
 Ernie: Thresh=  0.10000D-02 Tol=  0.10000D-05 Strict=F.
 There are     8 symmetry adapted cartesian basis functions of A   symmetry.
 There are     8 symmetry adapted cartesian basis functions of B   symmetry.
 There are     8 symmetry adapted basis functions of A   symmetry.
 There are     8 symmetry adapted basis functions of B   symmetry.
    16 basis functions,    48 primitive gaussians,    16 cartesian basis functions
     9 alpha electrons        9 beta electrons
       nuclear repulsion energy        39.1833385580 Hartrees.
 IExCor=    0 DFT=F Ex=HF Corr=None ExCW=0 ScaHFX=  1.000000
 ScaDFX=  1.000000  1.000000  1.000000  1.000000 ScalE2=  1.000000  1.000000
 IRadAn=      5 IRanWt=     -1 IRanGd=            0 ICorTp=0 IEmpDi=  4
 NAtoms=    8 NActive=    8 NUniq=    2 SFac= 4.00D+00 NAtFMM=   60 NAOKFM=F Big=F
 Integral buffers will be    131072 words long.
 Raffenetti 1 integral format.
 Two-electron integral symmetry is turned on.
 Leave Link  301 at Mon Oct  6 14:21:02 2025, MaxMem=   104857600 cpu:               0.0 elap:               0.0
 (Enter /home/zhouoh/g16/l402.exe)
 External calculation of energy and first derivatives.
 Running external command "python ../GauUMA_client.py R"
         input file       "/home/zhouoh/scratch/Gau-2811633.EIn"
         output file      "/home/zhouoh/scratch/Gau-2811633.EOu"
         message file     "/home/zhouoh/scratch/Gau-2811633.EMs"
         fchk file        "/home/zhouoh/scratch/Gau-2811633.EFC"
         mat. el file     "/home/zhouoh/scratch/Gau-2811633.EUF"
Sent job to server.
Received result from server:
SCF Done:  E(UMA) =  -79.76228674293557     A.U.
 Recovered energy= -79.7622867429     dipole=      0.000000000000      0.000000000000      0.000000000000
 Energy=    -79.7622867     NIter=   0.
 Dipole moment=       0.000000       0.000000       0.000000
 Leave Link  402 at Mon Oct  6 14:21:02 2025, MaxMem=   104857600 cpu:               0.0 elap:               0.1
 (Enter /home/zhouoh/g16/l716.exe)
 Dipole        = 0.00000000D+00 0.00000000D+00 0.00000000D+00
 ***** Axes restored to original set *****
 -------------------------------------------------------------------
 Center     Atomic                   Forces (Hartrees/Bohr)
 Number     Number              X              Y              Z
 -------------------------------------------------------------------
      1        6           0.024014192    0.033960397    0.058821648
      2        1           0.000884825    0.000867629    0.001933224
      3        1           0.000885618    0.001248046    0.001718712
      4        1           0.000516508    0.001118374    0.001949708
      5        6          -0.024014284   -0.033960328   -0.058821640
      6        1          -0.000523107   -0.001123838   -0.001932978
      7        1          -0.000881845   -0.000859600   -0.001949961
      8        1          -0.000881905   -0.001250679   -0.001718709
 -------------------------------------------------------------------
 Cartesian Forces:  Max     0.058821648 RMS     0.020828393
 Leave Link  716 at Mon Oct  6 14:21:02 2025, MaxMem=   104857600 cpu:               0.0 elap:               0.0
 (Enter /home/zhouoh/g16/l103.exe)

 GradGradGradGradGradGradGradGradGradGradGradGradGradGradGradGradGradGrad
 Berny optimization.
 FormGI is forming the generalized inverse of G from B-inverse, IUseBI=4.
 Internal  Forces:  Max     0.078902073 RMS     0.014991230
 Search for a local minimum.
 Step number   1 out of a maximum of   38 on scan point     4 out of    21
 All quantities printed in internal units (Hartrees-Bohrs-Radians)
 RMS Force = .15764D-02 SwitMx=.10000D-02 MixMth= 1
 Mixed Optimization -- RFO/linear search
 Second derivative matrix not updated -- first step.
 ITU=  0
     Eigenvalues ---    0.00237   0.05849   0.05849   0.05849   0.05849
     Eigenvalues ---    0.12753   0.16000   0.16000   0.16000   0.16000
     Eigenvalues ---    0.16000   0.37184   0.37230   0.37230   0.37230
     Eigenvalues ---    0.37230   0.372301000.000001000.000001000.00000
     Eigenvalues --- 1000.000001000.000001000.000001000.000001000.00000
     Eigenvalues --- 1000.000001000.000001000.00000
 RFO step:  Lambda=-5.22451551D-04 EMin= 2.36624210D-03
 Linear search not attempted -- first point.
 Iteration  1 RMS(Cart)=  0.01774373 RMS(Int)=  0.00023565
 Iteration  2 RMS(Cart)=  0.00023024 RMS(Int)=  0.00012968
 Iteration  3 RMS(Cart)=  0.00000005 RMS(Int)=  0.00012968
 Iteration  1 RMS(Cart)=  0.00000000 RMS(Int)=  0.00000000
 ITry= 1 IFail=0 DXMaxC= 3.47D-02 DCOld= 1.00D+10 DXMaxT= 3.56D-01 DXLimC= 3.00D+00 Rises=F
 ClnCor:  largest displacement from symmetrization is 2.22D-04 for atom     7.
 Variable       Old X    -DE/DX   Delta X   Delta X   Delta X     New X
                                 (Linear)    (Quad)   (Total)
    R1        2.05365  -0.00050   0.00000  -0.00264  -0.00264   2.05101
    R2        2.05365  -0.00049   0.00000  -0.00264  -0.00264   2.05101
    R3        2.05365  -0.00049   0.00000  -0.00263  -0.00264   2.05101
    R4        3.47710  -0.07890   0.00000   0.00000  -0.00000   3.47710
    R5        2.05365  -0.00050   0.00000  -0.00264  -0.00264   2.05101
    R6        2.05365  -0.00049   0.00000  -0.00263  -0.00264   2.05101
    R7        2.05365  -0.00049   0.00000  -0.00264  -0.00264   2.05101
    A1        1.92269   0.00230   0.00000   0.01805   0.01783   1.94052
    A2        1.92269   0.00231   0.00000   0.01809   0.01783   1.94052
    A3        1.89842  -0.00236   0.00000  -0.01852  -0.01871   1.87970
    A4        1.92269   0.00231   0.00000   0.01814   0.01783   1.94052
    A5        1.89842  -0.00237   0.00000  -0.01858  -0.01871   1.87970
    A6        1.89842  -0.00238   0.00000  -0.01863  -0.01871   1.87970
    A7        1.89842  -0.00236   0.00000  -0.01852  -0.01871   1.87970
    A8        1.89842  -0.00238   0.00000  -0.01863  -0.01871   1.87970
    A9        1.89842  -0.00237   0.00000  -0.01858  -0.01871   1.87970
   A10        1.92269   0.00231   0.00000   0.01809   0.01783   1.94052
   A11        1.92269   0.00230   0.00000   0.01805   0.01783   1.94052
   A12        1.92269   0.00231   0.00000   0.01813   0.01783   1.94052
    D1        1.04365  -0.00000   0.00000  -0.00265  -0.00266   1.04099
    D2        3.13805  -0.00000   0.00000  -0.00266  -0.00266   3.13539
    D3       -1.05075  -0.00000   0.00000  -0.00263  -0.00266  -1.05340
    D4       -1.05075  -0.00000   0.00000  -0.00263  -0.00266  -1.05340
    D5        1.04365  -0.00000   0.00000  -0.00264  -0.00266   1.04099
    D6        3.13805  -0.00000   0.00000  -0.00262  -0.00266   3.13539
    D7        3.13805  -0.00000   0.00000  -0.00266  -0.00266   3.13539
    D8       -1.05075  -0.00000   0.00000  -0.00266  -0.00266  -1.05340
    D9        1.04365  -0.00000   0.00000  -0.00264  -0.00266   1.04099
         Item               Value     Threshold  Converged?
 Maximum Force            0.002379     0.000450     NO 
 RMS     Force            0.001576     0.000300     NO 
 Maximum Displacement     0.034515     0.001800     NO 
 RMS     Displacement     0.017862     0.001200     NO 
 Predicted change in Energy=-2.622806D-04
 GradGradGradGradGradGradGradGradGradGradGradGradGradGradGradGradGradGrad

 Leave Link  103 at Mon Oct  6 14:21:02 2025, MaxMem=   104857600 cpu:               0.0 elap:               0.0
 (Enter /home/zhouoh/g16/l202.exe)
                          Input orientation:                          
 ---------------------------------------------------------------------
 Center     Atomic      Atomic             Coordinates (Angstroms)
 Number     Number       Type             X           Y           Z
 ---------------------------------------------------------------------
      1          6           0       -1.966210   -0.153128   -0.122475
      2          1           0       -1.586989   -1.169683   -0.094509
      3          1           0       -1.590573    0.381910   -0.988850
      4          1           0       -3.051033   -0.138242   -0.092302
      5          6           0       -1.352866    0.714249    1.379879
      6          1           0       -0.268048    0.693806    1.352918
      7          1           0       -1.726843    1.732651    1.348707
      8          1           0       -1.733739    0.182920    2.246251
 ---------------------------------------------------------------------
                    Distance matrix (angstroms):
                    1          2          3          4          5
     1  C    0.000000
     2  H    1.085345   0.000000
     3  H    1.085345   1.790894   0.000000
     4  H    1.085345   1.790894   1.790894   0.000000
     5  C    1.840000   2.403712   2.403712   2.403712   0.000000
     6  H    2.403712   2.703191   2.707439   3.244376   1.085345
     7  H    2.403712   3.244376   2.703191   2.707439   1.085345
     8  H    2.403712   2.707439   3.244376   2.703191   1.085345
                    6          7          8
     6  H    0.000000
     7  H    1.790894   0.000000
     8  H    1.790894   1.790894   0.000000
 Stoichiometry    C2H6
 Framework group  D3[C3(C.C),X(H6)]
 Deg. of freedom     4
 Full point group                 D3      NOp   6
 RotChk:  IX=0 Diff= 9.91D-16
 Largest Abelian subgroup         C2      NOp   2
 Largest concise Abelian subgroup C2      NOp   2
                         Standard orientation:                         
 ---------------------------------------------------------------------
 Center     Atomic      Atomic             Coordinates (Angstroms)
 Number     Number       Type             X           Y           Z
 ---------------------------------------------------------------------
      1          6           0       -0.000000    0.000000    0.920000
      2          1           0       -0.514205    0.897047    1.249961
      3          1           0        1.033968   -0.003209    1.249961
      4          1           0       -0.519763   -0.893838    1.249961
      5          6           0        0.000000   -0.000000   -0.920000
      6          1           0        0.514205    0.897047   -1.249961
      7          1           0        0.519763   -0.893838   -1.249961
      8          1           0       -1.033968   -0.003209   -1.249961
 ---------------------------------------------------------------------
 Rotational constants (GHZ):          78.1740300          15.3174060          15.3174060
 Leave Link  202 at Mon Oct  6 14:21:02 2025, MaxMem=   104857600 cpu:               0.0 elap:               0.0
 (Enter /home/zhouoh/g16/l301.exe)
 Standard basis: STO-3G (5D, 7F)
 Ernie: Thresh=  0.10000D-02 Tol=  0.10000D-05 Strict=F.
 There are     8 symmetry adapted cartesian basis functions of A   symmetry.
 There are     8 symmetry adapted cartesian basis functions of B   symmetry.
 There are     8 symmetry adapted basis functions of A   symmetry.
 There are     8 symmetry adapted basis functions of B   symmetry.
    16 basis functions,    48 primitive gaussians,    16 cartesian basis functions
     9 alpha electrons        9 beta electrons
       nuclear repulsion energy        39.2670850685 Hartrees.
 IExCor=    0 DFT=F Ex=HF Corr=None ExCW=0 ScaHFX=  1.000000
 ScaDFX=  1.000000  1.000000  1.000000  1.000000 ScalE2=  1.000000  1.000000
 IRadAn=      5 IRanWt=     -1 IRanGd=            0 ICorTp=0 IEmpDi=  4
 NAtoms=    8 NActive=    8 NUniq=    2 SFac= 4.00D+00 NAtFMM=   60 NAOKFM=F Big=F
 Integral buffers will be    131072 words long.
 Raffenetti 1 integral format.
 Two-electron integral symmetry is turned on.
 Leave Link  301 at Mon Oct  6 14:21:02 2025, MaxMem=   104857600 cpu:               0.0 elap:               0.0
 (Enter /home/zhouoh/g16/l402.exe)
 External calculation of energy and first derivatives.
 Running external command "python ../GauUMA_client.py R"
         input file       "/home/zhouoh/scratch/Gau-2811633.EIn"
         output file      "/home/zhouoh/scratch/Gau-2811633.EOu"
         message file     "/home/zhouoh/scratch/Gau-2811633.EMs"
         fchk file        "/home/zhouoh/scratch/Gau-2811633.EFC"
         mat. el file     "/home/zhouoh/scratch/Gau-2811633.EUF"
Sent job to server.
Received result from server:
SCF Done:  E(UMA) =  -79.76256329516342     A.U.
 Recovered energy= -79.7625632952     dipole=      0.000000000000      0.000000000000      0.000000000000
 Energy=    -79.7625633     NIter=   0.
 Dipole moment=       0.000000       0.000000       0.000000
 Leave Link  402 at Mon Oct  6 14:21:02 2025, MaxMem=   104857600 cpu:               0.0 elap:               0.1
 (Enter /home/zhouoh/g16/l716.exe)
 Dipole        = 0.00000000D+00 0.00000000D+00 0.00000000D+00
 ***** Axes restored to original set *****
 -------------------------------------------------------------------
 Center     Atomic                   Forces (Hartrees/Bohr)
 Number     Number              X              Y              Z
 -------------------------------------------------------------------
      1        6           0.025308621    0.035790957    0.061992297
      2        1           0.000072956   -0.000013567    0.000107973
      3        1           0.000080475    0.000102786    0.000043242
      4        1          -0.000042796    0.000067130    0.000119653
      5        6          -0.025308724   -0.035790887   -0.061992296
      6        1           0.000037105   -0.000064391   -0.000107900
      7        1          -0.000077419    0.000018020   -0.000119740
      8        1          -0.000070221   -0.000110051   -0.000043235
 -------------------------------------------------------------------
 Cartesian Forces:  Max     0.061992297 RMS     0.021917688
 Leave Link  716 at Mon Oct  6 14:21:02 2025, MaxMem=   104857600 cpu:               0.0 elap:               0.0
 (Enter /home/zhouoh/g16/l103.exe)

 GradGradGradGradGradGradGradGradGradGradGradGradGradGradGradGradGradGrad
 Berny optimization.
 Using GEDIIS/GDIIS optimizer.
 FormGI is forming the generalized inverse of G from B-inverse, IUseBI=4.
 Internal  Forces:  Max     0.076256472 RMS     0.014411417
 Search for a local minimum.
 Step number   2 out of a maximum of   38 on scan point     4 out of    21
 All quantities printed in internal units (Hartrees-Bohrs-Radians)
 RMS Force = .94445D-04 SwitMx=.10000D-02 MixMth= 2
 Mixed Optimization -- En-DIIS/RFO-DIIS
 Update second derivatives using D2CorX and points    1    2
 DE= -2.77D-04 DEPred=-2.62D-04 R= 1.05D+00
 TightC=F SS=  1.41D+00  RLast= 6.41D-02 DXNew= 5.9824D-01 1.9245D-01
 Trust test= 1.05D+00 RLast= 6.41D-02 DXMaxT set to 3.56D-01
 ITU=  1  0
 Use linear search instead of GDIIS.
     Eigenvalues ---    0.00237   0.06047   0.06047   0.06047   0.06047
     Eigenvalues ---    0.12096   0.16000   0.16000   0.16000   0.16000
     Eigenvalues ---    0.16000   0.37225   0.37230   0.37230   0.37230
     Eigenvalues ---    0.37230   0.372311000.000001000.000001000.00000
     Eigenvalues --- 1000.000001000.000001000.000001000.000001000.00000
     Eigenvalues --- 1000.000001000.000001000.00000
 RFO step:  Lambda=-1.03672938D-07 EMin= 2.36670623D-03
 Quartic linear search produced a step of  0.05917.
 Iteration  1 RMS(Cart)=  0.00110207 RMS(Int)=  0.00000845
 Iteration  2 RMS(Cart)=  0.00000096 RMS(Int)=  0.00000841
 Iteration  1 RMS(Cart)=  0.00000002 RMS(Int)=  0.00000000
 ITry= 1 IFail=0 DXMaxC= 2.12D-03 DCOld= 1.00D+10 DXMaxT= 3.56D-01 DXLimC= 3.00D+00 Rises=F
 ClnCor:  largest displacement from symmetrization is 2.20D-04 for atom     7.
 Variable       Old X    -DE/DX   Delta X   Delta X   Delta X     New X
                                 (Linear)    (Quad)   (Total)
    R1        2.05101   0.00004  -0.00016   0.00020   0.00005   2.05105
    R2        2.05101   0.00004  -0.00016   0.00020   0.00005   2.05105
    R3        2.05101   0.00005  -0.00016   0.00021   0.00005   2.05105
    R4        3.47710  -0.07626  -0.00000   0.00000   0.00000   3.47710
    R5        2.05101   0.00004  -0.00016   0.00020   0.00005   2.05105
    R6        2.05101   0.00005  -0.00016   0.00021   0.00005   2.05105
    R7        2.05101   0.00004  -0.00016   0.00020   0.00005   2.05105
    A1        1.94052   0.00013   0.00106  -0.00001   0.00102   1.94154
    A2        1.94052   0.00013   0.00106   0.00002   0.00102   1.94154
    A3        1.87970  -0.00013  -0.00111   0.00003  -0.00109   1.87861
    A4        1.94052   0.00014   0.00106   0.00006   0.00102   1.94154
    A5        1.87970  -0.00014  -0.00111  -0.00003  -0.00109   1.87861
    A6        1.87970  -0.00015  -0.00111  -0.00008  -0.00109   1.87861
    A7        1.87970  -0.00013  -0.00111   0.00003  -0.00109   1.87861
    A8        1.87970  -0.00015  -0.00111  -0.00008  -0.00109   1.87861
    A9        1.87970  -0.00014  -0.00111  -0.00003  -0.00109   1.87861
   A10        1.94052   0.00013   0.00106   0.00002   0.00102   1.94154
   A11        1.94052   0.00013   0.00106  -0.00001   0.00102   1.94154
   A12        1.94052   0.00014   0.00106   0.00006   0.00102   1.94154
    D1        1.04099   0.00000  -0.00016   0.00053   0.00036   1.04136
    D2        3.13539   0.00000  -0.00016   0.00053   0.00036   3.13575
    D3       -1.05340   0.00000  -0.00016   0.00054   0.00036  -1.05304
    D4       -1.05340   0.00000  -0.00016   0.00054   0.00036  -1.05304
    D5        1.04099   0.00000  -0.00016   0.00054   0.00036   1.04136
    D6        3.13539   0.00000  -0.00016   0.00056   0.00036   3.13575
    D7        3.13539   0.00000  -0.00016   0.00053   0.00036   3.13575
    D8       -1.05340   0.00000  -0.00016   0.00053   0.00036  -1.05304
    D9        1.04099   0.00000  -0.00016   0.00054   0.00036   1.04136
         Item               Value     Threshold  Converged?
 Maximum Force            0.000152     0.000450     YES
 RMS     Force            0.000094     0.000300     YES
 Maximum Displacement     0.002118     0.001800     NO 
 RMS     Displacement     0.001051     0.001200     YES
 Predicted change in Energy=-9.307526D-07
 GradGradGradGradGradGradGradGradGradGradGradGradGradGradGradGradGradGrad

 Leave Link  103 at Mon Oct  6 14:21:02 2025, MaxMem=   104857600 cpu:               0.0 elap:               0.0
 (Enter /home/zhouoh/g16/l202.exe)
                          Input orientation:                          
 ---------------------------------------------------------------------
 Center     Atomic      Atomic             Coordinates (Angstroms)
 Number     Number       Type             X           Y           Z
 ---------------------------------------------------------------------
      1          6           0       -1.966210   -0.153128   -0.122475
      2          1           0       -1.586587   -1.169528   -0.093388
      3          1           0       -1.589865    0.382587   -0.988156
      4          1           0       -3.051022   -0.137486   -0.091369
      5          6           0       -1.352866    0.714249    1.379880
      6          1           0       -0.268059    0.693375    1.351797
      7          1           0       -1.727551    1.732389    1.347773
      8          1           0       -1.734142    0.182027    2.245557
 ---------------------------------------------------------------------
                    Distance matrix (angstroms):
                    1          2          3          4          5
     1  C    0.000000
     2  H    1.085371   0.000000
     3  H    1.085371   1.791559   0.000000
     4  H    1.085371   1.791559   1.791559   0.000000
     5  C    1.840000   2.402865   2.402865   2.402865   0.000000
     6  H    2.402865   2.701386   2.705390   3.243137   1.085371
     7  H    2.402865   3.243137   2.701386   2.705390   1.085371
     8  H    2.402865   2.705390   3.243137   2.701386   1.085371
                    6          7          8
     6  H    0.000000
     7  H    1.791559   0.000000
     8  H    1.791559   1.791559   0.000000
 Stoichiometry    C2H6
 Framework group  D3[C3(C.C),X(H6)]
 Deg. of freedom     4
 Full point group                 D3      NOp   6
 RotChk:  IX=0 Diff= 1.04D-15
 Largest Abelian subgroup         C2      NOp   2
 Largest concise Abelian subgroup C2      NOp   2
                         Standard orientation:                         
 ---------------------------------------------------------------------
 Center     Atomic      Atomic             Coordinates (Angstroms)
 Number     Number       Type             X           Y           Z
 ---------------------------------------------------------------------
      1          6           0       -0.000000    0.000000    0.920000
      2          1           0       -0.514560    0.897286    1.248839
      3          1           0        1.034353   -0.003022    1.248839
      4          1           0       -0.519793   -0.894265    1.248839
      5          6           0        0.000000   -0.000000   -0.920000
      6          1           0        0.514560    0.897286   -1.248839
      7          1           0        0.519793   -0.894265   -1.248839
      8          1           0       -1.034353   -0.003022   -1.248839
 ---------------------------------------------------------------------
 Rotational constants (GHZ):          78.1159752          15.3241652          15.3241652
 Leave Link  202 at Mon Oct  6 14:21:02 2025, MaxMem=   104857600 cpu:               0.0 elap:               0.0
 (Enter /home/zhouoh/g16/l301.exe)
 Standard basis: STO-3G (5D, 7F)
 Ernie: Thresh=  0.10000D-02 Tol=  0.10000D-05 Strict=F.
 There are     8 symmetry adapted cartesian basis functions of A   symmetry.
 There are     8 symmetry adapted cartesian basis functions of B   symmetry.
 There are     8 symmetry adapted basis functions of A   symmetry.
 There are     8 symmetry adapted basis functions of B   symmetry.
    16 basis functions,    48 primitive gaussians,    16 cartesian basis functions
     9 alpha electrons        9 beta electrons
       nuclear repulsion energy        39.2698340273 Hartrees.
 IExCor=    0 DFT=F Ex=HF Corr=None ExCW=0 ScaHFX=  1.000000
 ScaDFX=  1.000000  1.000000  1.000000  1.000000 ScalE2=  1.000000  1.000000
 IRadAn=      5 IRanWt=     -1 IRanGd=            0 ICorTp=0 IEmpDi=  4
 NAtoms=    8 NActive=    8 NUniq=    2 SFac= 4.00D+00 NAtFMM=   60 NAOKFM=F Big=F
 Integral buffers will be    131072 words long.
 Raffenetti 1 integral format.
 Two-electron integral symmetry is turned on.
 Leave Link  301 at Mon Oct  6 14:21:02 2025, MaxMem=   104857600 cpu:               0.0 elap:               0.0
 (Enter /home/zhouoh/g16/l402.exe)
 External calculation of energy and first derivatives.
 Running external command "python ../GauUMA_client.py R"
         input file       "/home/zhouoh/scratch/Gau-2811633.EIn"
         output file      "/home/zhouoh/scratch/Gau-2811633.EOu"
         message file     "/home/zhouoh/scratch/Gau-2811633.EMs"
         fchk file        "/home/zhouoh/scratch/Gau-2811633.EFC"
         mat. el file     "/home/zhouoh/scratch/Gau-2811633.EUF"
Sent job to server.
Received result from server:
SCF Done:  E(UMA) =  -79.76256423595322     A.U.
 Recovered energy= -79.7625642359     dipole=      0.000000000000      0.000000000000      0.000000000000
 Energy=    -79.7625642     NIter=   0.
 Dipole moment=       0.000000       0.000000       0.000000
 Leave Link  402 at Mon Oct  6 14:21:02 2025, MaxMem=   104857600 cpu:               0.0 elap:               0.1
 (Enter /home/zhouoh/g16/l716.exe)
 Dipole        = 0.00000000D+00 0.00000000D+00 0.00000000D+00
 ***** Axes restored to original set *****
 -------------------------------------------------------------------
 Center     Atomic                   Forces (Hartrees/Bohr)
 Number     Number              X              Y              Z
 -------------------------------------------------------------------
      1        6           0.025362925    0.035867601    0.062125141
      2        1           0.000001886   -0.000000008   -0.000000514
      3        1           0.000009074    0.000002230    0.000000732
      4        1          -0.000006297    0.000004415    0.000011233
      5        6          -0.025362889   -0.035867636   -0.062125144
      6        1           0.000000633   -0.000001775    0.000000513
      7        1          -0.000006243    0.000004469   -0.000011243
      8        1           0.000000907   -0.000009301   -0.000000726
 -------------------------------------------------------------------
 Cartesian Forces:  Max     0.062125144 RMS     0.021964549
 Leave Link  716 at Mon Oct  6 14:21:02 2025, MaxMem=   104857600 cpu:               0.0 elap:               0.0
 (Enter /home/zhouoh/g16/l103.exe)

 GradGradGradGradGradGradGradGradGradGradGradGradGradGradGradGradGradGrad
 Berny optimization.
 Using GEDIIS/GDIIS optimizer.
 FormGI is forming the generalized inverse of G from B-inverse, IUseBI=4.
 Internal  Forces:  Max     0.076101461 RMS     0.014381826
 Search for a local minimum.
 Step number   3 out of a maximum of   38 on scan point     4 out of    21
 All quantities printed in internal units (Hartrees-Bohrs-Radians)
 RMS Force = .62854D-05 SwitMx=.10000D-02 MixMth= 2
 Mixed Optimization -- En-DIIS/RFO-DIIS
 Swapping is turned off.
 Update second derivatives using D2CorX and points    1    2    3
 DE= -9.41D-07 DEPred=-9.31D-07 R= 1.01D+00
 Trust test= 1.01D+00 RLast= 3.82D-03 DXMaxT set to 3.56D-01
 ITU=  0  1  0
     Eigenvalues ---    0.00236   0.06059   0.06059   0.06059   0.06059
     Eigenvalues ---    0.12344   0.16000   0.16000   0.16000   0.16000
     Eigenvalues ---    0.16000   0.37111   0.37230   0.37230   0.37230
     Eigenvalues ---    0.37230   0.372301000.000001000.000001000.00000
     Eigenvalues --- 1000.000001000.000001000.000001000.000001000.00000
     Eigenvalues --- 1000.000001000.000001000.00000
 En-DIIS/RFO-DIIS/Sim-DIIS IScMMF=       -3 using points:     3    2
 RFO step:  Lambda=-5.79650203D-06.
 NNeg= 0 NGDIIS= 2 SimSw=  2.50D-03 Rises=F DC= -9.41D-07 SmlDif=  1.00D-05
 NRisDI= 0 DoIntr=F SqrtH=F CThrHd= 10.0 CDAdj=  3.0
 RMS Error=  0.1484632679D-03 NUsed= 2 OKEnD=F EnDIS=F
 InvSVX:  RCond= 3.64D-06 Info=           0 Equed=N FErr=  1.14D-15 BErr=  1.25D-18
 DidBck=F Rises=F RFO-DIIS coefs:    1.10146   -0.10146
 Iteration  1 RMS(Cart)=  0.00013115 RMS(Int)=  0.00000005
 Iteration  2 RMS(Cart)=  0.00000001 RMS(Int)=  0.00000005
 Iteration  1 RMS(Cart)=  0.00000000 RMS(Int)=  0.00000000
 ITry= 1 IFail=0 DXMaxC= 3.08D-04 DCOld= 1.00D+10 DXMaxT= 3.56D-01 DXLimC= 3.00D+00 Rises=F
 ClnCor:  largest displacement from symmetrization is 2.19D-04 for atom     4.
 Variable       Old X    -DE/DX   Delta X   Delta X   Delta X     New X
                                 (Linear)    (Quad)   (Total)
    R1        2.05105   0.00000   0.00000  -0.00001   0.00001   2.05106
    R2        2.05105   0.00000   0.00000   0.00000   0.00001   2.05106
    R3        2.05105   0.00001   0.00000   0.00001   0.00001   2.05106
    R4        3.47710  -0.07610   0.00000   0.00000   0.00000   3.47710
    R5        2.05105   0.00000   0.00000  -0.00001   0.00001   2.05106
    R6        2.05105   0.00001   0.00000   0.00001   0.00001   2.05106
    R7        2.05105   0.00000   0.00000   0.00000   0.00001   2.05106
    A1        1.94154   0.00000   0.00010  -0.00009   0.00000   1.94154
    A2        1.94154   0.00001   0.00010  -0.00005   0.00000   1.94154
    A3        1.87861   0.00000  -0.00011   0.00011  -0.00000   1.87861
    A4        1.94154   0.00001   0.00010  -0.00002   0.00000   1.94154
    A5        1.87861  -0.00001  -0.00011   0.00006  -0.00000   1.87861
    A6        1.87861  -0.00002  -0.00011   0.00000  -0.00000   1.87861
    A7        1.87861   0.00000  -0.00011   0.00011  -0.00000   1.87861
    A8        1.87861  -0.00002  -0.00011   0.00000  -0.00000   1.87861
    A9        1.87861  -0.00001  -0.00011   0.00006  -0.00000   1.87861
   A10        1.94154   0.00001   0.00010  -0.00005   0.00000   1.94154
   A11        1.94154   0.00000   0.00010  -0.00009   0.00000   1.94154
   A12        1.94154   0.00001   0.00010  -0.00002   0.00000   1.94154
    D1        1.04136  -0.00000   0.00004   0.00020   0.00023   1.04159
    D2        3.13575  -0.00000   0.00004   0.00020   0.00023   3.13598
    D3       -1.05304   0.00000   0.00004   0.00022   0.00023  -1.05281
    D4       -1.05304   0.00000   0.00004   0.00022   0.00023  -1.05281
    D5        1.04136   0.00000   0.00004   0.00022   0.00023   1.04159
    D6        3.13575   0.00000   0.00004   0.00023   0.00023   3.13598
    D7        3.13575  -0.00000   0.00004   0.00020   0.00023   3.13598
    D8       -1.05304  -0.00000   0.00004   0.00020   0.00023  -1.05281
    D9        1.04136   0.00000   0.00004   0.00022   0.00023   1.04159
         Item               Value     Threshold  Converged?
 Maximum Force            0.000016     0.000450     YES
 RMS     Force            0.000006     0.000300     YES
 Maximum Displacement     0.000199     0.001800     YES
 RMS     Displacement     0.000106     0.001200     YES
 Predicted change in Energy=-9.884062D-10
 Optimization completed.
    -- Stationary point found.
                           ----------------------------
                           !   Optimized Parameters   !
                           ! (Angstroms and Degrees)  !
 --------------------------                            --------------------------
 ! Name  Definition              Value          Derivative Info.                !
 --------------------------------------------------------------------------------
 ! R1    R(1,2)                  1.0854         -DE/DX =    0.0                 !
 ! R2    R(1,3)                  1.0854         -DE/DX =    0.0                 !
 ! R3    R(1,4)                  1.0854         -DE/DX =    0.0                 !
 ! R4    R(1,5)                  1.84           -DE/DX =   -0.0761              !
 ! R5    R(5,6)                  1.0854         -DE/DX =    0.0                 !
 ! R6    R(5,7)                  1.0854         -DE/DX =    0.0                 !
 ! R7    R(5,8)                  1.0854         -DE/DX =    0.0                 !
 ! A1    A(2,1,3)              111.2421         -DE/DX =    0.0                 !
 ! A2    A(2,1,4)              111.2421         -DE/DX =    0.0                 !
 ! A3    A(2,1,5)              107.6363         -DE/DX =    0.0                 !
 ! A4    A(3,1,4)              111.2421         -DE/DX =    0.0                 !
 ! A5    A(3,1,5)              107.6363         -DE/DX =    0.0                 !
 ! A6    A(4,1,5)              107.6363         -DE/DX =    0.0                 !
 ! A7    A(1,5,6)              107.6363         -DE/DX =    0.0                 !
 ! A8    A(1,5,7)              107.6363         -DE/DX =    0.0                 !
 ! A9    A(1,5,8)              107.6363         -DE/DX =    0.0                 !
 ! A10   A(6,5,7)              111.2421         -DE/DX =    0.0                 !
 ! A11   A(6,5,8)              111.2421         -DE/DX =    0.0                 !
 ! A12   A(7,5,8)              111.2421         -DE/DX =    0.0                 !
 ! D1    D(2,1,5,6)             59.6652         -DE/DX =    0.0                 !
 ! D2    D(2,1,5,7)            179.6652         -DE/DX =    0.0                 !
 ! D3    D(2,1,5,8)            -60.3348         -DE/DX =    0.0                 !
 ! D4    D(3,1,5,6)            -60.3348         -DE/DX =    0.0                 !
 ! D5    D(3,1,5,7)             59.6652         -DE/DX =    0.0                 !
 ! D6    D(3,1,5,8)            179.6652         -DE/DX =    0.0                 !
 ! D7    D(4,1,5,6)            179.6652         -DE/DX =    0.0                 !
 ! D8    D(4,1,5,7)            -60.3348         -DE/DX =    0.0                 !
 ! D9    D(4,1,5,8)             59.6652         -DE/DX =    0.0                 !
 --------------------------------------------------------------------------------
 Iteration  1 RMS(Cart)=  0.05050506 RMS(Int)=  0.00000001
 Iteration  2 RMS(Cart)=  0.00000001 RMS(Int)=  0.00000000
 Iteration  1 RMS(Cart)=  0.00000001 RMS(Int)=  0.00000000
 GradGradGradGradGradGradGradGradGradGradGradGradGradGradGradGradGradGrad

 Leave Link  103 at Mon Oct  6 14:21:02 2025, MaxMem=   104857600 cpu:               0.0 elap:               0.0
 (Enter /home/zhouoh/g16/l202.exe)
                          Input orientation:                          
 ---------------------------------------------------------------------
 Center     Atomic      Atomic             Coordinates (Angstroms)
 Number     Number       Type             X           Y           Z
 ---------------------------------------------------------------------
      1          6           0       -1.982877   -0.176698   -0.163299
      2          1           0       -1.603351   -1.193137   -0.134151
      3          1           0       -1.606431    0.358950   -1.028984
      4          1           0       -3.067693   -0.160951   -0.132253
      5          6           0       -1.336199    0.737819    1.420704
      6          1           0       -0.251388    0.717049    1.392561
      7          1           0       -1.710985    1.755928    1.388657
      8          1           0       -1.717378    0.205524    2.286385
 ---------------------------------------------------------------------
                    Distance matrix (angstroms):
                    1          2          3          4          5
     1  C    0.000000
     2  H    1.085375   0.000000
     3  H    1.085375   1.791566   0.000000
     4  H    1.085375   1.791566   1.791566   0.000000
     5  C    1.940000   2.493499   2.493499   2.493499   0.000000
     6  H    2.493499   2.794185   2.797902   3.320771   1.085375
     7  H    2.493499   3.320771   2.794185   2.797902   1.085375
     8  H    2.493499   2.797902   3.320771   2.794185   1.085375
                    6          7          8
     6  H    0.000000
     7  H    1.791566   0.000000
     8  H    1.791566   1.791566   0.000000
 Stoichiometry    C2H6
 Framework group  D3[C3(C.C),X(H6)]
 Deg. of freedom     4
 Full point group                 D3      NOp   6
 RotChk:  IX=0 Diff= 2.74D-14
 Largest Abelian subgroup         C2      NOp   2
 Largest concise Abelian subgroup C2      NOp   2
                         Standard orientation:                         
 ---------------------------------------------------------------------
 Center     Atomic      Atomic             Coordinates (Angstroms)
 Number     Number       Type             X           Y           Z
 ---------------------------------------------------------------------
      1          6           0       -0.000000   -0.000000    0.970000
      2          1           0       -0.514667    0.897230    1.298840
      3          1           0        1.034357   -0.002901    1.298840
      4          1           0       -0.519691   -0.894329    1.298840
      5          6           0        0.000000   -0.000000   -0.970000
      6          1           0        0.514667    0.897230   -1.298840
      7          1           0        0.519691   -0.894329   -1.298840
      8          1           0       -1.034357   -0.002901   -1.298840
 ---------------------------------------------------------------------
 Rotational constants (GHZ):          78.1153357          14.0314690          14.0314690
 Leave Link  202 at Mon Oct  6 14:21:02 2025, MaxMem=   104857600 cpu:               0.0 elap:               0.0
 (Enter /home/zhouoh/g16/l301.exe)
 Standard basis: STO-3G (5D, 7F)
 Ernie: Thresh=  0.10000D-02 Tol=  0.10000D-05 Strict=F.
 There are     8 symmetry adapted cartesian basis functions of A   symmetry.
 There are     8 symmetry adapted cartesian basis functions of B   symmetry.
 There are     8 symmetry adapted basis functions of A   symmetry.
 There are     8 symmetry adapted basis functions of B   symmetry.
    16 basis functions,    48 primitive gaussians,    16 cartesian basis functions
     9 alpha electrons        9 beta electrons
       nuclear repulsion energy        38.3975340149 Hartrees.
 IExCor=    0 DFT=F Ex=HF Corr=None ExCW=0 ScaHFX=  1.000000
 ScaDFX=  1.000000  1.000000  1.000000  1.000000 ScalE2=  1.000000  1.000000
 IRadAn=      5 IRanWt=     -1 IRanGd=            0 ICorTp=0 IEmpDi=  4
 NAtoms=    8 NActive=    8 NUniq=    2 SFac= 4.00D+00 NAtFMM=   60 NAOKFM=F Big=F
 Integral buffers will be    131072 words long.
 Raffenetti 1 integral format.
 Two-electron integral symmetry is turned on.
 Leave Link  301 at Mon Oct  6 14:21:02 2025, MaxMem=   104857600 cpu:               0.0 elap:               0.0
 (Enter /home/zhouoh/g16/l402.exe)
 External calculation of energy and first derivatives.
 Running external command "python ../GauUMA_client.py R"
         input file       "/home/zhouoh/scratch/Gau-2811633.EIn"
         output file      "/home/zhouoh/scratch/Gau-2811633.EOu"
         message file     "/home/zhouoh/scratch/Gau-2811633.EMs"
         fchk file        "/home/zhouoh/scratch/Gau-2811633.EFC"
         mat. el file     "/home/zhouoh/scratch/Gau-2811633.EUF"
Sent job to server.
Received result from server:
SCF Done:  E(UMA) =  -79.74747640156808     A.U.
 Recovered energy= -79.7474764016     dipole=      0.000000000000      0.000000000000      0.000000000000
 Energy=    -79.7474764     NIter=   0.
 Dipole moment=       0.000000       0.000000       0.000000
 Leave Link  402 at Mon Oct  6 14:21:02 2025, MaxMem=   104857600 cpu:               0.0 elap:               0.1
 (Enter /home/zhouoh/g16/l716.exe)
 Dipole        = 0.00000000D+00 0.00000000D+00 0.00000000D+00
 ***** Axes restored to original set *****
 -------------------------------------------------------------------
 Center     Atomic                   Forces (Hartrees/Bohr)
 Number     Number              X              Y              Z
 -------------------------------------------------------------------
      1        6           0.025472850    0.036023097    0.062394282
      2        1           0.000806702    0.000753485    0.001738835
      3        1           0.000808110    0.001139719    0.001526874
      4        1           0.000438485    0.001010519    0.001763891
      5        6          -0.025472847   -0.036023096   -0.062394274
      6        1          -0.000441531   -0.001012140   -0.001738588
      7        1          -0.000806158   -0.000750092   -0.001764146
      8        1          -0.000805611   -0.001141493   -0.001526874
 -------------------------------------------------------------------
 Cartesian Forces:  Max     0.062394282 RMS     0.022083979
 Leave Link  716 at Mon Oct  6 14:21:02 2025, MaxMem=   104857600 cpu:               0.0 elap:               0.0
 (Enter /home/zhouoh/g16/l103.exe)

 GradGradGradGradGradGradGradGradGradGradGradGradGradGradGradGradGradGrad
 Berny optimization.
 FormGI is forming the generalized inverse of G from B-inverse, IUseBI=4.
 Internal  Forces:  Max     0.082577030 RMS     0.015670625
 Search for a local minimum.
 Step number   1 out of a maximum of   38 on scan point     5 out of    21
 All quantities printed in internal units (Hartrees-Bohrs-Radians)
 RMS Force = .14524D-02 SwitMx=.10000D-02 MixMth= 1
 Mixed Optimization -- RFO/linear search
 Second derivative matrix not updated -- first step.
 ITU=  0
     Eigenvalues ---    0.00236   0.06059   0.06059   0.06059   0.06059
     Eigenvalues ---    0.12344   0.16000   0.16000   0.16000   0.16000
     Eigenvalues ---    0.16000   0.37111   0.37230   0.37230   0.37230
     Eigenvalues ---    0.37230   0.372301000.000001000.000001000.00000
     Eigenvalues --- 1000.000001000.000001000.000001000.000001000.00000
     Eigenvalues --- 1000.000001000.000001000.00000
 RFO step:  Lambda=-4.58735821D-04 EMin= 2.35947084D-03
 Linear search not attempted -- first point.
 Iteration  1 RMS(Cart)=  0.01729053 RMS(Int)=  0.00023197
 Iteration  2 RMS(Cart)=  0.00022769 RMS(Int)=  0.00013241
 Iteration  3 RMS(Cart)=  0.00000006 RMS(Int)=  0.00013241
 Iteration  1 RMS(Cart)=  0.00000000 RMS(Int)=  0.00000000
 ITry= 1 IFail=0 DXMaxC= 3.36D-02 DCOld= 1.00D+10 DXMaxT= 3.56D-01 DXLimC= 3.00D+00 Rises=F
 ClnCor:  largest displacement from symmetrization is 4.52D-04 for atom     4.
 Variable       Old X    -DE/DX   Delta X   Delta X   Delta X     New X
                                 (Linear)    (Quad)   (Total)
    R1        2.05106  -0.00038   0.00000  -0.00203  -0.00199   2.04907
    R2        2.05106  -0.00038   0.00000  -0.00202  -0.00199   2.04907
    R3        2.05106  -0.00037   0.00000  -0.00202  -0.00199   2.04907
    R4        3.66607  -0.08258   0.00000   0.00000   0.00000   3.66607
    R5        2.05106  -0.00038   0.00000  -0.00203  -0.00199   2.04907
    R6        2.05106  -0.00037   0.00000  -0.00202  -0.00199   2.04907
    R7        2.05106  -0.00038   0.00000  -0.00202  -0.00199   2.04907
    A1        1.94154   0.00207   0.00000   0.01682   0.01654   1.95808
    A2        1.94154   0.00208   0.00000   0.01686   0.01654   1.95808
    A3        1.87861  -0.00222   0.00000  -0.01802  -0.01822   1.86039
    A4        1.94154   0.00209   0.00000   0.01688   0.01654   1.95808
    A5        1.87861  -0.00224   0.00000  -0.01813  -0.01822   1.86039
    A6        1.87861  -0.00226   0.00000  -0.01825  -0.01822   1.86039
    A7        1.87861  -0.00222   0.00000  -0.01802  -0.01822   1.86039
    A8        1.87861  -0.00226   0.00000  -0.01825  -0.01822   1.86039
    A9        1.87861  -0.00224   0.00000  -0.01813  -0.01822   1.86039
   A10        1.94154   0.00208   0.00000   0.01685   0.01654   1.95808
   A11        1.94154   0.00207   0.00000   0.01682   0.01654   1.95808
   A12        1.94154   0.00209   0.00000   0.01688   0.01654   1.95808
    D1        1.04159  -0.00000   0.00000   0.00282   0.00280   1.04439
    D2        3.13598  -0.00000   0.00000   0.00282   0.00280   3.13878
    D3       -1.05281  -0.00000   0.00000   0.00279   0.00280  -1.05001
    D4       -1.05281  -0.00000   0.00000   0.00279   0.00280  -1.05001
    D5        1.04159  -0.00000   0.00000   0.00280   0.00280   1.04439
    D6        3.13598  -0.00000   0.00000   0.00277   0.00280   3.13878
    D7        3.13598  -0.00000   0.00000   0.00282   0.00280   3.13878
    D8       -1.05281  -0.00000   0.00000   0.00282   0.00280  -1.05001
    D9        1.04159  -0.00000   0.00000   0.00280   0.00280   1.04439
         Item               Value     Threshold  Converged?
 Maximum Force            0.002258     0.000450     NO 
 RMS     Force            0.001452     0.000300     NO 
 Maximum Displacement     0.033607     0.001800     NO 
 RMS     Displacement     0.017357     0.001200     NO 
 Predicted change in Energy=-2.301434D-04
 GradGradGradGradGradGradGradGradGradGradGradGradGradGradGradGradGradGrad

 Leave Link  103 at Mon Oct  6 14:21:02 2025, MaxMem=   104857600 cpu:               0.0 elap:               0.0
 (Enter /home/zhouoh/g16/l202.exe)
                          Input orientation:                          
 ---------------------------------------------------------------------
 Center     Atomic      Atomic             Coordinates (Angstroms)
 Number     Number       Type             X           Y           Z
 ---------------------------------------------------------------------
      1          6           0       -1.982877   -0.176698   -0.163299
      2          1           0       -1.595864   -1.188513   -0.116368
      3          1           0       -1.596586    0.370372   -1.016087
      4          1           0       -3.065829   -0.149850   -0.115913
      5          6           0       -1.336199    0.737819    1.420704
      6          1           0       -0.253249    0.708440    1.374780
      7          1           0       -1.720824    1.750475    1.372312
      8          1           0       -1.724874    0.192438    2.273490
 ---------------------------------------------------------------------
                    Distance matrix (angstroms):
                    1          2          3          4          5
     1  C    0.000000
     2  H    1.084321   0.000000
     3  H    1.084321   1.799894   0.000000
     4  H    1.084321   1.799894   1.799894   0.000000
     5  C    1.940000   2.478058   2.478058   2.478058   0.000000
     6  H    2.478058   2.761262   2.763167   3.296883   1.084321
     7  H    2.478058   3.296883   2.761262   2.763167   1.084321
     8  H    2.478058   2.763167   3.296883   2.761262   1.084321
                    6          7          8
     6  H    0.000000
     7  H    1.799894   0.000000
     8  H    1.799894   1.799894   0.000000
 Stoichiometry    C2H6
 Framework group  D3[C3(C.C),X(H6)]
 Deg. of freedom     4
 Full point group                 D3      NOp   6
 RotChk:  IX=0 Diff= 5.35D-16
 Largest Abelian subgroup         C2      NOp   2
 Largest concise Abelian subgroup C2      NOp   2
                         Standard orientation:                         
 ---------------------------------------------------------------------
 Center     Atomic      Atomic             Coordinates (Angstroms)
 Number     Number       Type             X           Y           Z
 ---------------------------------------------------------------------
      1          6           0       -0.000000   -0.000000    0.970000
      2          1           0       -0.518319    0.900677    1.279644
      3          1           0        1.039168   -0.001461    1.279644
      4          1           0       -0.520850   -0.899215    1.279644
      5          6           0        0.000000    0.000000   -0.970000
      6          1           0        0.518319    0.900677   -1.279644
      7          1           0        0.520850   -0.899215   -1.279644
      8          1           0       -1.039168   -0.001461   -1.279644
 ---------------------------------------------------------------------
 Rotational constants (GHZ):          77.3941795          14.1371156          14.1371156
 Leave Link  202 at Mon Oct  6 14:21:02 2025, MaxMem=   104857600 cpu:               0.0 elap:               0.0
 (Enter /home/zhouoh/g16/l301.exe)
 Standard basis: STO-3G (5D, 7F)
 Ernie: Thresh=  0.10000D-02 Tol=  0.10000D-05 Strict=F.
 There are     8 symmetry adapted cartesian basis functions of A   symmetry.
 There are     8 symmetry adapted cartesian basis functions of B   symmetry.
 There are     8 symmetry adapted basis functions of A   symmetry.
 There are     8 symmetry adapted basis functions of B   symmetry.
    16 basis functions,    48 primitive gaussians,    16 cartesian basis functions
     9 alpha electrons        9 beta electrons
       nuclear repulsion energy        38.4713742100 Hartrees.
 IExCor=    0 DFT=F Ex=HF Corr=None ExCW=0 ScaHFX=  1.000000
 ScaDFX=  1.000000  1.000000  1.000000  1.000000 ScalE2=  1.000000  1.000000
 IRadAn=      5 IRanWt=     -1 IRanGd=            0 ICorTp=0 IEmpDi=  4
 NAtoms=    8 NActive=    8 NUniq=    2 SFac= 4.00D+00 NAtFMM=   60 NAOKFM=F Big=F
 Integral buffers will be    131072 words long.
 Raffenetti 1 integral format.
 Two-electron integral symmetry is turned on.
 Leave Link  301 at Mon Oct  6 14:21:02 2025, MaxMem=   104857600 cpu:               0.0 elap:               0.0
 (Enter /home/zhouoh/g16/l402.exe)
 External calculation of energy and first derivatives.
 Running external command "python ../GauUMA_client.py R"
         input file       "/home/zhouoh/scratch/Gau-2811633.EIn"
         output file      "/home/zhouoh/scratch/Gau-2811633.EOu"
         message file     "/home/zhouoh/scratch/Gau-2811633.EMs"
         fchk file        "/home/zhouoh/scratch/Gau-2811633.EFC"
         mat. el file     "/home/zhouoh/scratch/Gau-2811633.EUF"
Sent job to server.
Received result from server:
SCF Done:  E(UMA) =  -79.74771825847544     A.U.
 Recovered energy= -79.7477182585     dipole=      0.000000000000      0.000000000000      0.000000000000
 Energy=    -79.7477183     NIter=   0.
 Dipole moment=       0.000000       0.000000       0.000000
 Leave Link  402 at Mon Oct  6 14:21:03 2025, MaxMem=   104857600 cpu:               0.0 elap:               0.1
 (Enter /home/zhouoh/g16/l716.exe)
 Dipole        = 0.00000000D+00 0.00000000D+00 0.00000000D+00
 ***** Axes restored to original set *****
 -------------------------------------------------------------------
 Center     Atomic                   Forces (Hartrees/Bohr)
 Number     Number              X              Y              Z
 -------------------------------------------------------------------
      1        6           0.026643979    0.037679364    0.065263129
      2        1           0.000029100    0.000082178    0.000079406
      3        1           0.000028123    0.000039426    0.000115682
      4        1           0.000065225    0.000051477    0.000104764
      5        6          -0.026644053   -0.037679302   -0.065263116
      6        1          -0.000067792   -0.000054771   -0.000079437
      7        1          -0.000026823   -0.000078681   -0.000104743
      8        1          -0.000027758   -0.000039688   -0.000115684
 -------------------------------------------------------------------
 Cartesian Forces:  Max     0.065263129 RMS     0.023074081
 Leave Link  716 at Mon Oct  6 14:21:03 2025, MaxMem=   104857600 cpu:               0.0 elap:               0.0
 (Enter /home/zhouoh/g16/l103.exe)

 GradGradGradGradGradGradGradGradGradGradGradGradGradGradGradGradGradGrad
 Berny optimization.
 Using GEDIIS/GDIIS optimizer.
 FormGI is forming the generalized inverse of G from B-inverse, IUseBI=4.
 Internal  Forces:  Max     0.080297905 RMS     0.015175105
 Search for a local minimum.
 Step number   2 out of a maximum of   38 on scan point     5 out of    21
 All quantities printed in internal units (Hartrees-Bohrs-Radians)
 RMS Force = .84576D-04 SwitMx=.10000D-02 MixMth= 2
 Mixed Optimization -- En-DIIS/RFO-DIIS
 Update second derivatives using D2CorX and points    1    2
 DE= -2.42D-04 DEPred=-2.30D-04 R= 1.05D+00
 TightC=F SS=  1.41D+00  RLast= 6.10D-02 DXNew= 5.9824D-01 1.8315D-01
 Trust test= 1.05D+00 RLast= 6.10D-02 DXMaxT set to 3.56D-01
 ITU=  1  0
 Use linear search instead of GDIIS.
     Eigenvalues ---    0.00236   0.06250   0.06250   0.06250   0.06250
     Eigenvalues ---    0.11767   0.16000   0.16000   0.16000   0.16000
     Eigenvalues ---    0.16000   0.37095   0.37230   0.37230   0.37230
     Eigenvalues ---    0.37230   0.372301000.000001000.000001000.00000
     Eigenvalues --- 1000.000001000.000001000.000001000.000001000.00000
     Eigenvalues --- 1000.000001000.000001000.00000
 RFO step:  Lambda=-9.41307107D-08 EMin= 2.36069025D-03
 Quartic linear search produced a step of  0.05798.
 Iteration  1 RMS(Cart)=  0.00121062 RMS(Int)=  0.00000836
 Iteration  2 RMS(Cart)=  0.00000089 RMS(Int)=  0.00000832
 Iteration  1 RMS(Cart)=  0.00000010 RMS(Int)=  0.00000000
 ITry= 1 IFail=0 DXMaxC= 2.78D-03 DCOld= 1.00D+10 DXMaxT= 3.56D-01 DXLimC= 3.00D+00 Rises=F
 ClnCor:  largest displacement from symmetrization is 4.43D-04 for atom     7.
 Variable       Old X    -DE/DX   Delta X   Delta X   Delta X     New X
                                 (Linear)    (Quad)   (Total)
    R1        2.04907  -0.00006  -0.00012  -0.00012  -0.00021   2.04886
    R2        2.04907  -0.00006  -0.00012  -0.00012  -0.00021   2.04886
    R3        2.04907  -0.00006  -0.00012  -0.00011  -0.00021   2.04886
    R4        3.66607  -0.08030   0.00000   0.00000  -0.00000   3.66607
    R5        2.04907  -0.00006  -0.00012  -0.00012  -0.00021   2.04886
    R6        2.04907  -0.00006  -0.00012  -0.00011  -0.00021   2.04886
    R7        2.04907  -0.00006  -0.00012  -0.00012  -0.00021   2.04886
    A1        1.95808   0.00010   0.00096  -0.00005   0.00084   1.95893
    A2        1.95808   0.00011   0.00096  -0.00001   0.00084   1.95893
    A3        1.86039  -0.00011  -0.00106   0.00012  -0.00095   1.85944
    A4        1.95808   0.00012   0.00096   0.00003   0.00084   1.95893
    A5        1.86039  -0.00013  -0.00106   0.00001  -0.00095   1.85944
    A6        1.86039  -0.00014  -0.00106  -0.00010  -0.00095   1.85944
    A7        1.86039  -0.00011  -0.00106   0.00012  -0.00095   1.85944
    A8        1.86039  -0.00014  -0.00106  -0.00010  -0.00095   1.85944
    A9        1.86039  -0.00013  -0.00106   0.00001  -0.00095   1.85944
   A10        1.95808   0.00011   0.00096  -0.00001   0.00084   1.95893
   A11        1.95808   0.00010   0.00096  -0.00005   0.00084   1.95893
   A12        1.95808   0.00012   0.00096   0.00003   0.00084   1.95893
    D1        1.04439  -0.00000   0.00016  -0.00161  -0.00147   1.04292
    D2        3.13878  -0.00000   0.00016  -0.00161  -0.00147   3.13731
    D3       -1.05001  -0.00000   0.00016  -0.00162  -0.00147  -1.05148
    D4       -1.05001  -0.00000   0.00016  -0.00162  -0.00147  -1.05148
    D5        1.04439  -0.00000   0.00016  -0.00162  -0.00147   1.04292
    D6        3.13878  -0.00000   0.00016  -0.00164  -0.00147   3.13731
    D7        3.13878  -0.00000   0.00016  -0.00161  -0.00147   3.13731
    D8       -1.05001  -0.00000   0.00016  -0.00161  -0.00147  -1.05148
    D9        1.04439  -0.00000   0.00016  -0.00162  -0.00147   1.04292
         Item               Value     Threshold  Converged?
 Maximum Force            0.000143     0.000450     YES
 RMS     Force            0.000085     0.000300     YES
 Maximum Displacement     0.002398     0.001800     NO 
 RMS     Displacement     0.001126     0.001200     YES
 Predicted change in Energy=-8.105834D-07
 GradGradGradGradGradGradGradGradGradGradGradGradGradGradGradGradGradGrad

 Leave Link  103 at Mon Oct  6 14:21:03 2025, MaxMem=   104857600 cpu:               0.0 elap:               0.0
 (Enter /home/zhouoh/g16/l202.exe)
                          Input orientation:                          
 ---------------------------------------------------------------------
 Center     Atomic      Atomic             Coordinates (Angstroms)
 Number     Number       Type             X           Y           Z
 ---------------------------------------------------------------------
      1          6           0       -1.982877   -0.176698   -0.163299
      2          1           0       -1.594812   -1.187970   -0.115861
      3          1           0       -1.596779    0.371419   -1.015363
      4          1           0       -3.065667   -0.149997   -0.114644
      5          6           0       -1.336199    0.737819    1.420704
      6          1           0       -0.253413    0.707268    1.374274
      7          1           0       -1.720630    1.750371    1.371043
      8          1           0       -1.725926    0.192272    2.272765
 ---------------------------------------------------------------------
                    Distance matrix (angstroms):
                    1          2          3          4          5
     1  C    0.000000
     2  H    1.084212   0.000000
     3  H    1.084212   1.800222   0.000000
     4  H    1.084212   1.800222   1.800222   0.000000
     5  C    1.940000   2.477211   2.477211   2.477211   0.000000
     6  H    2.477211   2.758945   2.761846   3.295536   1.084212
     7  H    2.477211   3.295536   2.758945   2.761846   1.084212
     8  H    2.477211   2.761846   3.295536   2.758945   1.084212
                    6          7          8
     6  H    0.000000
     7  H    1.800222   0.000000
     8  H    1.800222   1.800222   0.000000
 Stoichiometry    C2H6
 Framework group  D3[C3(C.C),X(H6)]
 Deg. of freedom     4
 Full point group                 D3      NOp   6
 RotChk:  IX=0 Diff= 6.70D-16
 Largest Abelian subgroup         C2      NOp   2
 Largest concise Abelian subgroup C2      NOp   2
                         Standard orientation:                         
 ---------------------------------------------------------------------
 Center     Atomic      Atomic             Coordinates (Angstroms)
 Number     Number       Type             X           Y           Z
 ---------------------------------------------------------------------
      1          6           0        0.000000   -0.000000    0.970000
      2          1           0       -0.517753    0.901221    1.278623
      3          1           0        1.039357   -0.002224    1.278623
      4          1           0       -0.521604   -0.898997    1.278623
      5          6           0       -0.000000   -0.000000   -0.970000
      6          1           0        0.517753    0.901221   -1.278623
      7          1           0        0.521604   -0.898997   -1.278623
      8          1           0       -1.039357   -0.002224   -1.278623
 ---------------------------------------------------------------------
 Rotational constants (GHZ):          77.3659243          14.1428923          14.1428923
 Leave Link  202 at Mon Oct  6 14:21:03 2025, MaxMem=   104857600 cpu:               0.0 elap:               0.0
 (Enter /home/zhouoh/g16/l301.exe)
 Standard basis: STO-3G (5D, 7F)
 Ernie: Thresh=  0.10000D-02 Tol=  0.10000D-05 Strict=F.
 There are     8 symmetry adapted cartesian basis functions of A   symmetry.
 There are     8 symmetry adapted cartesian basis functions of B   symmetry.
 There are     8 symmetry adapted basis functions of A   symmetry.
 There are     8 symmetry adapted basis functions of B   symmetry.
    16 basis functions,    48 primitive gaussians,    16 cartesian basis functions
     9 alpha electrons        9 beta electrons
       nuclear repulsion energy        38.4764040379 Hartrees.
 IExCor=    0 DFT=F Ex=HF Corr=None ExCW=0 ScaHFX=  1.000000
 ScaDFX=  1.000000  1.000000  1.000000  1.000000 ScalE2=  1.000000  1.000000
 IRadAn=      5 IRanWt=     -1 IRanGd=            0 ICorTp=0 IEmpDi=  4
 NAtoms=    8 NActive=    8 NUniq=    2 SFac= 4.00D+00 NAtFMM=   60 NAOKFM=F Big=F
 Integral buffers will be    131072 words long.
 Raffenetti 1 integral format.
 Two-electron integral symmetry is turned on.
 Leave Link  301 at Mon Oct  6 14:21:03 2025, MaxMem=   104857600 cpu:               0.0 elap:               0.0
 (Enter /home/zhouoh/g16/l402.exe)
 External calculation of energy and first derivatives.
 Running external command "python ../GauUMA_client.py R"
         input file       "/home/zhouoh/scratch/Gau-2811633.EIn"
         output file      "/home/zhouoh/scratch/Gau-2811633.EOu"
         message file     "/home/zhouoh/scratch/Gau-2811633.EMs"
         fchk file        "/home/zhouoh/scratch/Gau-2811633.EFC"
         mat. el file     "/home/zhouoh/scratch/Gau-2811633.EUF"
Sent job to server.
Received result from server:
SCF Done:  E(UMA) =  -79.74771904538751     A.U.
 Recovered energy= -79.7477190454     dipole=      0.000000000000      0.000000000000      0.000000000000
 Energy=    -79.7477190     NIter=   0.
 Dipole moment=       0.000000       0.000000       0.000000
 Leave Link  402 at Mon Oct  6 14:21:03 2025, MaxMem=   104857600 cpu:               0.0 elap:               0.1
 (Enter /home/zhouoh/g16/l716.exe)
 Dipole        = 0.00000000D+00 0.00000000D+00 0.00000000D+00
 ***** Axes restored to original set *****
 -------------------------------------------------------------------
 Center     Atomic                   Forces (Hartrees/Bohr)
 Number     Number              X              Y              Z
 -------------------------------------------------------------------
      1        6           0.026712290    0.037775823    0.065430344
      2        1           0.000002585    0.000010756   -0.000002312
      3        1           0.000003807    0.000002797    0.000013001
      4        1           0.000006782    0.000005140    0.000021631
      5        6          -0.026712232   -0.037775861   -0.065430336
      6        1          -0.000009290   -0.000006005    0.000002302
      7        1          -0.000002578   -0.000008117   -0.000021632
      8        1          -0.000001365   -0.000004530   -0.000013000
 -------------------------------------------------------------------
 Cartesian Forces:  Max     0.065430344 RMS     0.023133110
 Leave Link  716 at Mon Oct  6 14:21:03 2025, MaxMem=   104857600 cpu:               0.0 elap:               0.0
 (Enter /home/zhouoh/g16/l103.exe)

 GradGradGradGradGradGradGradGradGradGradGradGradGradGradGradGradGradGrad
 Berny optimization.
 Using GEDIIS/GDIIS optimizer.
 FormGI is forming the generalized inverse of G from B-inverse, IUseBI=4.
 Internal  Forces:  Max     0.080175036 RMS     0.015151662
 Search for a local minimum.
 Step number   3 out of a maximum of   38 on scan point     5 out of    21
 All quantities printed in internal units (Hartrees-Bohrs-Radians)
 RMS Force = .11732D-04 SwitMx=.10000D-02 MixMth= 2
 Mixed Optimization -- En-DIIS/RFO-DIIS
 Swapping is turned off.
 Update second derivatives using D2CorX and points    1    2    3
 DE= -7.87D-07 DEPred=-8.11D-07 R= 9.71D-01
 Trust test= 9.71D-01 RLast= 5.41D-03 DXMaxT set to 3.56D-01
 ITU=  0  1  0
     Eigenvalues ---    0.00223   0.06260   0.06260   0.06260   0.06260
     Eigenvalues ---    0.12274   0.16000   0.16000   0.16000   0.16000
     Eigenvalues ---    0.16000   0.37097   0.37230   0.37230   0.37230
     Eigenvalues ---    0.37230   0.372301000.000001000.000001000.00000
     Eigenvalues --- 1000.000001000.000001000.000001000.000001000.00000
     Eigenvalues --- 1000.000001000.000001000.00000
 En-DIIS/RFO-DIIS/Sim-DIIS IScMMF=       -3 using points:     3    2
 RFO step:  Lambda=-6.48402769D-06.
 NNeg= 0 NGDIIS= 2 SimSw=  2.50D-03 Rises=F DC= -7.87D-07 SmlDif=  1.00D-05
 NRisDI= 0 DoIntr=F SqrtH=F CThrHd= 10.0 CDAdj=  3.0
 RMS Error=  0.7002218053D-03 NUsed= 2 OKEnD=F EnDIS=F
 InvSVX:  RCond= 7.30D-06 Info=           0 Equed=N FErr=  2.81D-15 BErr=  1.06D-17
 DidBck=F Rises=F RFO-DIIS coefs:    1.59833   -0.59833
 Iteration  1 RMS(Cart)=  0.00057747 RMS(Int)=  0.00000029
 Iteration  2 RMS(Cart)=  0.00000018 RMS(Int)=  0.00000023
 Iteration  1 RMS(Cart)=  0.00000008 RMS(Int)=  0.00000000
 ITry= 1 IFail=0 DXMaxC= 1.08D-03 DCOld= 1.00D+10 DXMaxT= 3.56D-01 DXLimC= 3.00D+00 Rises=F
 ClnCor:  largest displacement from symmetrization is 4.45D-04 for atom     7.
 Variable       Old X    -DE/DX   Delta X   Delta X   Delta X     New X
                                 (Linear)    (Quad)   (Total)
    R1        2.04886  -0.00001  -0.00012   0.00009  -0.00001   2.04886
    R2        2.04886  -0.00001  -0.00012   0.00009  -0.00001   2.04886
    R3        2.04886  -0.00001  -0.00012   0.00010  -0.00001   2.04886
    R4        3.66607  -0.08018  -0.00000   0.00000   0.00000   3.66607
    R5        2.04886  -0.00001  -0.00012   0.00009  -0.00001   2.04886
    R6        2.04886  -0.00001  -0.00012   0.00010  -0.00001   2.04886
    R7        2.04886  -0.00001  -0.00012   0.00009  -0.00001   2.04886
    A1        1.95893   0.00000   0.00050  -0.00043   0.00002   1.95895
    A2        1.95893   0.00001   0.00050  -0.00039   0.00002   1.95895
    A3        1.85944   0.00000  -0.00057   0.00055  -0.00002   1.85942
    A4        1.95893   0.00002   0.00050  -0.00035   0.00002   1.95895
    A5        1.85944  -0.00001  -0.00057   0.00044  -0.00002   1.85942
    A6        1.85944  -0.00003  -0.00057   0.00033  -0.00002   1.85942
    A7        1.85944   0.00000  -0.00057   0.00055  -0.00002   1.85942
    A8        1.85944  -0.00003  -0.00057   0.00033  -0.00002   1.85942
    A9        1.85944  -0.00001  -0.00057   0.00044  -0.00002   1.85942
   A10        1.95893   0.00001   0.00050  -0.00039   0.00002   1.95895
   A11        1.95893   0.00000   0.00050  -0.00043   0.00002   1.95895
   A12        1.95893   0.00002   0.00050  -0.00035   0.00002   1.95895
    D1        1.04292  -0.00000  -0.00088  -0.00034  -0.00124   1.04168
    D2        3.13731  -0.00000  -0.00088  -0.00034  -0.00124   3.13608
    D3       -1.05148  -0.00000  -0.00088  -0.00035  -0.00124  -1.05271
    D4       -1.05148  -0.00000  -0.00088  -0.00035  -0.00124  -1.05271
    D5        1.04292  -0.00000  -0.00088  -0.00035  -0.00124   1.04168
    D6        3.13731  -0.00000  -0.00088  -0.00037  -0.00124   3.13608
    D7        3.13731  -0.00000  -0.00088  -0.00034  -0.00124   3.13608
    D8       -1.05148  -0.00000  -0.00088  -0.00034  -0.00124  -1.05271
    D9        1.04292  -0.00000  -0.00088  -0.00035  -0.00124   1.04168
         Item               Value     Threshold  Converged?
 Maximum Force            0.000031     0.000450     YES
 RMS     Force            0.000012     0.000300     YES
 Maximum Displacement     0.001073     0.001800     YES
 RMS     Displacement     0.000562     0.001200     YES
 Predicted change in Energy=-1.332744D-08
 Optimization completed.
    -- Stationary point found.
                           ----------------------------
                           !   Optimized Parameters   !
                           ! (Angstroms and Degrees)  !
 --------------------------                            --------------------------
 ! Name  Definition              Value          Derivative Info.                !
 --------------------------------------------------------------------------------
 ! R1    R(1,2)                  1.0842         -DE/DX =    0.0                 !
 ! R2    R(1,3)                  1.0842         -DE/DX =    0.0                 !
 ! R3    R(1,4)                  1.0842         -DE/DX =    0.0                 !
 ! R4    R(1,5)                  1.94           -DE/DX =   -0.0802              !
 ! R5    R(5,6)                  1.0842         -DE/DX =    0.0                 !
 ! R6    R(5,7)                  1.0842         -DE/DX =    0.0                 !
 ! R7    R(5,8)                  1.0842         -DE/DX =    0.0                 !
 ! A1    A(2,1,3)              112.2383         -DE/DX =    0.0                 !
 ! A2    A(2,1,4)              112.2383         -DE/DX =    0.0                 !
 ! A3    A(2,1,5)              106.5381         -DE/DX =    0.0                 !
 ! A4    A(3,1,4)              112.2383         -DE/DX =    0.0                 !
 ! A5    A(3,1,5)              106.5381         -DE/DX =    0.0                 !
 ! A6    A(4,1,5)              106.5381         -DE/DX =    0.0                 !
 ! A7    A(1,5,6)              106.5381         -DE/DX =    0.0                 !
 ! A8    A(1,5,7)              106.5381         -DE/DX =    0.0                 !
 ! A9    A(1,5,8)              106.5381         -DE/DX =    0.0                 !
 ! A10   A(6,5,7)              112.2383         -DE/DX =    0.0                 !
 ! A11   A(6,5,8)              112.2383         -DE/DX =    0.0                 !
 ! A12   A(7,5,8)              112.2383         -DE/DX =    0.0                 !
 ! D1    D(2,1,5,6)             59.7548         -DE/DX =    0.0                 !
 ! D2    D(2,1,5,7)            179.7548         -DE/DX =    0.0                 !
 ! D3    D(2,1,5,8)            -60.2452         -DE/DX =    0.0                 !
 ! D4    D(3,1,5,6)            -60.2452         -DE/DX =    0.0                 !
 ! D5    D(3,1,5,7)             59.7548         -DE/DX =    0.0                 !
 ! D6    D(3,1,5,8)            179.7548         -DE/DX =    0.0                 !
 ! D7    D(4,1,5,6)            179.7548         -DE/DX =    0.0                 !
 ! D8    D(4,1,5,7)            -60.2452         -DE/DX =    0.0                 !
 ! D9    D(4,1,5,8)             59.7548         -DE/DX =    0.0                 !
 --------------------------------------------------------------------------------
 Iteration  1 RMS(Cart)=  0.05050507 RMS(Int)=  0.00000001
 Iteration  2 RMS(Cart)=  0.00000001 RMS(Int)=  0.00000000
 Iteration  1 RMS(Cart)=  0.00000001 RMS(Int)=  0.00000000
 GradGradGradGradGradGradGradGradGradGradGradGradGradGradGradGradGradGrad

 Leave Link  103 at Mon Oct  6 14:21:03 2025, MaxMem=   104857600 cpu:               0.0 elap:               0.0
 (Enter /home/zhouoh/g16/l202.exe)
                          Input orientation:                          
 ---------------------------------------------------------------------
 Center     Atomic      Atomic             Coordinates (Angstroms)
 Number     Number       Type             X           Y           Z
 ---------------------------------------------------------------------
      1          6           0       -1.999544   -0.200268   -0.204124
      2          1           0       -1.610946   -1.211345   -0.156986
      3          1           0       -1.613961    0.348233   -1.056170
      4          1           0       -3.082329   -0.174112   -0.155128
      5          6           0       -1.319532    0.761389    1.461529
      6          1           0       -0.236752    0.730270    1.415400
      7          1           0       -1.703447    1.774116    1.411527
      8          1           0       -1.709792    0.216201    2.313571
 ---------------------------------------------------------------------
                    Distance matrix (angstroms):
                    1          2          3          4          5
     1  C    0.000000
     2  H    1.084209   0.000000
     3  H    1.084209   1.800229   0.000000
     4  H    1.084209   1.800229   1.800229   0.000000
     5  C    2.040000   2.568305   2.568305   2.568305   0.000000
     6  H    2.568305   2.851434   2.855051   3.373688   1.084209
     7  H    2.568305   3.373688   2.851434   2.855051   1.084209
     8  H    2.568305   2.855051   3.373688   2.851434   1.084209
                    6          7          8
     6  H    0.000000
     7  H    1.800229   0.000000
     8  H    1.800229   1.800229   0.000000
 Stoichiometry    C2H6
 Framework group  D3[C3(C.C),X(H6)]
 Deg. of freedom     4
 Full point group                 D3      NOp   6
 RotChk:  IX=0 Diff= 5.98D-13
 Largest Abelian subgroup         C2      NOp   2
 Largest concise Abelian subgroup C2      NOp   2
                         Standard orientation:                         
 ---------------------------------------------------------------------
 Center     Atomic      Atomic             Coordinates (Angstroms)
 Number     Number       Type             X           Y           Z
 ---------------------------------------------------------------------
      1          6           0       -0.000000   -0.000000    1.020000
      2          1           0       -0.517197    0.901544    1.328599
      3          1           0        1.039359   -0.002866    1.328599
      4          1           0       -0.522161   -0.898678    1.328599
      5          6           0        0.000000    0.000000   -1.020000
      6          1           0        0.517197    0.901544   -1.328599
      7          1           0        0.522161   -0.898678   -1.328599
      8          1           0       -1.039359   -0.002866   -1.328599
 ---------------------------------------------------------------------
 Rotational constants (GHZ):          77.3653772          12.9885047          12.9885047
 Leave Link  202 at Mon Oct  6 14:21:03 2025, MaxMem=   104857600 cpu:               0.0 elap:               0.0
 (Enter /home/zhouoh/g16/l301.exe)
 Standard basis: STO-3G (5D, 7F)
 Ernie: Thresh=  0.10000D-02 Tol=  0.10000D-05 Strict=F.
 There are     8 symmetry adapted cartesian basis functions of A   symmetry.
 There are     8 symmetry adapted cartesian basis functions of B   symmetry.
 There are     8 symmetry adapted basis functions of A   symmetry.
 There are     8 symmetry adapted basis functions of B   symmetry.
    16 basis functions,    48 primitive gaussians,    16 cartesian basis functions
     9 alpha electrons        9 beta electrons
       nuclear repulsion energy        37.6737367248 Hartrees.
 IExCor=    0 DFT=F Ex=HF Corr=None ExCW=0 ScaHFX=  1.000000
 ScaDFX=  1.000000  1.000000  1.000000  1.000000 ScalE2=  1.000000  1.000000
 IRadAn=      5 IRanWt=     -1 IRanGd=            0 ICorTp=0 IEmpDi=  4
 NAtoms=    8 NActive=    8 NUniq=    2 SFac= 4.00D+00 NAtFMM=   60 NAOKFM=F Big=F
 Integral buffers will be    131072 words long.
 Raffenetti 1 integral format.
 Two-electron integral symmetry is turned on.
 Leave Link  301 at Mon Oct  6 14:21:03 2025, MaxMem=   104857600 cpu:               0.0 elap:               0.0
 (Enter /home/zhouoh/g16/l402.exe)
 External calculation of energy and first derivatives.
 Running external command "python ../GauUMA_client.py R"
         input file       "/home/zhouoh/scratch/Gau-2811633.EIn"
         output file      "/home/zhouoh/scratch/Gau-2811633.EOu"
         message file     "/home/zhouoh/scratch/Gau-2811633.EMs"
         fchk file        "/home/zhouoh/scratch/Gau-2811633.EFC"
         mat. el file     "/home/zhouoh/scratch/Gau-2811633.EUF"
Sent job to server.
Received result from server:
SCF Done:  E(UMA) =  -79.7322887558462     A.U.
 Recovered energy= -79.7322887559     dipole=      0.000000000000      0.000000000000      0.000000000000
 Energy=    -79.7322888     NIter=   0.
 Dipole moment=       0.000000       0.000000       0.000000
 Leave Link  402 at Mon Oct  6 14:21:03 2025, MaxMem=   104857600 cpu:               0.0 elap:               0.1
 (Enter /home/zhouoh/g16/l716.exe)
 Dipole        = 0.00000000D+00 0.00000000D+00 0.00000000D+00
 ***** Axes restored to original set *****
 -------------------------------------------------------------------
 Center     Atomic                   Forces (Hartrees/Bohr)
 Number     Number              X              Y              Z
 -------------------------------------------------------------------
      1        6           0.025726071    0.036381023    0.063014428
      2        1           0.000726965    0.000650278    0.001538729
      3        1           0.000724134    0.001026355    0.001341416
      4        1           0.000369297    0.000897901    0.001579075
      5        6          -0.025725906   -0.036381136   -0.063014421
      6        1          -0.000370811   -0.000902547   -0.001538487
      7        1          -0.000723049   -0.000647337   -0.001579320
      8        1          -0.000726700   -0.001024537   -0.001341421
 -------------------------------------------------------------------
 Cartesian Forces:  Max     0.063014428 RMS     0.022297906
 Leave Link  716 at Mon Oct  6 14:21:03 2025, MaxMem=   104857600 cpu:               0.0 elap:               0.0
 (Enter /home/zhouoh/g16/l103.exe)

 GradGradGradGradGradGradGradGradGradGradGradGradGradGradGradGradGradGrad
 Berny optimization.
 FormGI is forming the generalized inverse of G from B-inverse, IUseBI=4.
 Internal  Forces:  Max     0.082637984 RMS     0.015670884
 Search for a local minimum.
 Step number   1 out of a maximum of   38 on scan point     6 out of    21
 All quantities printed in internal units (Hartrees-Bohrs-Radians)
 RMS Force = .13209D-02 SwitMx=.10000D-02 MixMth= 1
 Mixed Optimization -- RFO/linear search
 Second derivative matrix not updated -- first step.
 ITU=  0
     Eigenvalues ---    0.00223   0.06260   0.06260   0.06260   0.06260
     Eigenvalues ---    0.12274   0.16000   0.16000   0.16000   0.16000
     Eigenvalues ---    0.16000   0.37097   0.37230   0.37230   0.37230
     Eigenvalues ---    0.37230   0.372301000.000001000.000001000.00000
     Eigenvalues --- 1000.000001000.000001000.000001000.000001000.00000
     Eigenvalues --- 1000.000001000.000001000.00000
 RFO step:  Lambda=-3.89888750D-04 EMin= 2.23097480D-03
 Linear search not attempted -- first point.
 Iteration  1 RMS(Cart)=  0.01829997 RMS(Int)=  0.00024125
 Iteration  2 RMS(Cart)=  0.00023199 RMS(Int)=  0.00012841
 Iteration  3 RMS(Cart)=  0.00000006 RMS(Int)=  0.00012841
 Iteration  1 RMS(Cart)=  0.00000000 RMS(Int)=  0.00000000
 ITry= 1 IFail=0 DXMaxC= 3.99D-02 DCOld= 1.00D+10 DXMaxT= 3.56D-01 DXLimC= 3.00D+00 Rises=F
 ClnCor:  largest displacement from symmetrization is 7.67D-04 for atom     4.
 Variable       Old X    -DE/DX   Delta X   Delta X   Delta X     New X
                                 (Linear)    (Quad)   (Total)
    R1        2.04886  -0.00028   0.00000  -0.00183  -0.00177   2.04709
    R2        2.04886  -0.00028   0.00000  -0.00182  -0.00177   2.04709
    R3        2.04886  -0.00028   0.00000  -0.00182  -0.00177   2.04709
    R4        3.85504  -0.08264   0.00000   0.00000   0.00000   3.85504
    R5        2.04886  -0.00028   0.00000  -0.00183  -0.00177   2.04709
    R6        2.04886  -0.00028   0.00000  -0.00182  -0.00177   2.04709
    R7        2.04886  -0.00028   0.00000  -0.00182  -0.00177   2.04709
    A1        1.95895   0.00184   0.00000   0.01524   0.01492   1.97386
    A2        1.95895   0.00185   0.00000   0.01529   0.01492   1.97386
    A3        1.85942  -0.00206   0.00000  -0.01709  -0.01728   1.84214
    A4        1.95895   0.00186   0.00000   0.01532   0.01492   1.97386
    A5        1.85942  -0.00209   0.00000  -0.01729  -0.01728   1.84214
    A6        1.85942  -0.00212   0.00000  -0.01748  -0.01728   1.84214
    A7        1.85942  -0.00206   0.00000  -0.01709  -0.01728   1.84214
    A8        1.85942  -0.00212   0.00000  -0.01747  -0.01728   1.84214
    A9        1.85942  -0.00209   0.00000  -0.01729  -0.01728   1.84214
   A10        1.95895   0.00185   0.00000   0.01529   0.01492   1.97386
   A11        1.95895   0.00184   0.00000   0.01524   0.01492   1.97386
   A12        1.95895   0.00186   0.00000   0.01532   0.01492   1.97386
    D1        1.04168  -0.00000   0.00000  -0.01776  -0.01780   1.02388
    D2        3.13608  -0.00000   0.00000  -0.01776  -0.01780   3.11828
    D3       -1.05271  -0.00001   0.00000  -0.01781  -0.01780  -1.07051
    D4       -1.05271  -0.00001   0.00000  -0.01781  -0.01780  -1.07051
    D5        1.04168  -0.00001   0.00000  -0.01781  -0.01780   1.02388
    D6        3.13608  -0.00001   0.00000  -0.01786  -0.01780   3.11828
    D7        3.13608  -0.00000   0.00000  -0.01776  -0.01780   3.11828
    D8       -1.05271  -0.00000   0.00000  -0.01775  -0.01780  -1.07051
    D9        1.04168  -0.00001   0.00000  -0.01781  -0.01780   1.02388
         Item               Value     Threshold  Converged?
 Maximum Force            0.002117     0.000450     NO 
 RMS     Force            0.001321     0.000300     NO 
 Maximum Displacement     0.039247     0.001800     NO 
 RMS     Displacement     0.018294     0.001200     NO 
 Predicted change in Energy=-1.960186D-04
 GradGradGradGradGradGradGradGradGradGradGradGradGradGradGradGradGradGrad

 Leave Link  103 at Mon Oct  6 14:21:03 2025, MaxMem=   104857600 cpu:               0.0 elap:               0.0
 (Enter /home/zhouoh/g16/l202.exe)
                          Input orientation:                          
 ---------------------------------------------------------------------
 Center     Atomic      Atomic             Coordinates (Angstroms)
 Number     Number       Type             X           Y           Z
 ---------------------------------------------------------------------
      1          6           0       -1.999544   -0.200268   -0.204124
      2          1           0       -1.595284   -1.203573   -0.145513
      3          1           0       -1.613477    0.365016   -1.043701
      4          1           0       -3.080221   -0.172854   -0.134359
      5          6           0       -1.319532    0.761389    1.461529
      6          1           0       -0.238877    0.712909    1.403936
      7          1           0       -1.703915    1.771697    1.390760
      8          1           0       -1.725452    0.210168    2.301093
 ---------------------------------------------------------------------
                    Distance matrix (angstroms):
                    1          2          3          4          5
     1  C    0.000000
     2  H    1.083274   0.000000
     3  H    1.083274   1.807635   0.000000
     4  H    1.083274   1.807635   1.807635   0.000000
     5  C    2.040000   2.553370   2.553370   2.553370   0.000000
     6  H    2.553370   2.813100   2.828690   3.350248   1.083274
     7  H    2.553370   3.350248   2.813100   2.828690   1.083274
     8  H    2.553370   2.828690   3.350248   2.813100   1.083274
                    6          7          8
     6  H    0.000000
     7  H    1.807635   0.000000
     8  H    1.807635   1.807635   0.000000
 Stoichiometry    C2H6
 Framework group  D3[C3(C.C),X(H6)]
 Deg. of freedom     4
 Full point group                 D3      NOp   6
 RotChk:  IX=0 Diff= 5.45D-16
 Largest Abelian subgroup         C2      NOp   2
 Largest concise Abelian subgroup C2      NOp   2
                         Standard orientation:                         
 ---------------------------------------------------------------------
 Center     Atomic      Atomic             Coordinates (Angstroms)
 Number     Number       Type             X           Y           Z
 ---------------------------------------------------------------------
      1          6           0       -0.000000   -0.000000    1.020000
      2          1           0       -0.511249    0.909839    1.310346
      3          1           0        1.043568   -0.012165    1.310346
      4          1           0       -0.532319   -0.897674    1.310346
      5          6           0        0.000000    0.000000   -1.020000
      6          1           0        0.511249    0.909839   -1.310346
      7          1           0        0.532319   -0.897674   -1.310346
      8          1           0       -1.043568   -0.012165   -1.310346
 ---------------------------------------------------------------------
 Rotational constants (GHZ):          76.7327182          13.0773470          13.0773470
 Leave Link  202 at Mon Oct  6 14:21:03 2025, MaxMem=   104857600 cpu:               0.0 elap:               0.0
 (Enter /home/zhouoh/g16/l301.exe)
 Standard basis: STO-3G (5D, 7F)
 Ernie: Thresh=  0.10000D-02 Tol=  0.10000D-05 Strict=F.
 There are     8 symmetry adapted cartesian basis functions of A   symmetry.
 There are     8 symmetry adapted cartesian basis functions of B   symmetry.
 There are     8 symmetry adapted basis functions of A   symmetry.
 There are     8 symmetry adapted basis functions of B   symmetry.
    16 basis functions,    48 primitive gaussians,    16 cartesian basis functions
     9 alpha electrons        9 beta electrons
       nuclear repulsion energy        37.7411181285 Hartrees.
 IExCor=    0 DFT=F Ex=HF Corr=None ExCW=0 ScaHFX=  1.000000
 ScaDFX=  1.000000  1.000000  1.000000  1.000000 ScalE2=  1.000000  1.000000
 IRadAn=      5 IRanWt=     -1 IRanGd=            0 ICorTp=0 IEmpDi=  4
 NAtoms=    8 NActive=    8 NUniq=    2 SFac= 4.00D+00 NAtFMM=   60 NAOKFM=F Big=F
 Integral buffers will be    131072 words long.
 Raffenetti 1 integral format.
 Two-electron integral symmetry is turned on.
 Leave Link  301 at Mon Oct  6 14:21:03 2025, MaxMem=   104857600 cpu:               0.0 elap:               0.0
 (Enter /home/zhouoh/g16/l402.exe)
 External calculation of energy and first derivatives.
 Running external command "python ../GauUMA_client.py R"
         input file       "/home/zhouoh/scratch/Gau-2811633.EIn"
         output file      "/home/zhouoh/scratch/Gau-2811633.EOu"
         message file     "/home/zhouoh/scratch/Gau-2811633.EMs"
         fchk file        "/home/zhouoh/scratch/Gau-2811633.EFC"
         mat. el file     "/home/zhouoh/scratch/Gau-2811633.EUF"
Sent job to server.
Received result from server:
SCF Done:  E(UMA) =  -79.73249391373697     A.U.
 Recovered energy= -79.7324939137     dipole=      0.000000000000      0.000000000000      0.000000000000
 Energy=    -79.7324939     NIter=   0.
 Dipole moment=       0.000000       0.000000       0.000000
 Leave Link  402 at Mon Oct  6 14:21:03 2025, MaxMem=   104857600 cpu:               0.0 elap:               0.1
 (Enter /home/zhouoh/g16/l716.exe)
 Dipole        = 0.00000000D+00 0.00000000D+00 0.00000000D+00
 ***** Axes restored to original set *****
 -------------------------------------------------------------------
 Center     Atomic                   Forces (Hartrees/Bohr)
 Number     Number              X              Y              Z
 -------------------------------------------------------------------
      1        6           0.026779711    0.037871239    0.065595558
      2        1           0.000035117    0.000044142    0.000103365
      3        1           0.000051894    0.000055582    0.000089913
      4        1           0.000029913    0.000065618    0.000093093
      5        6          -0.026779720   -0.037871232   -0.065595558
      6        1          -0.000029896   -0.000047843   -0.000103363
      7        1          -0.000051891   -0.000050052   -0.000093109
      8        1          -0.000035131   -0.000067456   -0.000089902
 -------------------------------------------------------------------
 Cartesian Forces:  Max     0.065595558 RMS     0.023191598
 Leave Link  716 at Mon Oct  6 14:21:03 2025, MaxMem=   104857600 cpu:               0.0 elap:               0.0
 (Enter /home/zhouoh/g16/l103.exe)

 GradGradGradGradGradGradGradGradGradGradGradGradGradGradGradGradGradGrad
 Berny optimization.
 Using GEDIIS/GDIIS optimizer.
 FormGI is forming the generalized inverse of G from B-inverse, IUseBI=4.
 Internal  Forces:  Max     0.080688534 RMS     0.015248932
 Search for a local minimum.
 Step number   2 out of a maximum of   38 on scan point     6 out of    21
 All quantities printed in internal units (Hartrees-Bohrs-Radians)
 RMS Force = .85750D-04 SwitMx=.10000D-02 MixMth= 2
 Mixed Optimization -- En-DIIS/RFO-DIIS
 Update second derivatives using D2CorX and points    1    2
 DE= -2.05D-04 DEPred=-1.96D-04 R= 1.05D+00
 TightC=F SS=  1.41D+00  RLast= 7.74D-02 DXNew= 5.9824D-01 2.3230D-01
 Trust test= 1.05D+00 RLast= 7.74D-02 DXMaxT set to 3.56D-01
 ITU=  1  0
 Use linear search instead of GDIIS.
     Eigenvalues ---    0.00226   0.06438   0.06438   0.06438   0.06438
     Eigenvalues ---    0.11579   0.16000   0.16000   0.16000   0.16000
     Eigenvalues ---    0.16004   0.37098   0.37230   0.37230   0.37230
     Eigenvalues ---    0.37230   0.372301000.000001000.000001000.00000
     Eigenvalues --- 1000.000001000.000001000.000001000.000001000.00000
     Eigenvalues --- 1000.000001000.000001000.00000
 RFO step:  Lambda=-2.70956426D-07 EMin= 2.25539642D-03
 Quartic linear search produced a step of  0.06528.
 Iteration  1 RMS(Cart)=  0.00157008 RMS(Int)=  0.00000918
 Iteration  2 RMS(Cart)=  0.00000143 RMS(Int)=  0.00000907
 Iteration  3 RMS(Cart)=  0.00000000 RMS(Int)=  0.00000907
 Iteration  1 RMS(Cart)=  0.00000010 RMS(Int)=  0.00000000
 ITry= 1 IFail=0 DXMaxC= 3.28D-03 DCOld= 1.00D+10 DXMaxT= 3.56D-01 DXLimC= 3.00D+00 Rises=F
 ClnCor:  largest displacement from symmetrization is 4.85D-05 for atom     4.
 Variable       Old X    -DE/DX   Delta X   Delta X   Delta X     New X
                                 (Linear)    (Quad)   (Total)
    R1        2.04709  -0.00002  -0.00012  -0.00000  -0.00012   2.04697
    R2        2.04709  -0.00002  -0.00012  -0.00000  -0.00012   2.04697
    R3        2.04709  -0.00002  -0.00012  -0.00000  -0.00012   2.04697
    R4        3.85504  -0.08069   0.00000   0.00000  -0.00000   3.85504
    R5        2.04709  -0.00002  -0.00012  -0.00000  -0.00012   2.04697
    R6        2.04709  -0.00002  -0.00012  -0.00000  -0.00012   2.04697
    R7        2.04709  -0.00002  -0.00012  -0.00000  -0.00012   2.04697
    A1        1.97386   0.00012   0.00097   0.00002   0.00099   1.97485
    A2        1.97386   0.00012   0.00097   0.00002   0.00099   1.97485
    A3        1.84214  -0.00014  -0.00113  -0.00003  -0.00117   1.84097
    A4        1.97386   0.00012   0.00097   0.00001   0.00099   1.97485
    A5        1.84214  -0.00014  -0.00113  -0.00002  -0.00117   1.84097
    A6        1.84214  -0.00014  -0.00113  -0.00001  -0.00117   1.84097
    A7        1.84214  -0.00014  -0.00113  -0.00003  -0.00117   1.84097
    A8        1.84214  -0.00014  -0.00113  -0.00001  -0.00117   1.84097
    A9        1.84214  -0.00014  -0.00113  -0.00002  -0.00117   1.84097
   A10        1.97386   0.00012   0.00097   0.00002   0.00099   1.97485
   A11        1.97386   0.00012   0.00097   0.00002   0.00099   1.97485
   A12        1.97386   0.00012   0.00097   0.00001   0.00099   1.97485
    D1        1.02388   0.00001  -0.00116   0.00362   0.00246   1.02634
    D2        3.11828   0.00001  -0.00116   0.00362   0.00246   3.12074
    D3       -1.07051   0.00001  -0.00116   0.00362   0.00246  -1.06806
    D4       -1.07051   0.00001  -0.00116   0.00362   0.00246  -1.06806
    D5        1.02388   0.00001  -0.00116   0.00362   0.00246   1.02634
    D6        3.11828   0.00001  -0.00116   0.00362   0.00246   3.12074
    D7        3.11828   0.00001  -0.00116   0.00362   0.00246   3.12074
    D8       -1.07051   0.00001  -0.00116   0.00362   0.00246  -1.06806
    D9        1.02388   0.00001  -0.00116   0.00362   0.00246   1.02634
         Item               Value     Threshold  Converged?
 Maximum Force            0.000138     0.000450     YES
 RMS     Force            0.000086     0.000300     YES
 Maximum Displacement     0.003289     0.001800     NO 
 RMS     Displacement     0.001579     0.001200     NO 
 Predicted change in Energy=-9.289138D-07
 GradGradGradGradGradGradGradGradGradGradGradGradGradGradGradGradGradGrad

 Leave Link  103 at Mon Oct  6 14:21:03 2025, MaxMem=   104857600 cpu:               0.0 elap:               0.0
 (Enter /home/zhouoh/g16/l202.exe)
                          Input orientation:                          
 ---------------------------------------------------------------------
 Center     Atomic      Atomic             Coordinates (Angstroms)
 Number     Number       Type             X           Y           Z
 ---------------------------------------------------------------------
      1          6           0       -1.999544   -0.200268   -0.204124
      2          1           0       -1.595777   -1.203599   -0.143777
      3          1           0       -1.611883    0.365056   -1.042857
      4          1           0       -3.080082   -0.171114   -0.133902
      5          6           0       -1.319532    0.761389    1.461529
      6          1           0       -0.239014    0.713382    1.402200
      7          1           0       -1.705510    1.770988    1.390301
      8          1           0       -1.724960    0.208650    2.300249
 ---------------------------------------------------------------------
                    Distance matrix (angstroms):
                    1          2          3          4          5
     1  C    0.000000
     2  H    1.083210   0.000000
     3  H    1.083210   1.808116   0.000000
     4  H    1.083210   1.808116   1.808116   0.000000
     5  C    2.040000   2.552351   2.552351   2.552351   0.000000
     6  H    2.552351   2.811702   2.825668   3.348672   1.083210
     7  H    2.552351   3.348672   2.811702   2.825668   1.083210
     8  H    2.552351   2.825668   3.348672   2.811702   1.083210
                    6          7          8
     6  H    0.000000
     7  H    1.808116   0.000000
     8  H    1.808116   1.808116   0.000000
 Stoichiometry    C2H6
 Framework group  D3[C3(C.C),X(H6)]
 Deg. of freedom     4
 Full point group                 D3      NOp   6
 RotChk:  IX=0 Diff= 7.75D-16
 Largest Abelian subgroup         C2      NOp   2
 Largest concise Abelian subgroup C2      NOp   2
                         Standard orientation:                         
 ---------------------------------------------------------------------
 Center     Atomic      Atomic             Coordinates (Angstroms)
 Number     Number       Type             X           Y           Z
 ---------------------------------------------------------------------
      1          6           0       -0.000000    0.000000    1.020000
      2          1           0       -0.512502    0.909452    1.309106
      3          1           0        1.043860   -0.010887    1.309106
      4          1           0       -0.531358   -0.898566    1.309106
      5          6           0        0.000000    0.000000   -1.020000
      6          1           0        0.512502    0.909452   -1.309106
      7          1           0        0.531358   -0.898566   -1.309106
      8          1           0       -1.043860   -0.010887   -1.309106
 ---------------------------------------------------------------------
 Rotational constants (GHZ):          76.6918919          13.0834057          13.0834057
 Leave Link  202 at Mon Oct  6 14:21:03 2025, MaxMem=   104857600 cpu:               0.0 elap:               0.0
 (Enter /home/zhouoh/g16/l301.exe)
 Standard basis: STO-3G (5D, 7F)
 Ernie: Thresh=  0.10000D-02 Tol=  0.10000D-05 Strict=F.
 There are     8 symmetry adapted cartesian basis functions of A   symmetry.
 There are     8 symmetry adapted cartesian basis functions of B   symmetry.
 There are     8 symmetry adapted basis functions of A   symmetry.
 There are     8 symmetry adapted basis functions of B   symmetry.
    16 basis functions,    48 primitive gaussians,    16 cartesian basis functions
     9 alpha electrons        9 beta electrons
       nuclear repulsion energy        37.7457718388 Hartrees.
 IExCor=    0 DFT=F Ex=HF Corr=None ExCW=0 ScaHFX=  1.000000
 ScaDFX=  1.000000  1.000000  1.000000  1.000000 ScalE2=  1.000000  1.000000
 IRadAn=      5 IRanWt=     -1 IRanGd=            0 ICorTp=0 IEmpDi=  4
 NAtoms=    8 NActive=    8 NUniq=    2 SFac= 4.00D+00 NAtFMM=   60 NAOKFM=F Big=F
 Integral buffers will be    131072 words long.
 Raffenetti 1 integral format.
 Two-electron integral symmetry is turned on.
 Leave Link  301 at Mon Oct  6 14:21:03 2025, MaxMem=   104857600 cpu:               0.0 elap:               0.0
 (Enter /home/zhouoh/g16/l402.exe)
 External calculation of energy and first derivatives.
 Running external command "python ../GauUMA_client.py R"
         input file       "/home/zhouoh/scratch/Gau-2811633.EIn"
         output file      "/home/zhouoh/scratch/Gau-2811633.EOu"
         message file     "/home/zhouoh/scratch/Gau-2811633.EMs"
         fchk file        "/home/zhouoh/scratch/Gau-2811633.EFC"
         mat. el file     "/home/zhouoh/scratch/Gau-2811633.EUF"
Sent job to server.
Received result from server:
SCF Done:  E(UMA) =  -79.73249493885835     A.U.
 Recovered energy= -79.7324949389     dipole=      0.000000000000      0.000000000000      0.000000000000
 Energy=    -79.7324949     NIter=   0.
 Dipole moment=       0.000000       0.000000       0.000000
 Leave Link  402 at Mon Oct  6 14:21:03 2025, MaxMem=   104857600 cpu:               0.0 elap:               0.1
 (Enter /home/zhouoh/g16/l716.exe)
 Dipole        = 0.00000000D+00 0.00000000D+00 0.00000000D+00
 ***** Axes restored to original set *****
 -------------------------------------------------------------------
 Center     Atomic                   Forces (Hartrees/Bohr)
 Number     Number              X              Y              Z
 -------------------------------------------------------------------
      1        6           0.026849020    0.037969368    0.065765389
      2        1          -0.000007671    0.000001211    0.000005990
      3        1           0.000006858   -0.000005755    0.000004103
      4        1           0.000003775    0.000008608   -0.000002934
      5        6          -0.026849141   -0.037969286   -0.065765387
      6        1          -0.000003682    0.000006831   -0.000006002
      7        1          -0.000006869   -0.000006416    0.000002929
      8        1           0.000007707   -0.000004564   -0.000004094
 -------------------------------------------------------------------
 Cartesian Forces:  Max     0.065765389 RMS     0.023251576
 Leave Link  716 at Mon Oct  6 14:21:03 2025, MaxMem=   104857600 cpu:               0.0 elap:               0.0
 (Enter /home/zhouoh/g16/l103.exe)

 GradGradGradGradGradGradGradGradGradGradGradGradGradGradGradGradGradGrad
 Berny optimization.
 Using GEDIIS/GDIIS optimizer.
 FormGI is forming the generalized inverse of G from B-inverse, IUseBI=4.
 Internal  Forces:  Max     0.080554572 RMS     0.015223384
 Search for a local minimum.
 Step number   3 out of a maximum of   38 on scan point     6 out of    21
 All quantities printed in internal units (Hartrees-Bohrs-Radians)
 RMS Force = .40769D-05 SwitMx=.10000D-02 MixMth= 2
 Mixed Optimization -- En-DIIS/RFO-DIIS
 Swapping is turned off.
 Update second derivatives using D2CorX and points    1    2    3
 DE= -1.03D-06 DEPred=-9.29D-07 R= 1.10D+00
 TightC=F SS=  1.41D+00  RLast= 8.27D-03 DXNew= 5.9824D-01 2.4813D-02
 Trust test= 1.10D+00 RLast= 8.27D-03 DXMaxT set to 3.56D-01
 ITU=  1  1  0
     Eigenvalues ---    0.00195   0.06450   0.06450   0.06450   0.06450
     Eigenvalues ---    0.12236   0.16000   0.16000   0.16000   0.16000
     Eigenvalues ---    0.16000   0.37077   0.37230   0.37230   0.37230
     Eigenvalues ---    0.37230   0.372301000.000001000.000001000.00000
     Eigenvalues --- 1000.000001000.000001000.000001000.000001000.00000
     Eigenvalues --- 1000.000001000.000001000.00000
 En-DIIS/RFO-DIIS/Sim-DIIS IScMMF=       -3 using points:     3    2
 RFO step:  Lambda=-6.65056988D-06.
 NNeg= 0 NGDIIS= 2 SimSw=  2.50D-03 Rises=F DC= -1.03D-06 SmlDif=  1.00D-05
 NRisDI= 0 DoIntr=F SqrtH=F CThrHd= 10.0 CDAdj=  3.0
 RMS Error=  0.1713794249D-02 NUsed= 2 OKEnD=F EnDIS=F
 InvSVX:  RCond= 1.70D-05 Info=           0 Equed=N FErr=  5.13D-15 BErr=  3.66D-17
 DidBck=F Rises=F RFO-DIIS coefs:    1.99488   -0.99488
 Iteration  1 RMS(Cart)=  0.00138620 RMS(Int)=  0.00000120
 Iteration  2 RMS(Cart)=  0.00000105 RMS(Int)=  0.00000061
 Iteration  3 RMS(Cart)=  0.00000000 RMS(Int)=  0.00000061
 Iteration  1 RMS(Cart)=  0.00000010 RMS(Int)=  0.00000000
 ITry= 1 IFail=0 DXMaxC= 2.69D-03 DCOld= 1.00D+10 DXMaxT= 3.56D-01 DXLimC= 3.00D+00 Rises=F
 ClnCor:  largest displacement from symmetrization is 5.22D-06 for atom     7.
 Variable       Old X    -DE/DX   Delta X   Delta X   Delta X     New X
                                 (Linear)    (Quad)   (Total)
    R1        2.04697  -0.00000  -0.00012   0.00011  -0.00001   2.04696
    R2        2.04697  -0.00000  -0.00012   0.00011  -0.00001   2.04696
    R3        2.04697  -0.00000  -0.00012   0.00011  -0.00001   2.04696
    R4        3.85504  -0.08055  -0.00000   0.00000  -0.00000   3.85504
    R5        2.04697  -0.00000  -0.00012   0.00011  -0.00001   2.04696
    R6        2.04697  -0.00000  -0.00012   0.00011  -0.00001   2.04696
    R7        2.04697  -0.00000  -0.00012   0.00011  -0.00001   2.04696
    A1        1.97485   0.00000   0.00098  -0.00090   0.00008   1.97493
    A2        1.97485   0.00000   0.00098  -0.00090   0.00008   1.97493
    A3        1.84097  -0.00000  -0.00117   0.00107  -0.00009   1.84087
    A4        1.97485   0.00000   0.00098  -0.00090   0.00008   1.97493
    A5        1.84097  -0.00000  -0.00117   0.00107  -0.00009   1.84087
    A6        1.84097  -0.00000  -0.00117   0.00107  -0.00009   1.84087
    A7        1.84097  -0.00000  -0.00117   0.00107  -0.00009   1.84087
    A8        1.84097  -0.00000  -0.00117   0.00107  -0.00009   1.84087
    A9        1.84097  -0.00000  -0.00117   0.00107  -0.00009   1.84087
   A10        1.97485   0.00000   0.00098  -0.00090   0.00008   1.97493
   A11        1.97485   0.00000   0.00098  -0.00090   0.00008   1.97493
   A12        1.97485   0.00000   0.00098  -0.00090   0.00008   1.97493
    D1        1.02634   0.00001   0.00244   0.00059   0.00303   1.02937
    D2        3.12074   0.00001   0.00244   0.00059   0.00303   3.12376
    D3       -1.06806   0.00001   0.00244   0.00059   0.00303  -1.06503
    D4       -1.06806   0.00001   0.00244   0.00059   0.00303  -1.06503
    D5        1.02634   0.00001   0.00244   0.00059   0.00303   1.02937
    D6        3.12074   0.00001   0.00244   0.00059   0.00303   3.12376
    D7        3.12074   0.00001   0.00244   0.00059   0.00303   3.12376
    D8       -1.06806   0.00001   0.00244   0.00059   0.00303  -1.06503
    D9        1.02634   0.00001   0.00244   0.00059   0.00303   1.02937
         Item               Value     Threshold  Converged?
 Maximum Force            0.000006     0.000450     YES
 RMS     Force            0.000004     0.000300     YES
 Maximum Displacement     0.002688     0.001800     NO 
 RMS     Displacement     0.001386     0.001200     NO 
 Predicted change in Energy=-8.136525D-08
 GradGradGradGradGradGradGradGradGradGradGradGradGradGradGradGradGradGrad

 Leave Link  103 at Mon Oct  6 14:21:03 2025, MaxMem=   104857600 cpu:               0.0 elap:               0.0
 (Enter /home/zhouoh/g16/l202.exe)
                          Input orientation:                          
 ---------------------------------------------------------------------
 Center     Atomic      Atomic             Coordinates (Angstroms)
 Number     Number       Type             X           Y           Z
 ---------------------------------------------------------------------
      1          6           0       -1.999544   -0.200268   -0.204124
      2          1           0       -1.597018   -1.204038   -0.142894
      3          1           0       -1.610542    0.364214   -1.042795
      4          1           0       -3.080082   -0.169691   -0.134601
      5          6           0       -1.319532    0.761389    1.461529
      6          1           0       -0.239011    0.714698    1.401316
      7          1           0       -1.706853    1.770517    1.390999
      8          1           0       -1.723721    0.207664    2.300190
 ---------------------------------------------------------------------
                    Distance matrix (angstroms):
                    1          2          3          4          5
     1  C    0.000000
     2  H    1.083204   0.000000
     3  H    1.083204   1.808154   0.000000
     4  H    1.083204   1.808154   1.808154   0.000000
     5  C    2.040000   2.552269   2.552269   2.552269   0.000000
     6  H    2.552269   2.812529   2.824468   3.348562   1.083204
     7  H    2.552269   3.348562   2.812529   2.824468   1.083204
     8  H    2.552269   2.824468   3.348562   2.812529   1.083204
                    6          7          8
     6  H    0.000000
     7  H    1.808154   0.000000
     8  H    1.808154   1.808154   0.000000
 Stoichiometry    C2H6
 Framework group  D3[C3(C.C),X(H6)]
 Deg. of freedom     4
 Full point group                 D3      NOp   6
 RotChk:  IX=0 Diff= 9.13D-16
 Largest Abelian subgroup         C2      NOp   2
 Largest concise Abelian subgroup C2      NOp   2
                         Standard orientation:                         
 ---------------------------------------------------------------------
 Center     Atomic      Atomic             Coordinates (Angstroms)
 Number     Number       Type             X           Y           Z
 ---------------------------------------------------------------------
      1          6           0       -0.000000   -0.000000    1.020000
      2          1           0       -0.513889    0.908694    1.309006
      3          1           0        1.043897   -0.009306    1.309006
      4          1           0       -0.530007   -0.899388    1.309006
      5          6           0        0.000000   -0.000000   -1.020000
      6          1           0        0.513889    0.908694   -1.309006
      7          1           0        0.530007   -0.899388   -1.309006
      8          1           0       -1.043897   -0.009306   -1.309006
 ---------------------------------------------------------------------
 Rotational constants (GHZ):          76.6886821          13.0838955          13.0838955
 Leave Link  202 at Mon Oct  6 14:21:03 2025, MaxMem=   104857600 cpu:               0.0 elap:               0.0
 (Enter /home/zhouoh/g16/l301.exe)
 Standard basis: STO-3G (5D, 7F)
 Ernie: Thresh=  0.10000D-02 Tol=  0.10000D-05 Strict=F.
 There are     8 symmetry adapted cartesian basis functions of A   symmetry.
 There are     8 symmetry adapted cartesian basis functions of B   symmetry.
 There are     8 symmetry adapted basis functions of A   symmetry.
 There are     8 symmetry adapted basis functions of B   symmetry.
    16 basis functions,    48 primitive gaussians,    16 cartesian basis functions
     9 alpha electrons        9 beta electrons
       nuclear repulsion energy        37.7461559091 Hartrees.
 IExCor=    0 DFT=F Ex=HF Corr=None ExCW=0 ScaHFX=  1.000000
 ScaDFX=  1.000000  1.000000  1.000000  1.000000 ScalE2=  1.000000  1.000000
 IRadAn=      5 IRanWt=     -1 IRanGd=            0 ICorTp=0 IEmpDi=  4
 NAtoms=    8 NActive=    8 NUniq=    2 SFac= 4.00D+00 NAtFMM=   60 NAOKFM=F Big=F
 Integral buffers will be    131072 words long.
 Raffenetti 1 integral format.
 Two-electron integral symmetry is turned on.
 Leave Link  301 at Mon Oct  6 14:21:03 2025, MaxMem=   104857600 cpu:               0.0 elap:               0.0
 (Enter /home/zhouoh/g16/l402.exe)
 External calculation of energy and first derivatives.
 Running external command "python ../GauUMA_client.py R"
         input file       "/home/zhouoh/scratch/Gau-2811633.EIn"
         output file      "/home/zhouoh/scratch/Gau-2811633.EOu"
         message file     "/home/zhouoh/scratch/Gau-2811633.EMs"
         fchk file        "/home/zhouoh/scratch/Gau-2811633.EFC"
         mat. el file     "/home/zhouoh/scratch/Gau-2811633.EUF"
Sent job to server.
Received result from server:
SCF Done:  E(UMA) =  -79.73249507466502     A.U.
 Recovered energy= -79.7324950747     dipole=      0.000000000000      0.000000000000      0.000000000000
 Energy=    -79.7324951     NIter=   0.
 Dipole moment=       0.000000       0.000000       0.000000
 Leave Link  402 at Mon Oct  6 14:21:03 2025, MaxMem=   104857600 cpu:               0.0 elap:               0.1
 (Enter /home/zhouoh/g16/l716.exe)
 Dipole        = 0.00000000D+00 0.00000000D+00 0.00000000D+00
 ***** Axes restored to original set *****
 -------------------------------------------------------------------
 Center     Atomic                   Forces (Hartrees/Bohr)
 Number     Number              X              Y              Z
 -------------------------------------------------------------------
      1        6           0.026854850    0.037977511    0.065779605
      2        1          -0.000009486   -0.000002019   -0.000002662
      3        1           0.000001952   -0.000009376   -0.000003077
      4        1           0.000001257    0.000002494   -0.000009661
      5        6          -0.026854872   -0.037977490   -0.065779591
      6        1          -0.000001245    0.000009619    0.000002650
      7        1          -0.000001943   -0.000002007    0.000009659
      8        1           0.000009489    0.000001271    0.000003082
 -------------------------------------------------------------------
 Cartesian Forces:  Max     0.065779605 RMS     0.023256594
 Leave Link  716 at Mon Oct  6 14:21:03 2025, MaxMem=   104857600 cpu:               0.0 elap:               0.0
 (Enter /home/zhouoh/g16/l103.exe)

 GradGradGradGradGradGradGradGradGradGradGradGradGradGradGradGradGradGrad
 Berny optimization.
 Using GEDIIS/GDIIS optimizer.
 FormGI is forming the generalized inverse of G from B-inverse, IUseBI=4.
 Internal  Forces:  Max     0.080544344 RMS     0.015221451
 Search for a local minimum.
 Step number   4 out of a maximum of   38 on scan point     6 out of    21
 All quantities printed in internal units (Hartrees-Bohrs-Radians)
 RMS Force = .58882D-05 SwitMx=.10000D-02 MixMth= 2
 Mixed Optimization -- En-DIIS/RFO-DIIS
 Swapping is turned off.
 Update second derivatives using D2CorX and points    1    2    3    4
 DE= -1.36D-07 DEPred=-8.14D-08 R= 1.67D+00
 Trust test= 1.67D+00 RLast= 9.09D-03 DXMaxT set to 3.56D-01
 ITU=  0  1  1  0
     Eigenvalues ---    0.00045   0.06451   0.06451   0.06451   0.06451
     Eigenvalues ---    0.15963   0.16000   0.16000   0.16000   0.16000
     Eigenvalues ---    0.16044   0.37046   0.37230   0.37230   0.37230
     Eigenvalues ---    0.37230   0.372301000.000001000.000001000.00000
     Eigenvalues --- 1000.000001000.000001000.000001000.000001000.00000
     Eigenvalues --- 1000.000001000.000001000.00000
 En-DIIS/RFO-DIIS/Sim-DIIS IScMMF=       -3 using points:     4    3    2
 RFO step:  Lambda=-6.88904238D-06.
 NNeg= 0 NGDIIS= 3 SimSw=  2.50D-01 Rises=F DC= -1.36D-07 SmlDif=  1.00D-05
 NRisDI= 0 DoIntr=F SqrtH=F CThrHd= 10.0 CDAdj=  3.0
 RMS Error=  0.5554228261D-02 NUsed= 3 OKEnD=F EnDIS=F
 InvSVX:  RCond= 1.24D-07 Info=           0 Equed=N FErr=  4.12D-12 BErr=  6.05D-17
 Old DIIS coefficients:      4.92151     -4.29628      0.37476
 DidBck=F Rises=F RFO-DIIS coefs:    2.78772   -2.00000    0.21228
 Iteration  1 RMS(Cart)=  0.00476490 RMS(Int)=  0.00001217
 Iteration  2 RMS(Cart)=  0.00001243 RMS(Int)=  0.00000014
 Iteration  3 RMS(Cart)=  0.00000000 RMS(Int)=  0.00000014
 Iteration  1 RMS(Cart)=  0.00000002 RMS(Int)=  0.00000000
 ITry= 1 IFail=0 DXMaxC= 8.93D-03 DCOld= 1.00D+10 DXMaxT= 3.56D-01 DXLimC= 3.00D+00 Rises=F
 ClnCor:  largest displacement from symmetrization is 1.50D-06 for atom     4.
 Variable       Old X    -DE/DX   Delta X   Delta X   Delta X     New X
                                 (Linear)    (Quad)   (Total)
    R1        2.04696  -0.00000   0.00001  -0.00001  -0.00000   2.04696
    R2        2.04696  -0.00000   0.00001  -0.00001  -0.00000   2.04696
    R3        2.04696  -0.00000   0.00001  -0.00001  -0.00000   2.04696
    R4        3.85504  -0.08054   0.00000   0.00000  -0.00000   3.85504
    R5        2.04696  -0.00000   0.00001  -0.00001  -0.00000   2.04696
    R6        2.04696  -0.00000   0.00001  -0.00001  -0.00000   2.04696
    R7        2.04696  -0.00000   0.00001  -0.00001  -0.00000   2.04696
    A1        1.97493  -0.00001  -0.00007   0.00005  -0.00002   1.97491
    A2        1.97493  -0.00001  -0.00007   0.00005  -0.00002   1.97491
    A3        1.84087   0.00001   0.00008  -0.00005   0.00003   1.84090
    A4        1.97493  -0.00001  -0.00007   0.00005  -0.00002   1.97491
    A5        1.84087   0.00001   0.00008  -0.00006   0.00003   1.84090
    A6        1.84087   0.00001   0.00008  -0.00006   0.00003   1.84090
    A7        1.84087   0.00001   0.00008  -0.00005   0.00003   1.84090
    A8        1.84087   0.00001   0.00008  -0.00006   0.00003   1.84090
    A9        1.84087   0.00001   0.00008  -0.00006   0.00003   1.84090
   A10        1.97493  -0.00001  -0.00007   0.00005  -0.00002   1.97491
   A11        1.97493  -0.00001  -0.00007   0.00005  -0.00002   1.97491
   A12        1.97493  -0.00001  -0.00007   0.00005  -0.00002   1.97491
    D1        1.02937   0.00000   0.00489   0.00554   0.01044   1.03980
    D2        3.12376   0.00000   0.00489   0.00554   0.01044   3.13420
    D3       -1.06503   0.00000   0.00489   0.00554   0.01044  -1.05459
    D4       -1.06503   0.00000   0.00489   0.00554   0.01044  -1.05459
    D5        1.02937   0.00000   0.00489   0.00554   0.01044   1.03980
    D6        3.12376   0.00000   0.00489   0.00554   0.01044   3.13420
    D7        3.12376   0.00000   0.00489   0.00554   0.01044   3.13420
    D8       -1.06503   0.00000   0.00489   0.00554   0.01044  -1.05459
    D9        1.02937   0.00000   0.00489   0.00554   0.01044   1.03980
         Item               Value     Threshold  Converged?
 Maximum Force            0.000008     0.000450     YES
 RMS     Force            0.000006     0.000300     YES
 Maximum Displacement     0.008928     0.001800     NO 
 RMS     Displacement     0.004765     0.001200     NO 
 Predicted change in Energy=-2.133850D-07
 GradGradGradGradGradGradGradGradGradGradGradGradGradGradGradGradGradGrad

 Leave Link  103 at Mon Oct  6 14:21:03 2025, MaxMem=   104857600 cpu:               0.0 elap:               0.0
 (Enter /home/zhouoh/g16/l202.exe)
                          Input orientation:                          
 ---------------------------------------------------------------------
 Center     Atomic      Atomic             Coordinates (Angstroms)
 Number     Number       Type             X           Y           Z
 ---------------------------------------------------------------------
      1          6           0       -1.999544   -0.200268   -0.204124
      2          1           0       -1.601465   -1.205639   -0.140187
      3          1           0       -1.606094    0.361070   -1.042828
      4          1           0       -3.080109   -0.164983   -0.137340
      5          6           0       -1.319532    0.761389    1.461529
      6          1           0       -0.238974    0.719422    1.398605
      7          1           0       -1.711306    1.768982    1.393735
      8          1           0       -1.719279    0.204512    2.300229
 ---------------------------------------------------------------------
                    Distance matrix (angstroms):
                    1          2          3          4          5
     1  C    0.000000
     2  H    1.083202   0.000000
     3  H    1.083202   1.808137   0.000000
     4  H    1.083202   1.808137   1.808137   0.000000
     5  C    2.040000   2.552289   2.552289   2.552289   0.000000
     6  H    2.552289   2.816047   2.820998   3.348634   1.083202
     7  H    2.552289   3.348634   2.816047   2.820998   1.083202
     8  H    2.552289   2.820998   3.348634   2.816047   1.083202
                    6          7          8
     6  H    0.000000
     7  H    1.808137   0.000000
     8  H    1.808137   1.808137   0.000000
 Stoichiometry    C2H6
 Framework group  D3[C3(C.C),X(H6)]
 Deg. of freedom     4
 Full point group                 D3      NOp   6
 RotChk:  IX=0 Diff= 8.76D-16
 Largest Abelian subgroup         C2      NOp   2
 Largest concise Abelian subgroup C2      NOp   2
                         Standard orientation:                         
 ---------------------------------------------------------------------
 Center     Atomic      Atomic             Coordinates (Angstroms)
 Number     Number       Type             X           Y           Z
 ---------------------------------------------------------------------
      1          6           0       -0.000000   -0.000000    1.020000
      2          1           0       -0.518619    0.905992    1.309032
      3          1           0        1.043921   -0.003859    1.309032
      4          1           0       -0.525302   -0.902133    1.309032
      5          6           0        0.000000    0.000000   -1.020000
      6          1           0        0.518619    0.905992   -1.309032
      7          1           0        0.525302   -0.902133   -1.309032
      8          1           0       -1.043921   -0.003859   -1.309032
 ---------------------------------------------------------------------
 Rotational constants (GHZ):          76.6900886          13.0837774          13.0837774
 Leave Link  202 at Mon Oct  6 14:21:03 2025, MaxMem=   104857600 cpu:               0.0 elap:               0.0
 (Enter /home/zhouoh/g16/l301.exe)
 Standard basis: STO-3G (5D, 7F)
 Ernie: Thresh=  0.10000D-02 Tol=  0.10000D-05 Strict=F.
 There are     8 symmetry adapted cartesian basis functions of A   symmetry.
 There are     8 symmetry adapted cartesian basis functions of B   symmetry.
 There are     8 symmetry adapted basis functions of A   symmetry.
 There are     8 symmetry adapted basis functions of B   symmetry.
    16 basis functions,    48 primitive gaussians,    16 cartesian basis functions
     9 alpha electrons        9 beta electrons
       nuclear repulsion energy        37.7461277387 Hartrees.
 IExCor=    0 DFT=F Ex=HF Corr=None ExCW=0 ScaHFX=  1.000000
 ScaDFX=  1.000000  1.000000  1.000000  1.000000 ScalE2=  1.000000  1.000000
 IRadAn=      5 IRanWt=     -1 IRanGd=            0 ICorTp=0 IEmpDi=  4
 NAtoms=    8 NActive=    8 NUniq=    2 SFac= 4.00D+00 NAtFMM=   60 NAOKFM=F Big=F
 Integral buffers will be    131072 words long.
 Raffenetti 1 integral format.
 Two-electron integral symmetry is turned on.
 Leave Link  301 at Mon Oct  6 14:21:03 2025, MaxMem=   104857600 cpu:               0.0 elap:               0.0
 (Enter /home/zhouoh/g16/l402.exe)
 External calculation of energy and first derivatives.
 Running external command "python ../GauUMA_client.py R"
         input file       "/home/zhouoh/scratch/Gau-2811633.EIn"
         output file      "/home/zhouoh/scratch/Gau-2811633.EOu"
         message file     "/home/zhouoh/scratch/Gau-2811633.EMs"
         fchk file        "/home/zhouoh/scratch/Gau-2811633.EFC"
         mat. el file     "/home/zhouoh/scratch/Gau-2811633.EUF"
Sent job to server.
Received result from server:
SCF Done:  E(UMA) =  -79.73249534408795     A.U.
 Recovered energy= -79.7324953441     dipole=      0.000000000000      0.000000000000      0.000000000000
 Energy=    -79.7324953     NIter=   0.
 Dipole moment=       0.000000       0.000000       0.000000
 Leave Link  402 at Mon Oct  6 14:21:04 2025, MaxMem=   104857600 cpu:               0.0 elap:               0.1
 (Enter /home/zhouoh/g16/l716.exe)
 Dipole        = 0.00000000D+00 0.00000000D+00 0.00000000D+00
 ***** Axes restored to original set *****
 -------------------------------------------------------------------
 Center     Atomic                   Forces (Hartrees/Bohr)
 Number     Number              X              Y              Z
 -------------------------------------------------------------------
      1        6           0.026854318    0.037976685    0.065778356
      2        1          -0.000001582   -0.000000644   -0.000022296
      3        1          -0.000001512   -0.000002719   -0.000003083
      4        1          -0.000001176   -0.000002626    0.000014826
      5        6          -0.026854272   -0.037976721   -0.065778354
      6        1           0.000000062    0.000001720    0.000022290
      7        1           0.000002100    0.000001972   -0.000014827
      8        1           0.000002059    0.000002329    0.000003082
 -------------------------------------------------------------------
 Cartesian Forces:  Max     0.065778356 RMS     0.023256139
 Leave Link  716 at Mon Oct  6 14:21:04 2025, MaxMem=   104857600 cpu:               0.0 elap:               0.0
 (Enter /home/zhouoh/g16/l103.exe)

 GradGradGradGradGradGradGradGradGradGradGradGradGradGradGradGradGradGrad
 Berny optimization.
 Using GEDIIS/GDIIS optimizer.
 FormGI is forming the generalized inverse of G from B-inverse, IUseBI=4.
 Internal  Forces:  Max     0.080548764 RMS     0.015222290
 Search for a local minimum.
 Step number   5 out of a maximum of   38 on scan point     6 out of    21
 All quantities printed in internal units (Hartrees-Bohrs-Radians)
 RMS Force = .12200D-04 SwitMx=.10000D-02 MixMth= 2
 Mixed Optimization -- En-DIIS/RFO-DIIS
 Swapping is turned off.
 Update second derivatives using D2CorX and points    1    2    3    4    5
 DE= -2.69D-07 DEPred=-2.13D-07 R= 1.26D+00
 Trust test= 1.26D+00 RLast= 3.13D-02 DXMaxT set to 3.56D-01
 ITU=  0  0  1  1  0
     Eigenvalues ---    0.00082   0.06451   0.06451   0.06451   0.06454
     Eigenvalues ---    0.09965   0.16000   0.16000   0.16000   0.16000
     Eigenvalues ---    0.16577   0.37034   0.37230   0.37230   0.37230
     Eigenvalues ---    0.37230   0.372321000.000001000.000001000.00000
     Eigenvalues --- 1000.000001000.000001000.000001000.000001000.00000
     Eigenvalues --- 1000.000001000.000001000.00000
 En-DIIS/RFO-DIIS/Sim-DIIS IScMMF=       -3 using points:     5    4    3    2
 RFO step:  Lambda=-6.68208834D-06.
 NNeg= 0 NGDIIS= 4 SimSw=  2.50D-01 Rises=F DC= -2.69D-07 SmlDif=  1.00D-05
 NRisDI= 0 DoIntr=F SqrtH=F CThrHd= 10.0 CDAdj=  3.0
 RMS Error=  0.2717951326D-02 NUsed= 4 OKEnD=F EnDIS=F
 InvSVX:  RCond= 2.35D-10 Info=           0 Equed=N FErr=  5.13D-10 BErr=  3.47D-17
 DIIS inversion failure, remove point   4.
 InvSVX:  RCond= 1.77D-08 Info=           0 Equed=N FErr=  6.16D-12 BErr=  3.60D-17
 DIIS inversion failure, remove point   3.
 InvSVX:  RCond= 1.08D-03 Info=           0 Equed=N FErr=  1.33D-15 BErr=  4.40D-17
 RFO-DIIS uses    2 points instead of    4
 DidBck=T Rises=F RFO-DIIS coefs:    0.53694    0.46306    0.00000    0.00000
 Iteration  1 RMS(Cart)=  0.00220806 RMS(Int)=  0.00000261
 Iteration  2 RMS(Cart)=  0.00000267 RMS(Int)=  0.00000000
 Iteration  3 RMS(Cart)=  0.00000000 RMS(Int)=  0.00000000
 Iteration  1 RMS(Cart)=  0.00000003 RMS(Int)=  0.00000000
 ITry= 1 IFail=0 DXMaxC= 4.10D-03 DCOld= 1.00D+10 DXMaxT= 3.56D-01 DXLimC= 3.00D+00 Rises=F
 ClnCor:  largest displacement from symmetrization is 3.59D-04 for atom     4.
 Variable       Old X    -DE/DX   Delta X   Delta X   Delta X     New X
                                 (Linear)    (Quad)   (Total)
    R1        2.04696  -0.00000   0.00000   0.00000   0.00003   2.04698
    R2        2.04696   0.00000   0.00000   0.00000   0.00003   2.04698
    R3        2.04696   0.00000   0.00000   0.00000   0.00003   2.04698
    R4        3.85504  -0.08055   0.00000   0.00000   0.00000   3.85504
    R5        2.04696  -0.00000   0.00000   0.00000   0.00003   2.04698
    R6        2.04696   0.00000   0.00000   0.00000   0.00003   2.04698
    R7        2.04696   0.00000   0.00000   0.00000   0.00003   2.04698
    A1        1.97491  -0.00001   0.00001  -0.00008  -0.00012   1.97479
    A2        1.97491  -0.00000   0.00001  -0.00005  -0.00012   1.97479
    A3        1.84090   0.00003  -0.00001   0.00015   0.00014   1.84104
    A4        1.97491   0.00001   0.00001  -0.00003  -0.00012   1.97479
    A5        1.84090   0.00001  -0.00001   0.00006   0.00014   1.84104
    A6        1.84090  -0.00002  -0.00001  -0.00003   0.00014   1.84104
    A7        1.84090   0.00003  -0.00001   0.00015   0.00014   1.84104
    A8        1.84090  -0.00002  -0.00001  -0.00003   0.00014   1.84104
    A9        1.84090   0.00001  -0.00001   0.00006   0.00014   1.84104
   A10        1.97491  -0.00000   0.00001  -0.00005  -0.00012   1.97479
   A11        1.97491  -0.00001   0.00001  -0.00008  -0.00012   1.97479
   A12        1.97491   0.00001   0.00001  -0.00003  -0.00012   1.97479
    D1        1.03980  -0.00000  -0.00483   0.00001  -0.00484   1.03497
    D2        3.13420  -0.00000  -0.00483   0.00001  -0.00484   3.12936
    D3       -1.05459  -0.00000  -0.00483  -0.00001  -0.00484  -1.05943
    D4       -1.05459  -0.00000  -0.00483  -0.00001  -0.00484  -1.05943
    D5        1.03980  -0.00000  -0.00483  -0.00001  -0.00484   1.03497
    D6        3.13420  -0.00001  -0.00483  -0.00002  -0.00484   3.12936
    D7        3.13420  -0.00000  -0.00483   0.00001  -0.00484   3.12936
    D8       -1.05459  -0.00000  -0.00483   0.00001  -0.00484  -1.05943
    D9        1.03980  -0.00000  -0.00483  -0.00001  -0.00484   1.03497
         Item               Value     Threshold  Converged?
 Maximum Force            0.000033     0.000450     YES
 RMS     Force            0.000012     0.000300     YES
 Maximum Displacement     0.004274     0.001800     NO 
 RMS     Displacement     0.002212     0.001200     NO 
 Predicted change in Energy=-7.943303D-08
 GradGradGradGradGradGradGradGradGradGradGradGradGradGradGradGradGradGrad

 Leave Link  103 at Mon Oct  6 14:21:04 2025, MaxMem=   104857600 cpu:               0.0 elap:               0.0
 (Enter /home/zhouoh/g16/l202.exe)
                          Input orientation:                          
 ---------------------------------------------------------------------
 Center     Atomic      Atomic             Coordinates (Angstroms)
 Number     Number       Type             X           Y           Z
 ---------------------------------------------------------------------
      1          6           0       -1.999544   -0.200268   -0.204124
      2          1           0       -1.599469   -1.204950   -0.141579
      3          1           0       -1.608221    0.362435   -1.042928
      4          1           0       -3.080124   -0.167245   -0.136208
      5          6           0       -1.319532    0.761389    1.461529
      6          1           0       -0.238963    0.717312    1.400000
      7          1           0       -1.709176    1.769746    1.392604
      8          1           0       -1.721272    0.206066    2.300325
 ---------------------------------------------------------------------
                    Distance matrix (angstroms):
                    1          2          3          4          5
     1  C    0.000000
     2  H    1.083216   0.000000
     3  H    1.083216   1.808093   0.000000
     4  H    1.083216   1.808093   1.808093   0.000000
     5  C    2.040000   2.552412   2.552412   2.552412   0.000000
     6  H    2.552412   2.814700   2.822888   3.348816   1.083216
     7  H    2.552412   3.348816   2.814700   2.822888   1.083216
     8  H    2.552412   2.822888   3.348816   2.814700   1.083216
                    6          7          8
     6  H    0.000000
     7  H    1.808093   0.000000
     8  H    1.808093   1.808093   0.000000
 Stoichiometry    C2H6
 Framework group  D3[C3(C.C),X(H6)]
 Deg. of freedom     4
 Full point group                 D3      NOp   6
 RotChk:  IX=0 Diff= 1.02D-15
 Largest Abelian subgroup         C2      NOp   2
 Largest concise Abelian subgroup C2      NOp   2
                         Standard orientation:                         
 ---------------------------------------------------------------------
 Center     Atomic      Atomic             Coordinates (Angstroms)
 Number     Number       Type             X           Y           Z
 ---------------------------------------------------------------------
      1          6           0       -0.000000    0.000000    1.020000
      2          1           0       -0.516414    0.907221    1.309179
      3          1           0        1.043883   -0.006383    1.309179
      4          1           0       -0.527470   -0.900838    1.309179
      5          6           0        0.000000    0.000000   -1.020000
      6          1           0        0.516414    0.907221   -1.309179
      7          1           0        0.527470   -0.900838   -1.309179
      8          1           0       -1.043883   -0.006383   -1.309179
 ---------------------------------------------------------------------
 Rotational constants (GHZ):          76.6938624          13.0830426          13.0830426
 Leave Link  202 at Mon Oct  6 14:21:04 2025, MaxMem=   104857600 cpu:               0.0 elap:               0.0
 (Enter /home/zhouoh/g16/l301.exe)
 Standard basis: STO-3G (5D, 7F)
 Ernie: Thresh=  0.10000D-02 Tol=  0.10000D-05 Strict=F.
 There are     8 symmetry adapted cartesian basis functions of A   symmetry.
 There are     8 symmetry adapted cartesian basis functions of B   symmetry.
 There are     8 symmetry adapted basis functions of A   symmetry.
 There are     8 symmetry adapted basis functions of B   symmetry.
    16 basis functions,    48 primitive gaussians,    16 cartesian basis functions
     9 alpha electrons        9 beta electrons
       nuclear repulsion energy        37.7454401255 Hartrees.
 IExCor=    0 DFT=F Ex=HF Corr=None ExCW=0 ScaHFX=  1.000000
 ScaDFX=  1.000000  1.000000  1.000000  1.000000 ScalE2=  1.000000  1.000000
 IRadAn=      5 IRanWt=     -1 IRanGd=            0 ICorTp=0 IEmpDi=  4
 NAtoms=    8 NActive=    8 NUniq=    2 SFac= 4.00D+00 NAtFMM=   60 NAOKFM=F Big=F
 Integral buffers will be    131072 words long.
 Raffenetti 1 integral format.
 Two-electron integral symmetry is turned on.
 Leave Link  301 at Mon Oct  6 14:21:04 2025, MaxMem=   104857600 cpu:               0.0 elap:               0.0
 (Enter /home/zhouoh/g16/l402.exe)
 External calculation of energy and first derivatives.
 Running external command "python ../GauUMA_client.py R"
         input file       "/home/zhouoh/scratch/Gau-2811633.EIn"
         output file      "/home/zhouoh/scratch/Gau-2811633.EOu"
         message file     "/home/zhouoh/scratch/Gau-2811633.EMs"
         fchk file        "/home/zhouoh/scratch/Gau-2811633.EFC"
         mat. el file     "/home/zhouoh/scratch/Gau-2811633.EUF"
Sent job to server.
Received result from server:
SCF Done:  E(UMA) =  -79.73249524989946     A.U.
 Recovered energy= -79.7324952499     dipole=      0.000000000000      0.000000000000      0.000000000000
 Energy=    -79.7324952     NIter=   0.
 Dipole moment=       0.000000       0.000000       0.000000
 Leave Link  402 at Mon Oct  6 14:21:04 2025, MaxMem=   104857600 cpu:               0.0 elap:               0.1
 (Enter /home/zhouoh/g16/l716.exe)
 Dipole        = 0.00000000D+00 0.00000000D+00 0.00000000D+00
 ***** Axes restored to original set *****
 -------------------------------------------------------------------
 Center     Atomic                   Forces (Hartrees/Bohr)
 Number     Number              X              Y              Z
 -------------------------------------------------------------------
      1        6           0.026844983    0.037963489    0.065755366
      2        1          -0.000001314    0.000007140    0.000008858
      3        1           0.000004291    0.000000145    0.000010624
      4        1           0.000007178    0.000007120    0.000005430
      5        6          -0.026844936   -0.037963521   -0.065755357
      6        1          -0.000007160   -0.000001135   -0.000008867
      7        1          -0.000004334   -0.000009135   -0.000005432
      8        1           0.000001293   -0.000004104   -0.000010622
 -------------------------------------------------------------------
 Cartesian Forces:  Max     0.065755366 RMS     0.023248024
 Leave Link  716 at Mon Oct  6 14:21:04 2025, MaxMem=   104857600 cpu:               0.0 elap:               0.0
 (Enter /home/zhouoh/g16/l103.exe)

 GradGradGradGradGradGradGradGradGradGradGradGradGradGradGradGradGradGrad
 Berny optimization.
 Using GEDIIS/GDIIS optimizer.
 FormGI is forming the generalized inverse of G from B-inverse, IUseBI=4.
 Internal  Forces:  Max     0.080564036 RMS     0.015225173
 Search for a local minimum.
 Step number   6 out of a maximum of   38 on scan point     6 out of    21
 All quantities printed in internal units (Hartrees-Bohrs-Radians)
 RMS Force = .72785D-05 SwitMx=.10000D-02 MixMth= 2
 Mixed Optimization -- En-DIIS/RFO-DIIS
 Swapping is turned off.
 Update second derivatives using D2CorX and points    1    2    3    4    5
                                                      6
 DE=  9.42D-08 DEPred=-7.94D-08 R=-1.19D+00
 Trust test=-1.19D+00 RLast= 1.45D-02 DXMaxT set to 1.78D-01
 ITU= -1  0  0  1  1  0
     Eigenvalues ---    0.00122   0.06450   0.06450   0.06450   0.06458
     Eigenvalues ---    0.10180   0.16000   0.16000   0.16000   0.16000
     Eigenvalues ---    0.17260   0.36948   0.37230   0.37230   0.37230
     Eigenvalues ---    0.37230   0.372361000.000001000.000001000.00000
     Eigenvalues --- 1000.000001000.000001000.000001000.000001000.00000
     Eigenvalues --- 1000.000001000.000001000.00000
 En-DIIS/RFO-DIIS/Sim-DIIS IScMMF=       -3 using points:     6    5    4    3    2
 RFO step:  Lambda=-6.53886679D-06.
 NNeg= 0 NGDIIS= 5 SimSw=  2.50D-03 Rises=F DC=  9.42D-08 SmlDif=  1.00D-05
 NRisDI= 0 DoIntr=F SqrtH=F CThrHd= 10.0 CDAdj=  3.0
 RMS Error=  0.1024197204D-02 NUsed= 5 OKEnD=F EnDIS=F
 InvSVX:  RCond= 3.98D-12 Info=           0 Equed=N FErr=  1.17D-08 BErr=  8.30D-17
 DIIS inversion failure, remove point   5.
 InvSVX:  RCond= 1.28D-09 Info=           0 Equed=N FErr=  4.21D-11 BErr=  9.94D-17
 DIIS inversion failure, remove point   4.
 InvSVX:  RCond= 1.67D-07 Info=           0 Equed=N FErr=  5.10D-13 BErr=  3.21D-17
 RFO-DIIS uses    3 points instead of    5
 DidBck=T Rises=F RFO-DIIS coefs:    0.37615    0.44616    0.17769    0.00000    0.00000
 Iteration  1 RMS(Cart)=  0.00054203 RMS(Int)=  0.00000016
 Iteration  2 RMS(Cart)=  0.00000016 RMS(Int)=  0.00000000
 Iteration  1 RMS(Cart)=  0.00000003 RMS(Int)=  0.00000000
 ITry= 1 IFail=0 DXMaxC= 1.16D-03 DCOld= 1.00D+10 DXMaxT= 1.78D-01 DXLimC= 3.00D+00 Rises=F
 ClnCor:  largest displacement from symmetrization is 3.02D-04 for atom     7.
 Variable       Old X    -DE/DX   Delta X   Delta X   Delta X     New X
                                 (Linear)    (Quad)   (Total)
    R1        2.04698  -0.00001  -0.00002  -0.00001  -0.00001   2.04698
    R2        2.04698  -0.00001  -0.00002  -0.00001  -0.00001   2.04698
    R3        2.04698  -0.00001  -0.00002  -0.00001  -0.00001   2.04698
    R4        3.85504  -0.08056  -0.00000   0.00000   0.00000   3.85504
    R5        2.04698  -0.00001  -0.00002  -0.00001  -0.00001   2.04698
    R6        2.04698  -0.00001  -0.00002  -0.00001  -0.00001   2.04698
    R7        2.04698  -0.00001  -0.00002  -0.00001  -0.00001   2.04698
    A1        1.97479   0.00001   0.00008  -0.00001   0.00002   1.97481
    A2        1.97479   0.00001   0.00008   0.00001   0.00002   1.97481
    A3        1.84104  -0.00001  -0.00009   0.00007  -0.00002   1.84101
    A4        1.97479   0.00001   0.00008   0.00002   0.00002   1.97481
    A5        1.84104  -0.00001  -0.00009  -0.00001  -0.00002   1.84101
    A6        1.84104  -0.00001  -0.00009  -0.00008  -0.00002   1.84101
    A7        1.84104  -0.00001  -0.00009   0.00007  -0.00002   1.84101
    A8        1.84104  -0.00001  -0.00009  -0.00008  -0.00002   1.84101
    A9        1.84104  -0.00001  -0.00009  -0.00001  -0.00002   1.84101
   A10        1.97479   0.00001   0.00008   0.00001   0.00002   1.97481
   A11        1.97479   0.00001   0.00008  -0.00001   0.00002   1.97481
   A12        1.97479   0.00001   0.00008   0.00002   0.00002   1.97481
    D1        1.03497   0.00000   0.00116   0.00001   0.00116   1.03613
    D2        3.12936   0.00000   0.00116   0.00001   0.00116   3.13052
    D3       -1.05943   0.00000   0.00116  -0.00000   0.00116  -1.05827
    D4       -1.05943   0.00000   0.00116  -0.00000   0.00116  -1.05827
    D5        1.03497   0.00000   0.00116  -0.00000   0.00116   1.03613
    D6        3.12936   0.00000   0.00116  -0.00002   0.00116   3.13052
    D7        3.12936   0.00000   0.00116   0.00001   0.00116   3.13052
    D8       -1.05943   0.00000   0.00116   0.00001   0.00116  -1.05827
    D9        1.03497   0.00000   0.00116  -0.00000   0.00116   1.03613
         Item               Value     Threshold  Converged?
 Maximum Force            0.000011     0.000450     YES
 RMS     Force            0.000007     0.000300     YES
 Maximum Displacement     0.001014     0.001800     YES
 RMS     Displacement     0.000530     0.001200     YES
 Predicted change in Energy=-1.715585D-08
 Optimization completed.
    -- Stationary point found.
                           ----------------------------
                           !   Optimized Parameters   !
                           ! (Angstroms and Degrees)  !
 --------------------------                            --------------------------
 ! Name  Definition              Value          Derivative Info.                !
 --------------------------------------------------------------------------------
 ! R1    R(1,2)                  1.0832         -DE/DX =    0.0                 !
 ! R2    R(1,3)                  1.0832         -DE/DX =    0.0                 !
 ! R3    R(1,4)                  1.0832         -DE/DX =    0.0                 !
 ! R4    R(1,5)                  2.04           -DE/DX =   -0.0806              !
 ! R5    R(5,6)                  1.0832         -DE/DX =    0.0                 !
 ! R6    R(5,7)                  1.0832         -DE/DX =    0.0                 !
 ! R7    R(5,8)                  1.0832         -DE/DX =    0.0                 !
 ! A1    A(2,1,3)              113.1473         -DE/DX =    0.0                 !
 ! A2    A(2,1,4)              113.1473         -DE/DX =    0.0                 !
 ! A3    A(2,1,5)              105.4837         -DE/DX =    0.0                 !
 ! A4    A(3,1,4)              113.1473         -DE/DX =    0.0                 !
 ! A5    A(3,1,5)              105.4837         -DE/DX =    0.0                 !
 ! A6    A(4,1,5)              105.4837         -DE/DX =    0.0                 !
 ! A7    A(1,5,6)              105.4837         -DE/DX =    0.0                 !
 ! A8    A(1,5,7)              105.4837         -DE/DX =    0.0                 !
 ! A9    A(1,5,8)              105.4837         -DE/DX =    0.0                 !
 ! A10   A(6,5,7)              113.1473         -DE/DX =    0.0                 !
 ! A11   A(6,5,8)              113.1473         -DE/DX =    0.0                 !
 ! A12   A(7,5,8)              113.1473         -DE/DX =    0.0                 !
 ! D1    D(2,1,5,6)             59.2993         -DE/DX =    0.0                 !
 ! D2    D(2,1,5,7)            179.2993         -DE/DX =    0.0                 !
 ! D3    D(2,1,5,8)            -60.7007         -DE/DX =    0.0                 !
 ! D4    D(3,1,5,6)            -60.7007         -DE/DX =    0.0                 !
 ! D5    D(3,1,5,7)             59.2993         -DE/DX =    0.0                 !
 ! D6    D(3,1,5,8)            179.2993         -DE/DX =    0.0                 !
 ! D7    D(4,1,5,6)            179.2993         -DE/DX =    0.0                 !
 ! D8    D(4,1,5,7)            -60.7007         -DE/DX =    0.0                 !
 ! D9    D(4,1,5,8)             59.2993         -DE/DX =    0.0                 !
 --------------------------------------------------------------------------------
 Iteration  1 RMS(Cart)=  0.05050506 RMS(Int)=  0.00000000
 Iteration  2 RMS(Cart)=  0.00000000 RMS(Int)=  0.00000000
 Iteration  1 RMS(Cart)=  0.00000000 RMS(Int)=  0.00000000
 GradGradGradGradGradGradGradGradGradGradGradGradGradGradGradGradGradGrad

 Leave Link  103 at Mon Oct  6 14:21:04 2025, MaxMem=   104857600 cpu:               0.0 elap:               0.0
 (Enter /home/zhouoh/g16/l202.exe)
                          Input orientation:                          
 ---------------------------------------------------------------------
 Center     Atomic      Atomic             Coordinates (Angstroms)
 Number     Number       Type             X           Y           Z
 ---------------------------------------------------------------------
      1          6           0       -2.016210   -0.223838   -0.244949
      2          1           0       -1.616619   -1.228689   -0.182080
      3          1           0       -1.624383    0.338531   -1.083736
      4          1           0       -3.096789   -0.190278   -0.177313
      5          6           0       -1.302865    0.784959    1.502354
      6          1           0       -0.222297    0.741393    1.440500
      7          1           0       -1.693015    1.793136    1.433710
      8          1           0       -1.704123    0.229270    2.341135
 ---------------------------------------------------------------------
                    Distance matrix (angstroms):
                    1          2          3          4          5
     1  C    0.000000
     2  H    1.083214   0.000000
     3  H    1.083214   1.808099   0.000000
     4  H    1.083214   1.808099   1.808099   0.000000
     5  C    2.140000   2.643962   2.643962   2.643962   0.000000
     6  H    2.643962   2.908285   2.915461   3.427541   1.083214
     7  H    2.643962   3.427541   2.908285   2.915461   1.083214
     8  H    2.643962   2.915461   3.427541   2.908285   1.083214
                    6          7          8
     6  H    0.000000
     7  H    1.808099   0.000000
     8  H    1.808099   1.808099   0.000000
 Stoichiometry    C2H6
 Framework group  D3[C3(C.C),X(H6)]
 Deg. of freedom     4
 Full point group                 D3      NOp   6
 RotChk:  IX=0 Diff= 1.25D-14
 Largest Abelian subgroup         C2      NOp   2
 Largest concise Abelian subgroup C2      NOp   2
                         Standard orientation:                         
 ---------------------------------------------------------------------
 Center     Atomic      Atomic             Coordinates (Angstroms)
 Number     Number       Type             X           Y           Z
 ---------------------------------------------------------------------
      1          6           0       -0.000000   -0.000000    1.070000
      2          1           0       -0.516941    0.906925    1.359155
      3          1           0        1.043891   -0.005778    1.359155
      4          1           0       -0.526950   -0.901147    1.359155
      5          6           0        0.000000   -0.000000   -1.070000
      6          1           0        0.516941    0.906925   -1.359155
      7          1           0        0.526950   -0.901147   -1.359155
      8          1           0       -1.043891   -0.005778   -1.359155
 ---------------------------------------------------------------------
 Rotational constants (GHZ):          76.6932971          12.0492010          12.0492010
 Leave Link  202 at Mon Oct  6 14:21:04 2025, MaxMem=   104857600 cpu:               0.0 elap:               0.0
 (Enter /home/zhouoh/g16/l301.exe)
 Standard basis: STO-3G (5D, 7F)
 Ernie: Thresh=  0.10000D-02 Tol=  0.10000D-05 Strict=F.
 There are     8 symmetry adapted cartesian basis functions of A   symmetry.
 There are     8 symmetry adapted cartesian basis functions of B   symmetry.
 There are     8 symmetry adapted basis functions of A   symmetry.
 There are     8 symmetry adapted basis functions of B   symmetry.
    16 basis functions,    48 primitive gaussians,    16 cartesian basis functions
     9 alpha electrons        9 beta electrons
       nuclear repulsion energy        37.0037740150 Hartrees.
 IExCor=    0 DFT=F Ex=HF Corr=None ExCW=0 ScaHFX=  1.000000
 ScaDFX=  1.000000  1.000000  1.000000  1.000000 ScalE2=  1.000000  1.000000
 IRadAn=      5 IRanWt=     -1 IRanGd=            0 ICorTp=0 IEmpDi=  4
 NAtoms=    8 NActive=    8 NUniq=    2 SFac= 4.00D+00 NAtFMM=   60 NAOKFM=F Big=F
 Integral buffers will be    131072 words long.
 Raffenetti 1 integral format.
 Two-electron integral symmetry is turned on.
 Leave Link  301 at Mon Oct  6 14:21:04 2025, MaxMem=   104857600 cpu:               0.0 elap:               0.0
 (Enter /home/zhouoh/g16/l402.exe)
 External calculation of energy and first derivatives.
 Running external command "python ../GauUMA_client.py R"
         input file       "/home/zhouoh/scratch/Gau-2811633.EIn"
         output file      "/home/zhouoh/scratch/Gau-2811633.EOu"
         message file     "/home/zhouoh/scratch/Gau-2811633.EMs"
         fchk file        "/home/zhouoh/scratch/Gau-2811633.EFC"
         mat. el file     "/home/zhouoh/scratch/Gau-2811633.EUF"
Sent job to server.
Received result from server:
SCF Done:  E(UMA) =  -79.7172254383996     A.U.
 Recovered energy= -79.7172254384     dipole=      0.000000000000      0.000000000000      0.000000000000
 Energy=    -79.7172254     NIter=   0.
 Dipole moment=       0.000000       0.000000       0.000000
 Leave Link  402 at Mon Oct  6 14:21:04 2025, MaxMem=   104857600 cpu:               0.0 elap:               0.1
 (Enter /home/zhouoh/g16/l716.exe)
 Dipole        = 0.00000000D+00 0.00000000D+00 0.00000000D+00
 ***** Axes restored to original set *****
 -------------------------------------------------------------------
 Center     Atomic                   Forces (Hartrees/Bohr)
 Number     Number              X              Y              Z
 -------------------------------------------------------------------
      1        6           0.025221150    0.035667133    0.061777893
      2        1           0.000666165    0.000589298    0.001425450
      3        1           0.000664024    0.000941323    0.001223088
      4        1           0.000333562    0.000822231    0.001426753
      5        6          -0.025221135   -0.035667143   -0.061777893
      6        1          -0.000333564   -0.000824884   -0.001425223
      7        1          -0.000663663   -0.000588418   -0.001426981
      8        1          -0.000666541   -0.000939543   -0.001223090
 -------------------------------------------------------------------
 Cartesian Forces:  Max     0.061777893 RMS     0.021857927
 Leave Link  716 at Mon Oct  6 14:21:04 2025, MaxMem=   104857600 cpu:               0.0 elap:               0.0
 (Enter /home/zhouoh/g16/l103.exe)

 GradGradGradGradGradGradGradGradGradGradGradGradGradGradGradGradGradGrad
 Berny optimization.
 FormGI is forming the generalized inverse of G from B-inverse, IUseBI=4.
 Internal  Forces:  Max     0.080653329 RMS     0.015290264
 Search for a local minimum.
 Step number   1 out of a maximum of   38 on scan point     7 out of    21
 All quantities printed in internal units (Hartrees-Bohrs-Radians)
 RMS Force = .12356D-02 SwitMx=.10000D-02 MixMth= 1
 Mixed Optimization -- RFO/linear search
 Second derivative matrix not updated -- first step.
 ITU=  0
     Eigenvalues ---    0.00122   0.06450   0.06450   0.06450   0.06458
     Eigenvalues ---    0.10180   0.16000   0.16000   0.16000   0.16000
     Eigenvalues ---    0.17260   0.36948   0.37230   0.37230   0.37230
     Eigenvalues ---    0.37230   0.372361000.000001000.000001000.00000
     Eigenvalues --- 1000.000001000.000001000.000001000.000001000.00000
     Eigenvalues --- 1000.000001000.000001000.00000
 RFO step:  Lambda=-4.01637734D-04 EMin= 1.22407339D-03
 Linear search not attempted -- first point.
 Iteration  1 RMS(Cart)=  0.01857730 RMS(Int)=  0.00028334
 Iteration  2 RMS(Cart)=  0.00027367 RMS(Int)=  0.00017499
 Iteration  3 RMS(Cart)=  0.00000011 RMS(Int)=  0.00017499
 Iteration  1 RMS(Cart)=  0.00000000 RMS(Int)=  0.00000000
 ITry= 1 IFail=0 DXMaxC= 3.84D-02 DCOld= 1.00D+10 DXMaxT= 1.78D-01 DXLimC= 3.00D+00 Rises=F
 ClnCor:  largest displacement from symmetrization is 4.93D-03 for atom     4.
 Variable       Old X    -DE/DX   Delta X   Delta X   Delta X     New X
                                 (Linear)    (Quad)   (Total)
    R1        2.04698  -0.00022   0.00000  -0.00220  -0.00188   2.04510
    R2        2.04698  -0.00022   0.00000  -0.00216  -0.00188   2.04510
    R3        2.04698  -0.00022   0.00000  -0.00213  -0.00188   2.04510
    R4        4.04401  -0.08065   0.00000   0.00000  -0.00000   4.04401
    R5        2.04698  -0.00022   0.00000  -0.00220  -0.00188   2.04510
    R6        2.04698  -0.00022   0.00000  -0.00214  -0.00188   2.04510
    R7        2.04698  -0.00022   0.00000  -0.00216  -0.00188   2.04510
    A1        1.97481   0.00168   0.00000   0.01603   0.01512   1.98993
    A2        1.97481   0.00168   0.00000   0.01636   0.01512   1.98993
    A3        1.84101  -0.00200   0.00000  -0.01826  -0.01853   1.82249
    A4        1.97481   0.00168   0.00000   0.01669   0.01512   1.98993
    A5        1.84101  -0.00200   0.00000  -0.01949  -0.01853   1.82249
    A6        1.84101  -0.00200   0.00000  -0.02072  -0.01853   1.82249
    A7        1.84101  -0.00200   0.00000  -0.01826  -0.01853   1.82249
    A8        1.84101  -0.00200   0.00000  -0.02072  -0.01853   1.82249
    A9        1.84101  -0.00200   0.00000  -0.01949  -0.01853   1.82249
   A10        1.97481   0.00168   0.00000   0.01636   0.01512   1.98993
   A11        1.97481   0.00168   0.00000   0.01603   0.01512   1.98993
   A12        1.97481   0.00168   0.00000   0.01669   0.01512   1.98993
    D1        1.03613  -0.00000   0.00000  -0.00306  -0.00326   1.03286
    D2        3.13052  -0.00000   0.00000  -0.00306  -0.00326   3.12726
    D3       -1.05827  -0.00000   0.00000  -0.00327  -0.00326  -1.06153
    D4       -1.05827  -0.00000   0.00000  -0.00327  -0.00326  -1.06153
    D5        1.03613  -0.00000   0.00000  -0.00327  -0.00326   1.03286
    D6        3.13052  -0.00000   0.00000  -0.00348  -0.00326   3.12726
    D7        3.13052  -0.00000   0.00000  -0.00306  -0.00326   3.12726
    D8       -1.05827  -0.00000   0.00000  -0.00306  -0.00326  -1.06153
    D9        1.03613  -0.00000   0.00000  -0.00327  -0.00326   1.03286
         Item               Value     Threshold  Converged?
 Maximum Force            0.002001     0.000450     NO 
 RMS     Force            0.001236     0.000300     NO 
 Maximum Displacement     0.034231     0.001800     NO 
 RMS     Displacement     0.017631     0.001200     NO 
 Predicted change in Energy=-2.002962D-04
 GradGradGradGradGradGradGradGradGradGradGradGradGradGradGradGradGradGrad

 Leave Link  103 at Mon Oct  6 14:21:04 2025, MaxMem=   104857600 cpu:               0.0 elap:               0.0
 (Enter /home/zhouoh/g16/l202.exe)
                          Input orientation:                          
 ---------------------------------------------------------------------
 Center     Atomic      Atomic             Coordinates (Angstroms)
 Number     Number       Type             X           Y           Z
 ---------------------------------------------------------------------
      1          6           0       -2.016210   -0.223838   -0.244949
      2          1           0       -1.606679   -1.222438   -0.165698
      3          1           0       -1.617267    0.351590   -1.070132
      4          1           0       -3.094209   -0.181819   -0.159202
      5          6           0       -1.302865    0.784959    1.502354
      6          1           0       -0.224880    0.729931    1.424123
      7          1           0       -1.700123    1.787884    1.415595
      8          1           0       -1.714068    0.218215    2.327529
 ---------------------------------------------------------------------
                    Distance matrix (angstroms):
                    1          2          3          4          5
     1  C    0.000000
     2  H    1.082220   0.000000
     3  H    1.082220   1.815400   0.000000
     4  H    1.082220   1.815400   1.815400   0.000000
     5  C    2.140000   2.627611   2.627611   2.627611   0.000000
     6  H    2.627611   2.872045   2.881526   3.401655   1.082220
     7  H    2.627611   3.401655   2.872045   2.881526   1.082220
     8  H    2.627611   2.881526   3.401655   2.872045   1.082220
                    6          7          8
     6  H    0.000000
     7  H    1.815400   0.000000
     8  H    1.815400   1.815400   0.000000
 Stoichiometry    C2H6
 Framework group  D3[C3(C.C),X(H6)]
 Deg. of freedom     4
 Full point group                 D3      NOp   6
 RotChk:  IX=0 Diff= 5.05D-16
 Largest Abelian subgroup         C2      NOp   2
 Largest concise Abelian subgroup C2      NOp   2
                         Standard orientation:                         
 ---------------------------------------------------------------------
 Center     Atomic      Atomic             Coordinates (Angstroms)
 Number     Number       Type             X           Y           Z
 ---------------------------------------------------------------------
      1          6           0        0.000000   -0.000000    1.070000
      2          1           0       -0.517542    0.911433    1.339519
      3          1           0        1.048095   -0.007512    1.339519
      4          1           0       -0.530553   -0.903921    1.339519
      5          6           0       -0.000000   -0.000000   -1.070000
      6          1           0        0.517542    0.911433   -1.339519
      7          1           0        0.530553   -0.903921   -1.339519
      8          1           0       -1.048095   -0.007512   -1.339519
 ---------------------------------------------------------------------
 Rotational constants (GHZ):          76.0776868          12.1341923          12.1341923
 Leave Link  202 at Mon Oct  6 14:21:04 2025, MaxMem=   104857600 cpu:               0.0 elap:               0.0
 (Enter /home/zhouoh/g16/l301.exe)
 Standard basis: STO-3G (5D, 7F)
 Ernie: Thresh=  0.10000D-02 Tol=  0.10000D-05 Strict=F.
 There are     8 symmetry adapted cartesian basis functions of A   symmetry.
 There are     8 symmetry adapted cartesian basis functions of B   symmetry.
 There are     8 symmetry adapted basis functions of A   symmetry.
 There are     8 symmetry adapted basis functions of B   symmetry.
    16 basis functions,    48 primitive gaussians,    16 cartesian basis functions
     9 alpha electrons        9 beta electrons
       nuclear repulsion energy        37.0745229531 Hartrees.
 IExCor=    0 DFT=F Ex=HF Corr=None ExCW=0 ScaHFX=  1.000000
 ScaDFX=  1.000000  1.000000  1.000000  1.000000 ScalE2=  1.000000  1.000000
 IRadAn=      5 IRanWt=     -1 IRanGd=            0 ICorTp=0 IEmpDi=  4
 NAtoms=    8 NActive=    8 NUniq=    2 SFac= 4.00D+00 NAtFMM=   60 NAOKFM=F Big=F
 Integral buffers will be    131072 words long.
 Raffenetti 1 integral format.
 Two-electron integral symmetry is turned on.
 Leave Link  301 at Mon Oct  6 14:21:04 2025, MaxMem=   104857600 cpu:               0.0 elap:               0.0
 (Enter /home/zhouoh/g16/l402.exe)
 External calculation of energy and first derivatives.
 Running external command "python ../GauUMA_client.py R"
         input file       "/home/zhouoh/scratch/Gau-2811633.EIn"
         output file      "/home/zhouoh/scratch/Gau-2811633.EOu"
         message file     "/home/zhouoh/scratch/Gau-2811633.EMs"
         fchk file        "/home/zhouoh/scratch/Gau-2811633.EFC"
         mat. el file     "/home/zhouoh/scratch/Gau-2811633.EUF"
Sent job to server.
Received result from server:
SCF Done:  E(UMA) =  -79.717411458501     A.U.
 Recovered energy= -79.7174114585     dipole=      0.000000000000      0.000000000000      0.000000000000
 Energy=    -79.7174115     NIter=   0.
 Dipole moment=       0.000000       0.000000       0.000000
 Leave Link  402 at Mon Oct  6 14:21:04 2025, MaxMem=   104857600 cpu:               0.0 elap:               0.1
 (Enter /home/zhouoh/g16/l716.exe)
 Dipole        = 0.00000000D+00 0.00000000D+00 0.00000000D+00
 ***** Axes restored to original set *****
 -------------------------------------------------------------------
 Center     Atomic                   Forces (Hartrees/Bohr)
 Number     Number              X              Y              Z
 -------------------------------------------------------------------
      1        6           0.026283490    0.037169479    0.064380041
      2        1           0.000009575   -0.000062192   -0.000018320
      3        1           0.000011166    0.000014102   -0.000063027
      4        1          -0.000061831   -0.000010013   -0.000019300
      5        6          -0.026283483   -0.037169476   -0.064380036
      6        1           0.000061833    0.000011611    0.000018368
      7        1          -0.000011091    0.000061663    0.000019251
      8        1          -0.000009657   -0.000015171    0.000063025
 -------------------------------------------------------------------
 Cartesian Forces:  Max     0.064380041 RMS     0.022761799
 Leave Link  716 at Mon Oct  6 14:21:04 2025, MaxMem=   104857600 cpu:               0.0 elap:               0.0
 (Enter /home/zhouoh/g16/l103.exe)

 GradGradGradGradGradGradGradGradGradGradGradGradGradGradGradGradGradGrad
 Berny optimization.
 Using GEDIIS/GDIIS optimizer.
 FormGI is forming the generalized inverse of G from B-inverse, IUseBI=4.
 Internal  Forces:  Max     0.078725841 RMS     0.014877825
 Search for a local minimum.
 Step number   2 out of a maximum of   38 on scan point     7 out of    21
 All quantities printed in internal units (Hartrees-Bohrs-Radians)
 RMS Force = .34789D-04 SwitMx=.10000D-02 MixMth= 2
 Mixed Optimization -- En-DIIS/RFO-DIIS
 Update second derivatives using D2CorX and points    1    2
 DE= -1.86D-04 DEPred=-2.00D-04 R= 9.29D-01
 TightC=F SS=  1.41D+00  RLast= 5.96D-02 DXNew= 2.9912D-01 1.7867D-01
 Trust test= 9.29D-01 RLast= 5.96D-02 DXMaxT set to 1.79D-01
 ITU=  1  0
 Use linear search instead of GDIIS.
     Eigenvalues ---    0.00122   0.06637   0.06637   0.06637   0.06643
     Eigenvalues ---    0.11123   0.16000   0.16000   0.16000   0.16000
     Eigenvalues ---    0.17134   0.36955   0.37230   0.37230   0.37230
     Eigenvalues ---    0.37230   0.372351000.000001000.000001000.00000
     Eigenvalues --- 1000.000001000.000001000.000001000.000001000.00000
     Eigenvalues --- 1000.000001000.000001000.00000
 RFO step:  Lambda=-5.25051812D-08 EMin= 1.22477065D-03
 Quartic linear search produced a step of -0.01763.
 Iteration  1 RMS(Cart)=  0.00042487 RMS(Int)=  0.00000277
 Iteration  2 RMS(Cart)=  0.00000009 RMS(Int)=  0.00000277
 Iteration  1 RMS(Cart)=  0.00000022 RMS(Int)=  0.00000000
 ITry= 1 IFail=0 DXMaxC= 8.67D-04 DCOld= 1.00D+10 DXMaxT= 1.79D-01 DXLimC= 3.00D+00 Rises=F
 ClnCor:  largest displacement from symmetrization is 5.79D-05 for atom     4.
 Variable       Old X    -DE/DX   Delta X   Delta X   Delta X     New X
                                 (Linear)    (Quad)   (Total)
    R1        2.04510   0.00006   0.00003   0.00015   0.00018   2.04528
    R2        2.04510   0.00006   0.00003   0.00015   0.00018   2.04528
    R3        2.04510   0.00006   0.00003   0.00015   0.00018   2.04528
    R4        4.04401  -0.07873   0.00000   0.00000   0.00000   4.04401
    R5        2.04510   0.00006   0.00003   0.00015   0.00018   2.04528
    R6        2.04510   0.00006   0.00003   0.00015   0.00018   2.04528
    R7        2.04510   0.00006   0.00003   0.00015   0.00018   2.04528
    A1        1.98993  -0.00003  -0.00027   0.00001  -0.00026   1.98966
    A2        1.98993  -0.00003  -0.00027   0.00001  -0.00026   1.98966
    A3        1.82249   0.00003   0.00033   0.00000   0.00033   1.82282
    A4        1.98993  -0.00003  -0.00027   0.00001  -0.00026   1.98966
    A5        1.82249   0.00003   0.00033  -0.00001   0.00033   1.82282
    A6        1.82249   0.00003   0.00033  -0.00003   0.00033   1.82282
    A7        1.82249   0.00003   0.00033   0.00000   0.00033   1.82282
    A8        1.82249   0.00003   0.00033  -0.00003   0.00033   1.82282
    A9        1.82249   0.00003   0.00033  -0.00001   0.00033   1.82282
   A10        1.98993  -0.00003  -0.00027   0.00001  -0.00026   1.98966
   A11        1.98993  -0.00003  -0.00027   0.00001  -0.00026   1.98966
   A12        1.98993  -0.00003  -0.00027   0.00001  -0.00026   1.98966
    D1        1.03286   0.00000   0.00006   0.00057   0.00063   1.03349
    D2        3.12726   0.00000   0.00006   0.00057   0.00063   3.12788
    D3       -1.06153   0.00000   0.00006   0.00057   0.00063  -1.06091
    D4       -1.06153   0.00000   0.00006   0.00057   0.00063  -1.06091
    D5        1.03286   0.00000   0.00006   0.00057   0.00063   1.03349
    D6        3.12726   0.00000   0.00006   0.00057   0.00063   3.12788
    D7        3.12726   0.00000   0.00006   0.00057   0.00063   3.12788
    D8       -1.06153   0.00000   0.00006   0.00057   0.00063  -1.06091
    D9        1.03286   0.00000   0.00006   0.00057   0.00063   1.03349
         Item               Value     Threshold  Converged?
 Maximum Force            0.000060     0.000450     YES
 RMS     Force            0.000035     0.000300     YES
 Maximum Displacement     0.000881     0.001800     YES
 RMS     Displacement     0.000434     0.001200     YES
 Predicted change in Energy=-2.637413D-08
 Optimization completed.
    -- Stationary point found.
                           ----------------------------
                           !   Optimized Parameters   !
                           ! (Angstroms and Degrees)  !
 --------------------------                            --------------------------
 ! Name  Definition              Value          Derivative Info.                !
 --------------------------------------------------------------------------------
 ! R1    R(1,2)                  1.0822         -DE/DX =    0.0001              !
 ! R2    R(1,3)                  1.0822         -DE/DX =    0.0001              !
 ! R3    R(1,4)                  1.0822         -DE/DX =    0.0001              !
 ! R4    R(1,5)                  2.14           -DE/DX =   -0.0787              !
 ! R5    R(5,6)                  1.0822         -DE/DX =    0.0001              !
 ! R6    R(5,7)                  1.0822         -DE/DX =    0.0001              !
 ! R7    R(5,8)                  1.0822         -DE/DX =    0.0001              !
 ! A1    A(2,1,3)              114.0144         -DE/DX =    0.0                 !
 ! A2    A(2,1,4)              114.0144         -DE/DX =    0.0                 !
 ! A3    A(2,1,5)              104.4209         -DE/DX =    0.0                 !
 ! A4    A(3,1,4)              114.0144         -DE/DX =    0.0                 !
 ! A5    A(3,1,5)              104.4209         -DE/DX =    0.0                 !
 ! A6    A(4,1,5)              104.4209         -DE/DX =    0.0                 !
 ! A7    A(1,5,6)              104.4209         -DE/DX =    0.0                 !
 ! A8    A(1,5,7)              104.4209         -DE/DX =    0.0                 !
 ! A9    A(1,5,8)              104.4209         -DE/DX =    0.0                 !
 ! A10   A(6,5,7)              114.0144         -DE/DX =    0.0                 !
 ! A11   A(6,5,8)              114.0144         -DE/DX =    0.0                 !
 ! A12   A(7,5,8)              114.0144         -DE/DX =    0.0                 !
 ! D1    D(2,1,5,6)             59.1787         -DE/DX =    0.0                 !
 ! D2    D(2,1,5,7)            179.1787         -DE/DX =    0.0                 !
 ! D3    D(2,1,5,8)            -60.8213         -DE/DX =    0.0                 !
 ! D4    D(3,1,5,6)            -60.8213         -DE/DX =    0.0                 !
 ! D5    D(3,1,5,7)             59.1787         -DE/DX =    0.0                 !
 ! D6    D(3,1,5,8)            179.1787         -DE/DX =    0.0                 !
 ! D7    D(4,1,5,6)            179.1787         -DE/DX =    0.0                 !
 ! D8    D(4,1,5,7)            -60.8213         -DE/DX =    0.0                 !
 ! D9    D(4,1,5,8)             59.1787         -DE/DX =    0.0                 !
 --------------------------------------------------------------------------------
 Iteration  1 RMS(Cart)=  0.05050528 RMS(Int)=  0.00000000
 Iteration  2 RMS(Cart)=  0.00000000 RMS(Int)=  0.00000000
 Iteration  1 RMS(Cart)=  0.00000021 RMS(Int)=  0.00000000
 GradGradGradGradGradGradGradGradGradGradGradGradGradGradGradGradGradGrad

 Leave Link  103 at Mon Oct  6 14:21:04 2025, MaxMem=   104857600 cpu:               0.0 elap:               0.0
 (Enter /home/zhouoh/g16/l202.exe)
                          Input orientation:                          
 ---------------------------------------------------------------------
 Center     Atomic      Atomic             Coordinates (Angstroms)
 Number     Number       Type             X           Y           Z
 ---------------------------------------------------------------------
      1          6           0       -2.032877   -0.247408   -0.285774
      2          1           0       -1.623735   -1.246284   -0.206661
      3          1           0       -1.633787    0.327659   -1.111265
      4          1           0       -3.111007   -0.205279   -0.200493
      5          6           0       -1.286198    0.808529    1.543179
      6          1           0       -0.208082    0.753960    1.465086
      7          1           0       -1.683603    1.811541    1.456886
      8          1           0       -1.697013    0.241766    2.368662
 ---------------------------------------------------------------------
                    Distance matrix (angstroms):
                    1          2          3          4          5
     1  C    0.000000
     2  H    1.082317   0.000000
     3  H    1.082317   1.815409   0.000000
     4  H    1.082317   1.815409   1.815409   0.000000
     5  C    2.240000   2.719950   2.719950   2.719950   0.000000
     6  H    2.719950   2.966444   2.975223   3.481561   1.082317
     7  H    2.719950   3.481561   2.966444   2.975223   1.082317
     8  H    2.719950   2.975223   3.481561   2.966444   1.082317
                    6          7          8
     6  H    0.000000
     7  H    1.815409   0.000000
     8  H    1.815409   1.815409   0.000000
 Stoichiometry    C2H6
 Framework group  D3[C3(C.C),X(H6)]
 Deg. of freedom     4
 Full point group                 D3      NOp   6
 RotChk:  IX=0 Diff= 2.40D-14
 Largest Abelian subgroup         C2      NOp   2
 Largest concise Abelian subgroup C2      NOp   2
                         Standard orientation:                         
 ---------------------------------------------------------------------
 Center     Atomic      Atomic             Coordinates (Angstroms)
 Number     Number       Type             X           Y           Z
 ---------------------------------------------------------------------
      1          6           0        0.000000   -0.000000    1.120000
      2          1           0       -0.517830    0.911275    1.389892
      3          1           0        1.048102   -0.007184    1.389892
      4          1           0       -0.530272   -0.904091    1.389892
      5          6           0        0.000000   -0.000000   -1.120000
      6          1           0        0.517830    0.911275   -1.389892
      7          1           0        0.530272   -0.904091   -1.389892
      8          1           0       -1.048102   -0.007184   -1.389892
 ---------------------------------------------------------------------
 Rotational constants (GHZ):          76.0769794          11.2036089          11.2036089
 Leave Link  202 at Mon Oct  6 14:21:04 2025, MaxMem=   104857600 cpu:               0.0 elap:               0.0
 (Enter /home/zhouoh/g16/l301.exe)
 Standard basis: STO-3G (5D, 7F)
 Ernie: Thresh=  0.10000D-02 Tol=  0.10000D-05 Strict=F.
 There are     8 symmetry adapted cartesian basis functions of A   symmetry.
 There are     8 symmetry adapted cartesian basis functions of B   symmetry.
 There are     8 symmetry adapted basis functions of A   symmetry.
 There are     8 symmetry adapted basis functions of B   symmetry.
    16 basis functions,    48 primitive gaussians,    16 cartesian basis functions
     9 alpha electrons        9 beta electrons
       nuclear repulsion energy        36.3837329654 Hartrees.
 IExCor=    0 DFT=F Ex=HF Corr=None ExCW=0 ScaHFX=  1.000000
 ScaDFX=  1.000000  1.000000  1.000000  1.000000 ScalE2=  1.000000  1.000000
 IRadAn=      5 IRanWt=     -1 IRanGd=            0 ICorTp=0 IEmpDi=  4
 NAtoms=    8 NActive=    8 NUniq=    2 SFac= 4.00D+00 NAtFMM=   60 NAOKFM=F Big=F
 Integral buffers will be    131072 words long.
 Raffenetti 1 integral format.
 Two-electron integral symmetry is turned on.
 Leave Link  301 at Mon Oct  6 14:21:04 2025, MaxMem=   104857600 cpu:               0.0 elap:               0.0
 (Enter /home/zhouoh/g16/l402.exe)
 External calculation of energy and first derivatives.
 Running external command "python ../GauUMA_client.py R"
         input file       "/home/zhouoh/scratch/Gau-2811633.EIn"
         output file      "/home/zhouoh/scratch/Gau-2811633.EOu"
         message file     "/home/zhouoh/scratch/Gau-2811633.EMs"
         fchk file        "/home/zhouoh/scratch/Gau-2811633.EFC"
         mat. el file     "/home/zhouoh/scratch/Gau-2811633.EUF"
Sent job to server.
Received result from server:
SCF Done:  E(UMA) =  -79.7026649999375     A.U.
 Recovered energy= -79.7026649999     dipole=      0.000000000000      0.000000000000      0.000000000000
 Energy=    -79.7026650     NIter=   0.
 Dipole moment=       0.000000       0.000000       0.000000
 Leave Link  402 at Mon Oct  6 14:21:04 2025, MaxMem=   104857600 cpu:               0.0 elap:               0.1
 (Enter /home/zhouoh/g16/l716.exe)
 Dipole        = 0.00000000D+00 0.00000000D+00 0.00000000D+00
 ***** Axes restored to original set *****
 -------------------------------------------------------------------
 Center     Atomic                   Forces (Hartrees/Bohr)
 Number     Number              X              Y              Z
 -------------------------------------------------------------------
      1        6           0.024149214    0.034151087    0.059152012
      2        1           0.000605514    0.000535713    0.001294232
      3        1           0.000602361    0.000855219    0.001111091
      4        1           0.000303198    0.000746146    0.001296212
      5        6          -0.024149066   -0.034151183   -0.059151998
      6        1          -0.000303256   -0.000749809   -0.001294029
      7        1          -0.000602085   -0.000534439   -0.001296419
      8        1          -0.000605879   -0.000852731   -0.001111097
 -------------------------------------------------------------------
 Cartesian Forces:  Max     0.059152012 RMS     0.020927309
 Leave Link  716 at Mon Oct  6 14:21:04 2025, MaxMem=   104857600 cpu:               0.0 elap:               0.0
 (Enter /home/zhouoh/g16/l103.exe)

 GradGradGradGradGradGradGradGradGradGradGradGradGradGradGradGradGradGrad
 Berny optimization.
 FormGI is forming the generalized inverse of G from B-inverse, IUseBI=4.
 Internal  Forces:  Max     0.076979538 RMS     0.014591409
 Search for a local minimum.
 Step number   1 out of a maximum of   38 on scan point     8 out of    21
 All quantities printed in internal units (Hartrees-Bohrs-Radians)
 RMS Force = .11484D-02 SwitMx=.10000D-02 MixMth= 1
 Mixed Optimization -- RFO/linear search
 Second derivative matrix not updated -- first step.
 ITU=  0
     Eigenvalues ---    0.00122   0.06634   0.06634   0.06634   0.06640
     Eigenvalues ---    0.11123   0.16000   0.16000   0.16000   0.16000
     Eigenvalues ---    0.17134   0.36955   0.37230   0.37230   0.37230
     Eigenvalues ---    0.37230   0.372351000.000001000.000001000.00000
     Eigenvalues --- 1000.000001000.000001000.000001000.000001000.00000
     Eigenvalues --- 1000.000001000.000001000.00000
 RFO step:  Lambda=-3.19261242D-04 EMin= 1.22476483D-03
 Linear search not attempted -- first point.
 Iteration  1 RMS(Cart)=  0.01620724 RMS(Int)=  0.00022210
 Iteration  2 RMS(Cart)=  0.00021431 RMS(Int)=  0.00014192
 Iteration  3 RMS(Cart)=  0.00000008 RMS(Int)=  0.00014192
 Iteration  1 RMS(Cart)=  0.00000000 RMS(Int)=  0.00000000
 ITry= 1 IFail=0 DXMaxC= 3.14D-02 DCOld= 1.00D+10 DXMaxT= 1.79D-01 DXLimC= 3.00D+00 Rises=F
 ClnCor:  largest displacement from symmetrization is 9.78D-05 for atom     4.
 Variable       Old X    -DE/DX   Delta X   Delta X   Delta X     New X
                                 (Linear)    (Quad)   (Total)
    R1        2.04528  -0.00017   0.00000  -0.00149  -0.00148   2.04380
    R2        2.04528  -0.00017   0.00000  -0.00148  -0.00148   2.04380
    R3        2.04528  -0.00017   0.00000  -0.00148  -0.00148   2.04380
    R4        4.23299  -0.07698   0.00000   0.00000  -0.00000   4.23299
    R5        2.04528  -0.00017   0.00000  -0.00149  -0.00148   2.04380
    R6        2.04528  -0.00017   0.00000  -0.00148  -0.00148   2.04380
    R7        2.04528  -0.00017   0.00000  -0.00148  -0.00148   2.04380
    A1        1.98966   0.00151   0.00000   0.01353   0.01328   2.00294
    A2        1.98966   0.00151   0.00000   0.01354   0.01328   2.00294
    A3        1.82282  -0.00190   0.00000  -0.01705  -0.01723   1.80559
    A4        1.98966   0.00151   0.00000   0.01355   0.01328   2.00294
    A5        1.82282  -0.00190   0.00000  -0.01707  -0.01723   1.80559
    A6        1.82282  -0.00190   0.00000  -0.01710  -0.01723   1.80559
    A7        1.82282  -0.00190   0.00000  -0.01705  -0.01723   1.80559
    A8        1.82282  -0.00190   0.00000  -0.01710  -0.01723   1.80559
    A9        1.82282  -0.00190   0.00000  -0.01707  -0.01723   1.80559
   A10        1.98966   0.00151   0.00000   0.01354   0.01328   2.00294
   A11        1.98966   0.00151   0.00000   0.01353   0.01328   2.00294
   A12        1.98966   0.00151   0.00000   0.01355   0.01328   2.00294
    D1        1.03349  -0.00000   0.00000  -0.00205  -0.00205   1.03144
    D2        3.12788  -0.00000   0.00000  -0.00205  -0.00205   3.12584
    D3       -1.06091  -0.00000   0.00000  -0.00205  -0.00205  -1.06295
    D4       -1.06091  -0.00000   0.00000  -0.00205  -0.00205  -1.06295
    D5        1.03349  -0.00000   0.00000  -0.00205  -0.00205   1.03144
    D6        3.12788  -0.00000   0.00000  -0.00205  -0.00205   3.12584
    D7        3.12788  -0.00000   0.00000  -0.00205  -0.00205   3.12584
    D8       -1.06091  -0.00000   0.00000  -0.00205  -0.00205  -1.06295
    D9        1.03349  -0.00000   0.00000  -0.00205  -0.00205   1.03144
         Item               Value     Threshold  Converged?
 Maximum Force            0.001904     0.000450     NO 
 RMS     Force            0.001148     0.000300     NO 
 Maximum Displacement     0.031290     0.001800     NO 
 RMS     Displacement     0.016352     0.001200     NO 
 Predicted change in Energy=-1.600868D-04
 GradGradGradGradGradGradGradGradGradGradGradGradGradGradGradGradGradGrad

 Leave Link  103 at Mon Oct  6 14:21:04 2025, MaxMem=   104857600 cpu:               0.0 elap:               0.0
 (Enter /home/zhouoh/g16/l202.exe)
                          Input orientation:                          
 ---------------------------------------------------------------------
 Center     Atomic      Atomic             Coordinates (Angstroms)
 Number     Number       Type             X           Y           Z
 ---------------------------------------------------------------------
      1          6           0       -2.032877   -0.247408   -0.285774
      2          1           0       -1.614985   -1.240453   -0.191206
      3          1           0       -1.626833    0.339398   -1.098488
      4          1           0       -3.108426   -0.196991   -0.183938
      5          6           0       -1.286198    0.808529    1.543179
      6          1           0       -0.210665    0.743761    1.449635
      7          1           0       -1.690550    1.806345    1.440328
      8          1           0       -1.705768    0.231303    2.355883
 ---------------------------------------------------------------------
                    Distance matrix (angstroms):
                    1          2          3          4          5
     1  C    0.000000
     2  H    1.081535   0.000000
     3  H    1.081535   1.821876   0.000000
     4  H    1.081535   1.821876   1.821876   0.000000
     5  C    2.240000   2.704537   2.704537   2.704537   0.000000
     6  H    2.704537   2.932845   2.943123   3.456963   1.081535
     7  H    2.704537   3.456963   2.932845   2.943123   1.081535
     8  H    2.704537   2.943123   3.456963   2.932845   1.081535
                    6          7          8
     6  H    0.000000
     7  H    1.821876   0.000000
     8  H    1.821876   1.821876   0.000000
 Stoichiometry    C2H6
 Framework group  D3[C3(C.C),X(H6)]
 Deg. of freedom     4
 Full point group                 D3      NOp   6
 RotChk:  IX=0 Diff= 4.86D-16
 Largest Abelian subgroup         C2      NOp   2
 Largest concise Abelian subgroup C2      NOp   2
                         Standard orientation:                         
 ---------------------------------------------------------------------
 Center     Atomic      Atomic             Coordinates (Angstroms)
 Number     Number       Type             X           Y           Z
 ---------------------------------------------------------------------
      1          6           0        0.000000   -0.000000    1.120000
      2          1           0       -0.518737    0.915053    1.371607
      3          1           0        1.051828   -0.008287    1.371607
      4          1           0       -0.533091   -0.906766    1.371607
      5          6           0        0.000000   -0.000000   -1.120000
      6          1           0        0.518737    0.915053   -1.371607
      7          1           0        0.533091   -0.906766   -1.371607
      8          1           0       -1.051828   -0.008287   -1.371607
 ---------------------------------------------------------------------
 Rotational constants (GHZ):          75.5378044          11.2739939          11.2739939
 Leave Link  202 at Mon Oct  6 14:21:04 2025, MaxMem=   104857600 cpu:               0.0 elap:               0.0
 (Enter /home/zhouoh/g16/l301.exe)
 Standard basis: STO-3G (5D, 7F)
 Ernie: Thresh=  0.10000D-02 Tol=  0.10000D-05 Strict=F.
 There are     8 symmetry adapted cartesian basis functions of A   symmetry.
 There are     8 symmetry adapted cartesian basis functions of B   symmetry.
 There are     8 symmetry adapted basis functions of A   symmetry.
 There are     8 symmetry adapted basis functions of B   symmetry.
    16 basis functions,    48 primitive gaussians,    16 cartesian basis functions
     9 alpha electrons        9 beta electrons
       nuclear repulsion energy        36.4453753701 Hartrees.
 IExCor=    0 DFT=F Ex=HF Corr=None ExCW=0 ScaHFX=  1.000000
 ScaDFX=  1.000000  1.000000  1.000000  1.000000 ScalE2=  1.000000  1.000000
 IRadAn=      5 IRanWt=     -1 IRanGd=            0 ICorTp=0 IEmpDi=  4
 NAtoms=    8 NActive=    8 NUniq=    2 SFac= 4.00D+00 NAtFMM=   60 NAOKFM=F Big=F
 Integral buffers will be    131072 words long.
 Raffenetti 1 integral format.
 Two-electron integral symmetry is turned on.
 Leave Link  301 at Mon Oct  6 14:21:04 2025, MaxMem=   104857600 cpu:               0.0 elap:               0.0
 (Enter /home/zhouoh/g16/l402.exe)
 External calculation of energy and first derivatives.
 Running external command "python ../GauUMA_client.py R"
         input file       "/home/zhouoh/scratch/Gau-2811633.EIn"
         output file      "/home/zhouoh/scratch/Gau-2811633.EOu"
         message file     "/home/zhouoh/scratch/Gau-2811633.EMs"
         fchk file        "/home/zhouoh/scratch/Gau-2811633.EFC"
         mat. el file     "/home/zhouoh/scratch/Gau-2811633.EUF"
Sent job to server.
Received result from server:
SCF Done:  E(UMA) =  -79.70283053951574     A.U.
 Recovered energy= -79.7028305395     dipole=      0.000000000000      0.000000000000      0.000000000000
 Energy=    -79.7028305     NIter=   0.
 Dipole moment=       0.000000       0.000000       0.000000
 Leave Link  402 at Mon Oct  6 14:21:04 2025, MaxMem=   104857600 cpu:               0.0 elap:               0.1
 (Enter /home/zhouoh/g16/l716.exe)
 Dipole        = 0.00000000D+00 0.00000000D+00 0.00000000D+00
 ***** Axes restored to original set *****
 -------------------------------------------------------------------
 Center     Atomic                   Forces (Hartrees/Bohr)
 Number     Number              X              Y              Z
 -------------------------------------------------------------------
      1        6           0.025072715    0.035457199    0.061414301
      2        1           0.000023743    0.000011919    0.000045415
      3        1           0.000023539    0.000033520    0.000033037
      4        1           0.000003335    0.000026178    0.000045548
      5        6          -0.025072685   -0.035457222   -0.061414300
      6        1          -0.000003323   -0.000026381   -0.000045401
      7        1          -0.000023545   -0.000011864   -0.000045561
      8        1          -0.000023780   -0.000033350   -0.000033039
 -------------------------------------------------------------------
 Cartesian Forces:  Max     0.061414301 RMS     0.021713242
 Leave Link  716 at Mon Oct  6 14:21:04 2025, MaxMem=   104857600 cpu:               0.0 elap:               0.0
 (Enter /home/zhouoh/g16/l103.exe)

 GradGradGradGradGradGradGradGradGradGradGradGradGradGradGradGradGradGrad
 Berny optimization.
 Using GEDIIS/GDIIS optimizer.
 FormGI is forming the generalized inverse of G from B-inverse, IUseBI=4.
 Internal  Forces:  Max     0.075368701 RMS     0.014243402
 Search for a local minimum.
 Step number   2 out of a maximum of   38 on scan point     8 out of    21
 All quantities printed in internal units (Hartrees-Bohrs-Radians)
 RMS Force = .40589D-04 SwitMx=.10000D-02 MixMth= 2
 Mixed Optimization -- En-DIIS/RFO-DIIS
 Update second derivatives using D2CorX and points    1    2
 DE= -1.66D-04 DEPred=-1.60D-04 R= 1.03D+00
 TightC=F SS=  1.41D+00  RLast= 5.38D-02 DXNew= 3.0049D-01 1.6129D-01
 Trust test= 1.03D+00 RLast= 5.38D-02 DXMaxT set to 1.79D-01
 ITU=  1  0
 Use linear search instead of GDIIS.
     Eigenvalues ---    0.00123   0.06803   0.06803   0.06803   0.06808
     Eigenvalues ---    0.10776   0.16000   0.16000   0.16000   0.16000
     Eigenvalues ---    0.17135   0.36954   0.37230   0.37230   0.37230
     Eigenvalues ---    0.37230   0.372351000.000001000.000001000.00000
     Eigenvalues --- 1000.000001000.000001000.000001000.000001000.00000
     Eigenvalues --- 1000.000001000.000001000.00000
 RFO step:  Lambda= 0.00000000D+00 EMin= 1.22515442D-03
 Quartic linear search produced a step of  0.03607.
 Iteration  1 RMS(Cart)=  0.00059631 RMS(Int)=  0.00000548
 Iteration  2 RMS(Cart)=  0.00000029 RMS(Int)=  0.00000547
 Iteration  1 RMS(Cart)=  0.00000002 RMS(Int)=  0.00000000
 ITry= 1 IFail=0 DXMaxC= 1.11D-03 DCOld= 1.00D+10 DXMaxT= 1.79D-01 DXLimC= 3.00D+00 Rises=F
 ClnCor:  largest displacement from symmetrization is 7.99D-06 for atom     4.
 Variable       Old X    -DE/DX   Delta X   Delta X   Delta X     New X
                                 (Linear)    (Quad)   (Total)
    R1        2.04380   0.00000  -0.00005   0.00002  -0.00003   2.04377
    R2        2.04380   0.00000  -0.00005   0.00002  -0.00003   2.04377
    R3        2.04380   0.00000  -0.00005   0.00002  -0.00003   2.04377
    R4        4.23299  -0.07537  -0.00000   0.00000   0.00000   4.23299
    R5        2.04380   0.00000  -0.00005   0.00002  -0.00003   2.04377
    R6        2.04380   0.00000  -0.00005   0.00002  -0.00003   2.04377
    R7        2.04380   0.00000  -0.00005   0.00002  -0.00003   2.04377
    A1        2.00294   0.00005   0.00048   0.00000   0.00047   2.00341
    A2        2.00294   0.00005   0.00048   0.00000   0.00047   2.00341
    A3        1.80559  -0.00007  -0.00062   0.00000  -0.00063   1.80496
    A4        2.00294   0.00005   0.00048   0.00000   0.00047   2.00341
    A5        1.80559  -0.00007  -0.00062  -0.00000  -0.00063   1.80496
    A6        1.80559  -0.00007  -0.00062  -0.00000  -0.00063   1.80496
    A7        1.80559  -0.00007  -0.00062   0.00000  -0.00063   1.80496
    A8        1.80559  -0.00007  -0.00062  -0.00000  -0.00063   1.80496
    A9        1.80559  -0.00007  -0.00062  -0.00000  -0.00063   1.80496
   A10        2.00294   0.00005   0.00048   0.00000   0.00047   2.00341
   A11        2.00294   0.00005   0.00048   0.00000   0.00047   2.00341
   A12        2.00294   0.00005   0.00048   0.00000   0.00047   2.00341
    D1        1.03144  -0.00000  -0.00007   0.00008   0.00000   1.03144
    D2        3.12584  -0.00000  -0.00007   0.00008   0.00000   3.12584
    D3       -1.06295  -0.00000  -0.00007   0.00007   0.00000  -1.06295
    D4       -1.06295  -0.00000  -0.00007   0.00007   0.00000  -1.06295
    D5        1.03144  -0.00000  -0.00007   0.00007   0.00000   1.03144
    D6        3.12584  -0.00000  -0.00007   0.00007   0.00000   3.12584
    D7        3.12584  -0.00000  -0.00007   0.00008   0.00000   3.12584
    D8       -1.06295   0.00000  -0.00007   0.00008   0.00000  -1.06295
    D9        1.03144  -0.00000  -0.00007   0.00007   0.00000   1.03144
         Item               Value     Threshold  Converged?
 Maximum Force            0.000069     0.000450     YES
 RMS     Force            0.000041     0.000300     YES
 Maximum Displacement     0.001104     0.001800     YES
 RMS     Displacement     0.000595     0.001200     YES
 Predicted change in Energy=-1.989644D-07
 Optimization completed.
    -- Stationary point found.
                           ----------------------------
                           !   Optimized Parameters   !
                           ! (Angstroms and Degrees)  !
 --------------------------                            --------------------------
 ! Name  Definition              Value          Derivative Info.                !
 --------------------------------------------------------------------------------
 ! R1    R(1,2)                  1.0815         -DE/DX =    0.0                 !
 ! R2    R(1,3)                  1.0815         -DE/DX =    0.0                 !
 ! R3    R(1,4)                  1.0815         -DE/DX =    0.0                 !
 ! R4    R(1,5)                  2.24           -DE/DX =   -0.0754              !
 ! R5    R(5,6)                  1.0815         -DE/DX =    0.0                 !
 ! R6    R(5,7)                  1.0815         -DE/DX =    0.0                 !
 ! R7    R(5,8)                  1.0815         -DE/DX =    0.0                 !
 ! A1    A(2,1,3)              114.76           -DE/DX =    0.0001              !
 ! A2    A(2,1,4)              114.76           -DE/DX =    0.0001              !
 ! A3    A(2,1,5)              103.4525         -DE/DX =   -0.0001              !
 ! A4    A(3,1,4)              114.76           -DE/DX =    0.0001              !
 ! A5    A(3,1,5)              103.4525         -DE/DX =   -0.0001              !
 ! A6    A(4,1,5)              103.4525         -DE/DX =   -0.0001              !
 ! A7    A(1,5,6)              103.4525         -DE/DX =   -0.0001              !
 ! A8    A(1,5,7)              103.4525         -DE/DX =   -0.0001              !
 ! A9    A(1,5,8)              103.4525         -DE/DX =   -0.0001              !
 ! A10   A(6,5,7)              114.76           -DE/DX =    0.0001              !
 ! A11   A(6,5,8)              114.76           -DE/DX =    0.0001              !
 ! A12   A(7,5,8)              114.76           -DE/DX =    0.0001              !
 ! D1    D(2,1,5,6)             59.0972         -DE/DX =    0.0                 !
 ! D2    D(2,1,5,7)            179.0972         -DE/DX =    0.0                 !
 ! D3    D(2,1,5,8)            -60.9028         -DE/DX =    0.0                 !
 ! D4    D(3,1,5,6)            -60.9028         -DE/DX =    0.0                 !
 ! D5    D(3,1,5,7)             59.0972         -DE/DX =    0.0                 !
 ! D6    D(3,1,5,8)            179.0972         -DE/DX =    0.0                 !
 ! D7    D(4,1,5,6)            179.0972         -DE/DX =    0.0                 !
 ! D8    D(4,1,5,7)            -60.9028         -DE/DX =    0.0                 !
 ! D9    D(4,1,5,8)             59.0972         -DE/DX =    0.0                 !
 --------------------------------------------------------------------------------
 Iteration  1 RMS(Cart)=  0.05050508 RMS(Int)=  0.00000000
 Iteration  2 RMS(Cart)=  0.00000000 RMS(Int)=  0.00000000
 Iteration  1 RMS(Cart)=  0.00000002 RMS(Int)=  0.00000000
 GradGradGradGradGradGradGradGradGradGradGradGradGradGradGradGradGradGrad

 Leave Link  103 at Mon Oct  6 14:21:04 2025, MaxMem=   104857600 cpu:               0.0 elap:               0.0
 (Enter /home/zhouoh/g16/l202.exe)
                          Input orientation:                          
 ---------------------------------------------------------------------
 Center     Atomic      Atomic             Coordinates (Angstroms)
 Number     Number       Type             X           Y           Z
 ---------------------------------------------------------------------
      1          6           0       -2.049544   -0.270978   -0.326599
      2          1           0       -1.631363   -1.263829   -0.231447
      3          1           0       -1.643212    0.316237   -1.138852
      4          1           0       -3.125006   -0.220224   -0.224179
      5          6           0       -1.269531    0.832099    1.584004
      6          1           0       -0.194085    0.766993    1.489876
      7          1           0       -1.674171    1.829721    1.480569
      8          1           0       -1.689390    0.254465    2.396248
 ---------------------------------------------------------------------
                    Distance matrix (angstroms):
                    1          2          3          4          5
     1  C    0.000000
     2  H    1.081519   0.000000
     3  H    1.081519   1.822123   0.000000
     4  H    1.081519   1.822123   1.822123   0.000000
     5  C    2.340000   2.796372   2.796372   2.796372   0.000000
     6  H    2.796372   3.025386   3.035352   3.535941   1.081519
     7  H    2.796372   3.535941   3.025386   3.035352   1.081519
     8  H    2.796372   3.035352   3.535941   3.025386   1.081519
                    6          7          8
     6  H    0.000000
     7  H    1.822123   0.000000
     8  H    1.822123   1.822123   0.000000
 Stoichiometry    C2H6
 Framework group  D3[C3(C.C),X(H6)]
 Deg. of freedom     4
 Full point group                 D3      NOp   6
 RotChk:  IX=0 Diff= 3.20D-14
 Largest Abelian subgroup         C2      NOp   2
 Largest concise Abelian subgroup C2      NOp   2
                         Standard orientation:                         
 ---------------------------------------------------------------------
 Center     Atomic      Atomic             Coordinates (Angstroms)
 Number     Number       Type             X           Y           Z
 ---------------------------------------------------------------------
      1          6           0       -0.000000   -0.000000    1.170000
      2          1           0       -0.518808    0.915177    1.420943
      3          1           0        1.051971   -0.008288    1.420943
      4          1           0       -0.533163   -0.906889    1.420943
      5          6           0        0.000000    0.000000   -1.170000
      6          1           0        0.518808    0.915177   -1.420943
      7          1           0        0.533163   -0.906889   -1.420943
      8          1           0       -1.051971   -0.008288   -1.420943
 ---------------------------------------------------------------------
 Rotational constants (GHZ):          75.5173358          10.4397790          10.4397790
 Leave Link  202 at Mon Oct  6 14:21:04 2025, MaxMem=   104857600 cpu:               0.0 elap:               0.0
 (Enter /home/zhouoh/g16/l301.exe)
 Standard basis: STO-3G (5D, 7F)
 Ernie: Thresh=  0.10000D-02 Tol=  0.10000D-05 Strict=F.
 There are     8 symmetry adapted cartesian basis functions of A   symmetry.
 There are     8 symmetry adapted cartesian basis functions of B   symmetry.
 There are     8 symmetry adapted basis functions of A   symmetry.
 There are     8 symmetry adapted basis functions of B   symmetry.
    16 basis functions,    48 primitive gaussians,    16 cartesian basis functions
     9 alpha electrons        9 beta electrons
       nuclear repulsion energy        35.8074201921 Hartrees.
 IExCor=    0 DFT=F Ex=HF Corr=None ExCW=0 ScaHFX=  1.000000
 ScaDFX=  1.000000  1.000000  1.000000  1.000000 ScalE2=  1.000000  1.000000
 IRadAn=      5 IRanWt=     -1 IRanGd=            0 ICorTp=0 IEmpDi=  4
 NAtoms=    8 NActive=    8 NUniq=    2 SFac= 4.00D+00 NAtFMM=   60 NAOKFM=F Big=F
 Integral buffers will be    131072 words long.
 Raffenetti 1 integral format.
 Two-electron integral symmetry is turned on.
 Leave Link  301 at Mon Oct  6 14:21:04 2025, MaxMem=   104857600 cpu:               0.0 elap:               0.0
 (Enter /home/zhouoh/g16/l402.exe)
 External calculation of energy and first derivatives.
 Running external command "python ../GauUMA_client.py R"
         input file       "/home/zhouoh/scratch/Gau-2811633.EIn"
         output file      "/home/zhouoh/scratch/Gau-2811633.EOu"
         message file     "/home/zhouoh/scratch/Gau-2811633.EMs"
         fchk file        "/home/zhouoh/scratch/Gau-2811633.EFC"
         mat. el file     "/home/zhouoh/scratch/Gau-2811633.EUF"
Sent job to server.
Received result from server:
SCF Done:  E(UMA) =  -79.68889297180908     A.U.
 Recovered energy= -79.6888929718     dipole=      0.000000000000      0.000000000000      0.000000000000
 Energy=    -79.6888930     NIter=   0.
 Dipole moment=       0.000000       0.000000       0.000000
 Leave Link  402 at Mon Oct  6 14:21:05 2025, MaxMem=   104857600 cpu:               0.0 elap:               0.1
 (Enter /home/zhouoh/g16/l716.exe)
 Dipole        = 0.00000000D+00 0.00000000D+00 0.00000000D+00
 ***** Axes restored to original set *****
 -------------------------------------------------------------------
 Center     Atomic                   Forces (Hartrees/Bohr)
 Number     Number              X              Y              Z
 -------------------------------------------------------------------
      1        6           0.022647539    0.032027600    0.055473961
      2        1           0.000535352    0.000478660    0.001146312
      3        1           0.000531873    0.000755880    0.000987706
      4        1           0.000272863    0.000660588    0.001148477
      5        6          -0.022647529   -0.032027609   -0.055473960
      6        1          -0.000272857   -0.000664591   -0.001146133
      7        1          -0.000531572   -0.000477339   -0.001148655
      8        1          -0.000535670   -0.000753191   -0.000987711
 -------------------------------------------------------------------
 Cartesian Forces:  Max     0.055473961 RMS     0.019624661
 Leave Link  716 at Mon Oct  6 14:21:05 2025, MaxMem=   104857600 cpu:               0.0 elap:               0.0
 (Enter /home/zhouoh/g16/l103.exe)

 GradGradGradGradGradGradGradGradGradGradGradGradGradGradGradGradGradGrad
 Berny optimization.
 FormGI is forming the generalized inverse of G from B-inverse, IUseBI=4.
 Internal  Forces:  Max     0.071961650 RMS     0.013637883
 Search for a local minimum.
 Step number   1 out of a maximum of   38 on scan point     9 out of    21
 All quantities printed in internal units (Hartrees-Bohrs-Radians)
 RMS Force = .10416D-02 SwitMx=.10000D-02 MixMth= 1
 Mixed Optimization -- RFO/linear search
 Second derivative matrix not updated -- first step.
 ITU=  0
     Eigenvalues ---    0.00123   0.06809   0.06809   0.06809   0.06814
     Eigenvalues ---    0.10775   0.16000   0.16000   0.16000   0.16000
     Eigenvalues ---    0.17135   0.36954   0.37230   0.37230   0.37230
     Eigenvalues ---    0.37230   0.372351000.000001000.000001000.00000
     Eigenvalues --- 1000.000001000.000001000.000001000.000001000.00000
     Eigenvalues --- 1000.000001000.000001000.00000
 RFO step:  Lambda=-2.71196415D-04 EMin= 1.22516545D-03
 Linear search not attempted -- first point.
 Iteration  1 RMS(Cart)=  0.01551322 RMS(Int)=  0.00020889
 Iteration  2 RMS(Cart)=  0.00019919 RMS(Int)=  0.00013811
 Iteration  3 RMS(Cart)=  0.00000008 RMS(Int)=  0.00013811
 Iteration  1 RMS(Cart)=  0.00000000 RMS(Int)=  0.00000000
 ITry= 1 IFail=0 DXMaxC= 2.98D-02 DCOld= 1.00D+10 DXMaxT= 1.79D-01 DXLimC= 3.00D+00 Rises=F
 ClnCor:  largest displacement from symmetrization is 2.25D-05 for atom     4.
 Variable       Old X    -DE/DX   Delta X   Delta X   Delta X     New X
                                 (Linear)    (Quad)   (Total)
    R1        2.04377  -0.00013   0.00000  -0.00130  -0.00130   2.04247
    R2        2.04377  -0.00013   0.00000  -0.00130  -0.00130   2.04247
    R3        2.04377  -0.00013   0.00000  -0.00130  -0.00130   2.04247
    R4        4.42196  -0.07196   0.00000   0.00000   0.00000   4.42196
    R5        2.04377  -0.00013   0.00000  -0.00130  -0.00130   2.04247
    R6        2.04377  -0.00013   0.00000  -0.00130  -0.00130   2.04247
    R7        2.04377  -0.00013   0.00000  -0.00130  -0.00130   2.04247
    A1        2.00341   0.00132   0.00000   0.01220   0.01196   2.01537
    A2        2.00341   0.00132   0.00000   0.01220   0.01196   2.01537
    A3        1.80496  -0.00177   0.00000  -0.01636  -0.01653   1.78843
    A4        2.00341   0.00132   0.00000   0.01221   0.01196   2.01537
    A5        1.80496  -0.00177   0.00000  -0.01636  -0.01653   1.78843
    A6        1.80496  -0.00177   0.00000  -0.01637  -0.01653   1.78843
    A7        1.80496  -0.00177   0.00000  -0.01636  -0.01653   1.78843
    A8        1.80496  -0.00177   0.00000  -0.01637  -0.01653   1.78843
    A9        1.80496  -0.00177   0.00000  -0.01636  -0.01653   1.78843
   A10        2.00341   0.00132   0.00000   0.01220   0.01196   2.01537
   A11        2.00341   0.00132   0.00000   0.01220   0.01196   2.01537
   A12        2.00341   0.00132   0.00000   0.01221   0.01196   2.01537
    D1        1.03144  -0.00000   0.00000  -0.00168  -0.00168   1.02976
    D2        3.12584  -0.00000   0.00000  -0.00168  -0.00168   3.12415
    D3       -1.06295  -0.00000   0.00000  -0.00168  -0.00168  -1.06464
    D4       -1.06295  -0.00000   0.00000  -0.00168  -0.00168  -1.06464
    D5        1.03144  -0.00000   0.00000  -0.00168  -0.00168   1.02976
    D6        3.12584  -0.00000   0.00000  -0.00168  -0.00168   3.12415
    D7        3.12584  -0.00000   0.00000  -0.00168  -0.00168   3.12415
    D8       -1.06295  -0.00000   0.00000  -0.00168  -0.00168  -1.06464
    D9        1.03144  -0.00000   0.00000  -0.00168  -0.00168   1.02976
         Item               Value     Threshold  Converged?
 Maximum Force            0.001768     0.000450     NO 
 RMS     Force            0.001042     0.000300     NO 
 Maximum Displacement     0.029792     0.001800     NO 
 RMS     Displacement     0.015665     0.001200     NO 
 Predicted change in Energy=-1.359252D-04
 GradGradGradGradGradGradGradGradGradGradGradGradGradGradGradGradGradGrad

 Leave Link  103 at Mon Oct  6 14:21:05 2025, MaxMem=   104857600 cpu:               0.0 elap:               0.0
 (Enter /home/zhouoh/g16/l202.exe)
                          Input orientation:                          
 ---------------------------------------------------------------------
 Center     Atomic      Atomic             Coordinates (Angstroms)
 Number     Number       Type             X           Y           Z
 ---------------------------------------------------------------------
      1          6           0       -2.049544   -0.270978   -0.326599
      2          1           0       -1.623194   -1.258054   -0.216595
      3          1           0       -1.636530    0.327263   -1.126425
      4          1           0       -3.122284   -0.212175   -0.208416
      5          6           0       -1.269531    0.832099    1.584004
      6          1           0       -0.196808    0.757362    1.475028
      7          1           0       -1.680847    1.824472    1.464803
      8          1           0       -1.697563    0.244495    2.383820
 ---------------------------------------------------------------------
                    Distance matrix (angstroms):
                    1          2          3          4          5
     1  C    0.000000
     2  H    1.080831   0.000000
     3  H    1.080831   1.827895   0.000000
     4  H    1.080831   1.827895   1.827895   0.000000
     5  C    2.340000   2.781361   2.781361   2.781361   0.000000
     6  H    2.781361   2.993002   3.004220   3.511751   1.080831
     7  H    2.781361   3.511751   2.993002   3.004220   1.080831
     8  H    2.781361   3.004220   3.511751   2.993002   1.080831
                    6          7          8
     6  H    0.000000
     7  H    1.827895   0.000000
     8  H    1.827895   1.827895   0.000000
 Stoichiometry    C2H6
 Framework group  D3[C3(C.C),X(H6)]
 Deg. of freedom     4
 Full point group                 D3      NOp   6
 RotChk:  IX=0 Diff= 6.09D-16
 Largest Abelian subgroup         C2      NOp   2
 Largest concise Abelian subgroup C2      NOp   2
                         Standard orientation:                         
 ---------------------------------------------------------------------
 Center     Atomic      Atomic             Coordinates (Angstroms)
 Number     Number       Type             X           Y           Z
 ---------------------------------------------------------------------
      1          6           0       -0.000000   -0.000000    1.170000
      2          1           0       -0.519679    0.918514    1.403371
      3          1           0        1.055296   -0.009201    1.403371
      4          1           0       -0.535616   -0.909312    1.403371
      5          6           0        0.000000   -0.000000   -1.170000
      6          1           0        0.519679    0.918514   -1.403371
      7          1           0        0.535616   -0.909312   -1.403371
      8          1           0       -1.055296   -0.009201   -1.403371
 ---------------------------------------------------------------------
 Rotational constants (GHZ):          75.0411608          10.5002674          10.5002674
 Leave Link  202 at Mon Oct  6 14:21:05 2025, MaxMem=   104857600 cpu:               0.0 elap:               0.0
 (Enter /home/zhouoh/g16/l301.exe)
 Standard basis: STO-3G (5D, 7F)
 Ernie: Thresh=  0.10000D-02 Tol=  0.10000D-05 Strict=F.
 There are     8 symmetry adapted cartesian basis functions of A   symmetry.
 There are     8 symmetry adapted cartesian basis functions of B   symmetry.
 There are     8 symmetry adapted basis functions of A   symmetry.
 There are     8 symmetry adapted basis functions of B   symmetry.
    16 basis functions,    48 primitive gaussians,    16 cartesian basis functions
     9 alpha electrons        9 beta electrons
       nuclear repulsion energy        35.8640856171 Hartrees.
 IExCor=    0 DFT=F Ex=HF Corr=None ExCW=0 ScaHFX=  1.000000
 ScaDFX=  1.000000  1.000000  1.000000  1.000000 ScalE2=  1.000000  1.000000
 IRadAn=      5 IRanWt=     -1 IRanGd=            0 ICorTp=0 IEmpDi=  4
 NAtoms=    8 NActive=    8 NUniq=    2 SFac= 4.00D+00 NAtFMM=   60 NAOKFM=F Big=F
 Integral buffers will be    131072 words long.
 Raffenetti 1 integral format.
 Two-electron integral symmetry is turned on.
 Leave Link  301 at Mon Oct  6 14:21:05 2025, MaxMem=   104857600 cpu:               0.0 elap:               0.0
 (Enter /home/zhouoh/g16/l402.exe)
 External calculation of energy and first derivatives.
 Running external command "python ../GauUMA_client.py R"
         input file       "/home/zhouoh/scratch/Gau-2811633.EIn"
         output file      "/home/zhouoh/scratch/Gau-2811633.EOu"
         message file     "/home/zhouoh/scratch/Gau-2811633.EMs"
         fchk file        "/home/zhouoh/scratch/Gau-2811633.EFC"
         mat. el file     "/home/zhouoh/scratch/Gau-2811633.EUF"
Sent job to server.
Received result from server:
SCF Done:  E(UMA) =  -79.68903338277111     A.U.
 Recovered energy= -79.6890333828     dipole=      0.000000000000      0.000000000000      0.000000000000
 Energy=    -79.6890334     NIter=   0.
 Dipole moment=       0.000000       0.000000       0.000000
 Leave Link  402 at Mon Oct  6 14:21:05 2025, MaxMem=   104857600 cpu:               0.0 elap:               0.1
 (Enter /home/zhouoh/g16/l716.exe)
 Dipole        = 0.00000000D+00 0.00000000D+00 0.00000000D+00
 ***** Axes restored to original set *****
 -------------------------------------------------------------------
 Center     Atomic                   Forces (Hartrees/Bohr)
 Number     Number              X              Y              Z
 -------------------------------------------------------------------
      1        6           0.023498243    0.033230668    0.057557741
      2        1           0.000021888    0.000006968    0.000038657
      3        1           0.000020987    0.000030630    0.000025359
      4        1          -0.000000731    0.000021989    0.000039208
      5        6          -0.023498254   -0.033230658   -0.057557743
      6        1           0.000000725   -0.000022985   -0.000038642
      7        1          -0.000020950   -0.000006633   -0.000039223
      8        1          -0.000021909   -0.000029980   -0.000025361
 -------------------------------------------------------------------
 Cartesian Forces:  Max     0.057557743 RMS     0.020349743
 Leave Link  716 at Mon Oct  6 14:21:05 2025, MaxMem=   104857600 cpu:               0.0 elap:               0.0
 (Enter /home/zhouoh/g16/l103.exe)

 GradGradGradGradGradGradGradGradGradGradGradGradGradGradGradGradGradGrad
 Berny optimization.
 Using GEDIIS/GDIIS optimizer.
 FormGI is forming the generalized inverse of G from B-inverse, IUseBI=4.
 Internal  Forces:  Max     0.070619956 RMS     0.013345962
 Search for a local minimum.
 Step number   2 out of a maximum of   38 on scan point     9 out of    21
 All quantities printed in internal units (Hartrees-Bohrs-Radians)
 RMS Force = .35238D-04 SwitMx=.10000D-02 MixMth= 2
 Mixed Optimization -- En-DIIS/RFO-DIIS
 Update second derivatives using D2CorX and points    1    2
 DE= -1.40D-04 DEPred=-1.36D-04 R= 1.03D+00
 TightC=F SS=  1.41D+00  RLast= 5.03D-02 DXNew= 3.0049D-01 1.5098D-01
 Trust test= 1.03D+00 RLast= 5.03D-02 DXMaxT set to 1.79D-01
 ITU=  1  0
 Use linear search instead of GDIIS.
     Eigenvalues ---    0.00123   0.06967   0.06967   0.06967   0.06969
     Eigenvalues ---    0.10443   0.16000   0.16000   0.16000   0.16000
     Eigenvalues ---    0.17135   0.36953   0.37230   0.37230   0.37230
     Eigenvalues ---    0.37230   0.372351000.000001000.000001000.00000
     Eigenvalues --- 1000.000001000.000001000.000001000.000001000.00000
     Eigenvalues --- 1000.000001000.000001000.00000
 RFO step:  Lambda= 0.00000000D+00 EMin= 1.22547547D-03
 Quartic linear search produced a step of  0.03431.
 Iteration  1 RMS(Cart)=  0.00055475 RMS(Int)=  0.00000507
 Iteration  2 RMS(Cart)=  0.00000025 RMS(Int)=  0.00000506
 Iteration  1 RMS(Cart)=  0.00000002 RMS(Int)=  0.00000000
 ITry= 1 IFail=0 DXMaxC= 1.12D-03 DCOld= 1.00D+10 DXMaxT= 1.79D-01 DXLimC= 3.00D+00 Rises=F
 ClnCor:  largest displacement from symmetrization is 2.72D-05 for atom     7.
 Variable       Old X    -DE/DX   Delta X   Delta X   Delta X     New X
                                 (Linear)    (Quad)   (Total)
    R1        2.04247   0.00001  -0.00004   0.00003  -0.00002   2.04246
    R2        2.04247   0.00001  -0.00004   0.00003  -0.00002   2.04246
    R3        2.04247   0.00001  -0.00004   0.00003  -0.00002   2.04246
    R4        4.42196  -0.07062   0.00000   0.00000  -0.00000   4.42196
    R5        2.04247   0.00001  -0.00004   0.00003  -0.00002   2.04246
    R6        2.04247   0.00001  -0.00004   0.00003  -0.00002   2.04246
    R7        2.04247   0.00001  -0.00004   0.00003  -0.00002   2.04246
    A1        2.01537   0.00004   0.00041   0.00000   0.00041   2.01577
    A2        2.01537   0.00004   0.00041   0.00000   0.00041   2.01577
    A3        1.78843  -0.00006  -0.00057  -0.00001  -0.00058   1.78785
    A4        2.01537   0.00004   0.00041  -0.00000   0.00041   2.01577
    A5        1.78843  -0.00006  -0.00057  -0.00000  -0.00058   1.78785
    A6        1.78843  -0.00006  -0.00057   0.00000  -0.00058   1.78785
    A7        1.78843  -0.00006  -0.00057  -0.00001  -0.00058   1.78785
    A8        1.78843  -0.00006  -0.00057   0.00000  -0.00058   1.78785
    A9        1.78843  -0.00006  -0.00057  -0.00000  -0.00058   1.78785
   A10        2.01537   0.00004   0.00041   0.00000   0.00041   2.01577
   A11        2.01537   0.00004   0.00041   0.00000   0.00041   2.01577
   A12        2.01537   0.00004   0.00041  -0.00000   0.00041   2.01577
    D1        1.02976  -0.00000  -0.00006  -0.00018  -0.00024   1.02952
    D2        3.12415  -0.00000  -0.00006  -0.00018  -0.00024   3.12392
    D3       -1.06464  -0.00000  -0.00006  -0.00018  -0.00024  -1.06487
    D4       -1.06464  -0.00000  -0.00006  -0.00018  -0.00024  -1.06487
    D5        1.02976  -0.00000  -0.00006  -0.00018  -0.00024   1.02952
    D6        3.12415  -0.00000  -0.00006  -0.00018  -0.00024   3.12392
    D7        3.12415  -0.00000  -0.00006  -0.00018  -0.00024   3.12392
    D8       -1.06464  -0.00000  -0.00006  -0.00018  -0.00024  -1.06487
    D9        1.02976  -0.00000  -0.00006  -0.00018  -0.00024   1.02952
         Item               Value     Threshold  Converged?
 Maximum Force            0.000061     0.000450     YES
 RMS     Force            0.000035     0.000300     YES
 Maximum Displacement     0.001139     0.001800     YES
 RMS     Displacement     0.000561     0.001200     YES
 Predicted change in Energy=-1.630582D-07
 Optimization completed.
    -- Stationary point found.
                           ----------------------------
                           !   Optimized Parameters   !
                           ! (Angstroms and Degrees)  !
 --------------------------                            --------------------------
 ! Name  Definition              Value          Derivative Info.                !
 --------------------------------------------------------------------------------
 ! R1    R(1,2)                  1.0808         -DE/DX =    0.0                 !
 ! R2    R(1,3)                  1.0808         -DE/DX =    0.0                 !
 ! R3    R(1,4)                  1.0808         -DE/DX =    0.0                 !
 ! R4    R(1,5)                  2.34           -DE/DX =   -0.0706              !
 ! R5    R(5,6)                  1.0808         -DE/DX =    0.0                 !
 ! R6    R(5,7)                  1.0808         -DE/DX =    0.0                 !
 ! R7    R(5,8)                  1.0808         -DE/DX =    0.0                 !
 ! A1    A(2,1,3)              115.472          -DE/DX =    0.0                 !
 ! A2    A(2,1,4)              115.472          -DE/DX =    0.0                 !
 ! A3    A(2,1,5)              102.4694         -DE/DX =   -0.0001              !
 ! A4    A(3,1,4)              115.472          -DE/DX =    0.0                 !
 ! A5    A(3,1,5)              102.4694         -DE/DX =   -0.0001              !
 ! A6    A(4,1,5)              102.4694         -DE/DX =   -0.0001              !
 ! A7    A(1,5,6)              102.4694         -DE/DX =   -0.0001              !
 ! A8    A(1,5,7)              102.4694         -DE/DX =   -0.0001              !
 ! A9    A(1,5,8)              102.4694         -DE/DX =   -0.0001              !
 ! A10   A(6,5,7)              115.472          -DE/DX =    0.0                 !
 ! A11   A(6,5,8)              115.472          -DE/DX =    0.0                 !
 ! A12   A(7,5,8)              115.472          -DE/DX =    0.0                 !
 ! D1    D(2,1,5,6)             59.0009         -DE/DX =    0.0                 !
 ! D2    D(2,1,5,7)            179.0009         -DE/DX =    0.0                 !
 ! D3    D(2,1,5,8)            -60.9991         -DE/DX =    0.0                 !
 ! D4    D(3,1,5,6)            -60.9991         -DE/DX =    0.0                 !
 ! D5    D(3,1,5,7)             59.0009         -DE/DX =    0.0                 !
 ! D6    D(3,1,5,8)            179.0009         -DE/DX =    0.0                 !
 ! D7    D(4,1,5,6)            179.0009         -DE/DX =    0.0                 !
 ! D8    D(4,1,5,7)            -60.9991         -DE/DX =    0.0                 !
 ! D9    D(4,1,5,8)             59.0009         -DE/DX =    0.0                 !
 --------------------------------------------------------------------------------
 Iteration  1 RMS(Cart)=  0.05050504 RMS(Int)=  0.00000001
 Iteration  2 RMS(Cart)=  0.00000001 RMS(Int)=  0.00000000
 Iteration  1 RMS(Cart)=  0.00000002 RMS(Int)=  0.00000000
 GradGradGradGradGradGradGradGradGradGradGradGradGradGradGradGradGradGrad

 Leave Link  103 at Mon Oct  6 14:21:05 2025, MaxMem=   104857600 cpu:               0.0 elap:               0.0
 (Enter /home/zhouoh/g16/l202.exe)
                          Input orientation:                          
 ---------------------------------------------------------------------
 Center     Atomic      Atomic             Coordinates (Angstroms)
 Number     Number       Type             X           Y           Z
 ---------------------------------------------------------------------
      1          6           0       -2.066211   -0.294548   -0.367424
      2          1           0       -1.639493   -1.281402   -0.256943
      3          1           0       -1.653035    0.304141   -1.166820
      4          1           0       -3.138865   -0.235543   -0.248638
      5          6           0       -1.252864    0.855669    1.624829
      6          1           0       -0.180228    0.780511    1.515376
      7          1           0       -1.664342    1.847894    1.505026
      8          1           0       -1.681264    0.267763    2.424214
 ---------------------------------------------------------------------
                    Distance matrix (angstroms):
                    1          2          3          4          5
     1  C    0.000000
     2  H    1.080822   0.000000
     3  H    1.080822   1.828115   0.000000
     4  H    1.080822   1.828115   1.828115   0.000000
     5  C    2.440000   2.873607   2.873607   2.873607   0.000000
     6  H    2.873607   3.085783   3.096815   3.591329   1.080822
     7  H    2.873607   3.591329   3.085783   3.096815   1.080822
     8  H    2.873607   3.096815   3.591329   3.085783   1.080822
                    6          7          8
     6  H    0.000000
     7  H    1.828115   0.000000
     8  H    1.828115   1.828115   0.000000
 Stoichiometry    C2H6
 Framework group  D3[C3(C.C),X(H6)]
 Deg. of freedom     4
 Full point group                 D3      NOp   6
 RotChk:  IX=0 Diff= 5.25D-14
 Largest Abelian subgroup         C2      NOp   2
 Largest concise Abelian subgroup C2      NOp   2
                         Standard orientation:                         
 ---------------------------------------------------------------------
 Center     Atomic      Atomic             Coordinates (Angstroms)
 Number     Number       Type             X           Y           Z
 ---------------------------------------------------------------------
      1          6           0        0.000000   -0.000000    1.220000
      2          1           0       -0.519633    0.918686    1.452755
      3          1           0        1.055422   -0.009328    1.452755
      4          1           0       -0.535789   -0.909358    1.452755
      5          6           0        0.000000   -0.000000   -1.220000
      6          1           0        0.519633    0.918686   -1.452755
      7          1           0        0.535789   -0.909358   -1.452755
      8          1           0       -1.055422   -0.009328   -1.452755
 ---------------------------------------------------------------------
 Rotational constants (GHZ):          75.0230671           9.7466007           9.7466007
 Leave Link  202 at Mon Oct  6 14:21:05 2025, MaxMem=   104857600 cpu:               0.0 elap:               0.0
 (Enter /home/zhouoh/g16/l301.exe)
 Standard basis: STO-3G (5D, 7F)
 Ernie: Thresh=  0.10000D-02 Tol=  0.10000D-05 Strict=F.
 There are     8 symmetry adapted cartesian basis functions of A   symmetry.
 There are     8 symmetry adapted cartesian basis functions of B   symmetry.
 There are     8 symmetry adapted basis functions of A   symmetry.
 There are     8 symmetry adapted basis functions of B   symmetry.
    16 basis functions,    48 primitive gaussians,    16 cartesian basis functions
     9 alpha electrons        9 beta electrons
       nuclear repulsion energy        35.2687250309 Hartrees.
 IExCor=    0 DFT=F Ex=HF Corr=None ExCW=0 ScaHFX=  1.000000
 ScaDFX=  1.000000  1.000000  1.000000  1.000000 ScalE2=  1.000000  1.000000
 IRadAn=      5 IRanWt=     -1 IRanGd=            0 ICorTp=0 IEmpDi=  4
 NAtoms=    8 NActive=    8 NUniq=    2 SFac= 4.00D+00 NAtFMM=   60 NAOKFM=F Big=F
 Integral buffers will be    131072 words long.
 Raffenetti 1 integral format.
 Two-electron integral symmetry is turned on.
 Leave Link  301 at Mon Oct  6 14:21:05 2025, MaxMem=   104857600 cpu:               0.0 elap:               0.0
 (Enter /home/zhouoh/g16/l402.exe)
 External calculation of energy and first derivatives.
 Running external command "python ../GauUMA_client.py R"
         input file       "/home/zhouoh/scratch/Gau-2811633.EIn"
         output file      "/home/zhouoh/scratch/Gau-2811633.EOu"
         message file     "/home/zhouoh/scratch/Gau-2811633.EMs"
         fchk file        "/home/zhouoh/scratch/Gau-2811633.EFC"
         mat. el file     "/home/zhouoh/scratch/Gau-2811633.EUF"
Sent job to server.
Received result from server:
SCF Done:  E(UMA) =  -79.67603566736707     A.U.
 Recovered energy= -79.6760356674     dipole=      0.000000000000      0.000000000000      0.000000000000
 Energy=    -79.6760357     NIter=   0.
 Dipole moment=       0.000000       0.000000       0.000000
 Leave Link  402 at Mon Oct  6 14:21:05 2025, MaxMem=   104857600 cpu:               0.0 elap:               0.1
 (Enter /home/zhouoh/g16/l716.exe)
 Dipole        = 0.00000000D+00 0.00000000D+00 0.00000000D+00
 ***** Axes restored to original set *****
 -------------------------------------------------------------------
 Center     Atomic                   Forces (Hartrees/Bohr)
 Number     Number              X              Y              Z
 -------------------------------------------------------------------
      1        6           0.021274807    0.030086325    0.052111533
      2        1           0.000448364    0.000400481    0.000959482
      3        1           0.000445171    0.000632951    0.000826577
      4        1           0.000228143    0.000552817    0.000961443
      5        6          -0.021274803   -0.030086319   -0.052111520
      6        1          -0.000228141   -0.000556471   -0.000959334
      7        1          -0.000444917   -0.000399272   -0.000961595
      8        1          -0.000448621   -0.000630509   -0.000826582
 -------------------------------------------------------------------
 Cartesian Forces:  Max     0.052111533 RMS     0.018432899
 Leave Link  716 at Mon Oct  6 14:21:05 2025, MaxMem=   104857600 cpu:               0.0 elap:               0.0
 (Enter /home/zhouoh/g16/l103.exe)

 GradGradGradGradGradGradGradGradGradGradGradGradGradGradGradGradGradGrad
 Berny optimization.
 FormGI is forming the generalized inverse of G from B-inverse, IUseBI=4.
 Internal  Forces:  Max     0.067188301 RMS     0.012727552
 Search for a local minimum.
 Step number   1 out of a maximum of   38 on scan point    10 out of    21
 All quantities printed in internal units (Hartrees-Bohrs-Radians)
 RMS Force = .89170D-03 SwitMx=.10000D-02 MixMth= 1
 Mixed Optimization -- RFO/linear search
 Second derivative matrix not updated -- first step.
 ITU=  0
     Eigenvalues ---    0.00123   0.06972   0.06972   0.06972   0.06975
     Eigenvalues ---    0.10443   0.16000   0.16000   0.16000   0.16000
     Eigenvalues ---    0.17135   0.36953   0.37230   0.37230   0.37230
     Eigenvalues ---    0.37230   0.372351000.000001000.000001000.00000
     Eigenvalues --- 1000.000001000.000001000.000001000.000001000.00000
     Eigenvalues --- 1000.000001000.000001000.00000
 RFO step:  Lambda=-2.05167611D-04 EMin= 1.22548571D-03
 Linear search not attempted -- first point.
 Iteration  1 RMS(Cart)=  0.01400941 RMS(Int)=  0.00017441
 Iteration  2 RMS(Cart)=  0.00016394 RMS(Int)=  0.00011884
 Iteration  3 RMS(Cart)=  0.00000006 RMS(Int)=  0.00011884
 Iteration  1 RMS(Cart)=  0.00000000 RMS(Int)=  0.00000000
 ITry= 1 IFail=0 DXMaxC= 2.68D-02 DCOld= 1.00D+10 DXMaxT= 1.79D-01 DXLimC= 3.00D+00 Rises=F
 ClnCor:  largest displacement from symmetrization is 3.84D-06 for atom     4.
 Variable       Old X    -DE/DX   Delta X   Delta X   Delta X     New X
                                 (Linear)    (Quad)   (Total)
    R1        2.04246  -0.00009   0.00000  -0.00106  -0.00106   2.04140
    R2        2.04246  -0.00009   0.00000  -0.00106  -0.00106   2.04140
    R3        2.04246  -0.00009   0.00000  -0.00106  -0.00106   2.04140
    R4        4.61093  -0.06719   0.00000   0.00000  -0.00000   4.61093
    R5        2.04246  -0.00009   0.00000  -0.00106  -0.00106   2.04140
    R6        2.04246  -0.00009   0.00000  -0.00106  -0.00106   2.04140
    R7        2.04246  -0.00009   0.00000  -0.00106  -0.00106   2.04140
    A1        2.01577   0.00108   0.00000   0.01034   0.01012   2.02590
    A2        2.01577   0.00108   0.00000   0.01034   0.01012   2.02590
    A3        1.78785  -0.00155   0.00000  -0.01479  -0.01493   1.77291
    A4        2.01577   0.00108   0.00000   0.01034   0.01012   2.02590
    A5        1.78785  -0.00155   0.00000  -0.01479  -0.01493   1.77291
    A6        1.78785  -0.00155   0.00000  -0.01479  -0.01493   1.77291
    A7        1.78785  -0.00155   0.00000  -0.01479  -0.01493   1.77291
    A8        1.78785  -0.00155   0.00000  -0.01479  -0.01493   1.77291
    A9        1.78785  -0.00155   0.00000  -0.01479  -0.01493   1.77291
   A10        2.01577   0.00108   0.00000   0.01034   0.01012   2.02590
   A11        2.01577   0.00108   0.00000   0.01034   0.01012   2.02590
   A12        2.01577   0.00108   0.00000   0.01034   0.01012   2.02590
    D1        1.02952  -0.00000   0.00000  -0.00144  -0.00144   1.02808
    D2        3.12392  -0.00000   0.00000  -0.00144  -0.00144   3.12248
    D3       -1.06487  -0.00000   0.00000  -0.00144  -0.00144  -1.06631
    D4       -1.06487  -0.00000   0.00000  -0.00144  -0.00144  -1.06631
    D5        1.02952  -0.00000   0.00000  -0.00144  -0.00144   1.02808
    D6        3.12392  -0.00000   0.00000  -0.00144  -0.00144   3.12248
    D7        3.12392  -0.00000   0.00000  -0.00144  -0.00144   3.12248
    D8       -1.06487  -0.00000   0.00000  -0.00144  -0.00144  -1.06631
    D9        1.02952  -0.00000   0.00000  -0.00144  -0.00144   1.02808
         Item               Value     Threshold  Converged?
 Maximum Force            0.001549     0.000450     NO 
 RMS     Force            0.000892     0.000300     NO 
 Maximum Displacement     0.026805     0.001800     NO 
 RMS     Displacement     0.014140     0.001200     NO 
 Predicted change in Energy=-1.027800D-04
 GradGradGradGradGradGradGradGradGradGradGradGradGradGradGradGradGradGrad

 Leave Link  103 at Mon Oct  6 14:21:05 2025, MaxMem=   104857600 cpu:               0.0 elap:               0.0
 (Enter /home/zhouoh/g16/l202.exe)
                          Input orientation:                          
 ---------------------------------------------------------------------
 Center     Atomic      Atomic             Coordinates (Angstroms)
 Number     Number       Type             X           Y           Z
 ---------------------------------------------------------------------
      1          6           0       -2.066211   -0.294548   -0.367424
      2          1           0       -1.632234   -1.276015   -0.243544
      3          1           0       -1.647054    0.313955   -1.155455
      4          1           0       -3.136205   -0.228259   -0.234456
      5          6           0       -1.252864    0.855669    1.624829
      6          1           0       -0.182889    0.771866    1.501980
      7          1           0       -1.670318    1.842959    1.490841
      8          1           0       -1.688527    0.258857    2.412848
 ---------------------------------------------------------------------
                    Distance matrix (angstroms):
                    1          2          3          4          5
     1  C    0.000000
     2  H    1.080260   0.000000
     3  H    1.080260   1.832978   0.000000
     4  H    1.080260   1.832978   1.832978   0.000000
     5  C    2.440000   2.859862   2.859862   2.859862   0.000000
     6  H    2.859862   3.056350   3.068456   3.568969   1.080260
     7  H    2.859862   3.568969   3.056350   3.068456   1.080260
     8  H    2.859862   3.068456   3.568969   3.056350   1.080260
                    6          7          8
     6  H    0.000000
     7  H    1.832978   0.000000
     8  H    1.832978   1.832978   0.000000
 Stoichiometry    C2H6
 Framework group  D3[C3(C.C),X(H6)]
 Deg. of freedom     4
 Full point group                 D3      NOp   6
 RotChk:  IX=0 Diff= 5.36D-16
 Largest Abelian subgroup         C2      NOp   2
 Largest concise Abelian subgroup C2      NOp   2
                         Standard orientation:                         
 ---------------------------------------------------------------------
 Center     Atomic      Atomic             Coordinates (Angstroms)
 Number     Number       Type             X           Y           Z
 ---------------------------------------------------------------------
      1          6           0        0.000000   -0.000000    1.220000
      2          1           0       -0.520353    0.921504    1.436855
      3          1           0        1.058222   -0.010113    1.436855
      4          1           0       -0.537869   -0.911390    1.436855
      5          6           0        0.000000   -0.000000   -1.220000
      6          1           0        0.520353    0.921504   -1.436855
      7          1           0        0.537869   -0.911390   -1.436855
      8          1           0       -1.058222   -0.010113   -1.436855
 ---------------------------------------------------------------------
 Rotational constants (GHZ):          74.6255636           9.7956973           9.7956973
 Leave Link  202 at Mon Oct  6 14:21:05 2025, MaxMem=   104857600 cpu:               0.0 elap:               0.0
 (Enter /home/zhouoh/g16/l301.exe)
 Standard basis: STO-3G (5D, 7F)
 Ernie: Thresh=  0.10000D-02 Tol=  0.10000D-05 Strict=F.
 There are     8 symmetry adapted cartesian basis functions of A   symmetry.
 There are     8 symmetry adapted cartesian basis functions of B   symmetry.
 There are     8 symmetry adapted basis functions of A   symmetry.
 There are     8 symmetry adapted basis functions of B   symmetry.
    16 basis functions,    48 primitive gaussians,    16 cartesian basis functions
     9 alpha electrons        9 beta electrons
       nuclear repulsion energy        35.3176139927 Hartrees.
 IExCor=    0 DFT=F Ex=HF Corr=None ExCW=0 ScaHFX=  1.000000
 ScaDFX=  1.000000  1.000000  1.000000  1.000000 ScalE2=  1.000000  1.000000
 IRadAn=      5 IRanWt=     -1 IRanGd=            0 ICorTp=0 IEmpDi=  4
 NAtoms=    8 NActive=    8 NUniq=    2 SFac= 4.00D+00 NAtFMM=   60 NAOKFM=F Big=F
 Integral buffers will be    131072 words long.
 Raffenetti 1 integral format.
 Two-electron integral symmetry is turned on.
 Leave Link  301 at Mon Oct  6 14:21:05 2025, MaxMem=   104857600 cpu:               0.0 elap:               0.0
 (Enter /home/zhouoh/g16/l402.exe)
 External calculation of energy and first derivatives.
 Running external command "python ../GauUMA_client.py R"
         input file       "/home/zhouoh/scratch/Gau-2811633.EIn"
         output file      "/home/zhouoh/scratch/Gau-2811633.EOu"
         message file     "/home/zhouoh/scratch/Gau-2811633.EMs"
         fchk file        "/home/zhouoh/scratch/Gau-2811633.EFC"
         mat. el file     "/home/zhouoh/scratch/Gau-2811633.EUF"
Sent job to server.
Received result from server:
SCF Done:  E(UMA) =  -79.6761412723919     A.U.
 Recovered energy= -79.6761412724     dipole=      0.000000000000      0.000000000000      0.000000000000
 Energy=    -79.6761413     NIter=   0.
 Dipole moment=       0.000000       0.000000       0.000000
 Leave Link  402 at Mon Oct  6 14:21:05 2025, MaxMem=   104857600 cpu:               0.0 elap:               0.1
 (Enter /home/zhouoh/g16/l716.exe)
 Dipole        = 0.00000000D+00 0.00000000D+00 0.00000000D+00
 ***** Axes restored to original set *****
 -------------------------------------------------------------------
 Center     Atomic                   Forces (Hartrees/Bohr)
 Number     Number              X              Y              Z
 -------------------------------------------------------------------
      1        6           0.022039799    0.031168266    0.053985441
      2        1           0.000017118    0.000001113    0.000027501
      3        1           0.000016196    0.000023845    0.000014772
      4        1          -0.000004573    0.000015576    0.000028033
      5        6          -0.022039898   -0.031168192   -0.053985434
      6        1           0.000004656   -0.000016535   -0.000027488
      7        1          -0.000016188   -0.000000871   -0.000028046
      8        1          -0.000017108   -0.000023201   -0.000014775
 -------------------------------------------------------------------
 Cartesian Forces:  Max     0.053985441 RMS     0.019086741
 Leave Link  716 at Mon Oct  6 14:21:05 2025, MaxMem=   104857600 cpu:               0.0 elap:               0.0
 (Enter /home/zhouoh/g16/l103.exe)

 GradGradGradGradGradGradGradGradGradGradGradGradGradGradGradGradGradGrad
 Berny optimization.
 Using GEDIIS/GDIIS optimizer.
 FormGI is forming the generalized inverse of G from B-inverse, IUseBI=4.
 Internal  Forces:  Max     0.066204480 RMS     0.012511496
 Search for a local minimum.
 Step number   2 out of a maximum of   38 on scan point    10 out of    21
 All quantities printed in internal units (Hartrees-Bohrs-Radians)
 RMS Force = .25395D-04 SwitMx=.10000D-02 MixMth= 2
 Mixed Optimization -- En-DIIS/RFO-DIIS
 Update second derivatives using D2CorX and points    1    2
 DE= -1.06D-04 DEPred=-1.03D-04 R= 1.03D+00
 TightC=F SS=  1.41D+00  RLast= 4.45D-02 DXNew= 3.0049D-01 1.3344D-01
 Trust test= 1.03D+00 RLast= 4.45D-02 DXMaxT set to 1.79D-01
 ITU=  1  0
 Use linear search instead of GDIIS.
     Eigenvalues ---    0.00123   0.07109   0.07109   0.07109   0.07110
     Eigenvalues ---    0.10172   0.16000   0.16000   0.16000   0.16000
     Eigenvalues ---    0.17134   0.36950   0.37230   0.37230   0.37230
     Eigenvalues ---    0.37230   0.372351000.000001000.000001000.00000
     Eigenvalues --- 1000.000001000.000001000.000001000.000001000.00000
     Eigenvalues --- 1000.000001000.000001000.00000
 RFO step:  Lambda= 0.00000000D+00 EMin= 1.22574931D-03
 Quartic linear search produced a step of  0.02841.
 Iteration  1 RMS(Cart)=  0.00042106 RMS(Int)=  0.00000358
 Iteration  2 RMS(Cart)=  0.00000014 RMS(Int)=  0.00000357
 Iteration  1 RMS(Cart)=  0.00000002 RMS(Int)=  0.00000000
 ITry= 1 IFail=0 DXMaxC= 8.60D-04 DCOld= 1.00D+10 DXMaxT= 1.79D-01 DXLimC= 3.00D+00 Rises=F
 ClnCor:  largest displacement from symmetrization is 2.94D-05 for atom     7.
 Variable       Old X    -DE/DX   Delta X   Delta X   Delta X     New X
                                 (Linear)    (Quad)   (Total)
    R1        2.04140   0.00001  -0.00003   0.00003   0.00000   2.04140
    R2        2.04140   0.00001  -0.00003   0.00003   0.00000   2.04140
    R3        2.04140   0.00001  -0.00003   0.00003   0.00000   2.04140
    R4        4.61093  -0.06620  -0.00000   0.00000   0.00000   4.61093
    R5        2.04140   0.00001  -0.00003   0.00003   0.00000   2.04140
    R6        2.04140   0.00001  -0.00003   0.00003   0.00000   2.04140
    R7        2.04140   0.00001  -0.00003   0.00003   0.00000   2.04140
    A1        2.02590   0.00003   0.00029   0.00000   0.00029   2.02618
    A2        2.02590   0.00003   0.00029   0.00000   0.00029   2.02618
    A3        1.77291  -0.00004  -0.00042  -0.00001  -0.00044   1.77248
    A4        2.02590   0.00003   0.00029  -0.00000   0.00029   2.02618
    A5        1.77291  -0.00004  -0.00042  -0.00000  -0.00044   1.77248
    A6        1.77291  -0.00004  -0.00042   0.00001  -0.00044   1.77248
    A7        1.77291  -0.00004  -0.00042  -0.00001  -0.00044   1.77248
    A8        1.77291  -0.00004  -0.00042   0.00001  -0.00044   1.77248
    A9        1.77291  -0.00004  -0.00042  -0.00000  -0.00044   1.77248
   A10        2.02590   0.00003   0.00029   0.00000   0.00029   2.02618
   A11        2.02590   0.00003   0.00029   0.00000   0.00029   2.02618
   A12        2.02590   0.00003   0.00029  -0.00000   0.00029   2.02618
    D1        1.02808  -0.00000  -0.00004  -0.00020  -0.00024   1.02785
    D2        3.12248  -0.00000  -0.00004  -0.00020  -0.00024   3.12224
    D3       -1.06631  -0.00000  -0.00004  -0.00020  -0.00024  -1.06655
    D4       -1.06631  -0.00000  -0.00004  -0.00020  -0.00024  -1.06655
    D5        1.02808  -0.00000  -0.00004  -0.00020  -0.00024   1.02785
    D6        3.12248  -0.00000  -0.00004  -0.00020  -0.00024   3.12224
    D7        3.12248  -0.00000  -0.00004  -0.00020  -0.00024   3.12224
    D8       -1.06631  -0.00000  -0.00004  -0.00020  -0.00024  -1.06655
    D9        1.02808  -0.00000  -0.00004  -0.00020  -0.00024   1.02785
         Item               Value     Threshold  Converged?
 Maximum Force            0.000044     0.000450     YES
 RMS     Force            0.000025     0.000300     YES
 Maximum Displacement     0.000885     0.001800     YES
 RMS     Displacement     0.000428     0.001200     YES
 Predicted change in Energy=-8.095534D-08
 Optimization completed.
    -- Stationary point found.
                           ----------------------------
                           !   Optimized Parameters   !
                           ! (Angstroms and Degrees)  !
 --------------------------                            --------------------------
 ! Name  Definition              Value          Derivative Info.                !
 --------------------------------------------------------------------------------
 ! R1    R(1,2)                  1.0803         -DE/DX =    0.0                 !
 ! R2    R(1,3)                  1.0803         -DE/DX =    0.0                 !
 ! R3    R(1,4)                  1.0803         -DE/DX =    0.0                 !
 ! R4    R(1,5)                  2.44           -DE/DX =   -0.0662              !
 ! R5    R(5,6)                  1.0803         -DE/DX =    0.0                 !
 ! R6    R(5,7)                  1.0803         -DE/DX =    0.0                 !
 ! R7    R(5,8)                  1.0803         -DE/DX =    0.0                 !
 ! A1    A(2,1,3)              116.0754         -DE/DX =    0.0                 !
 ! A2    A(2,1,4)              116.0754         -DE/DX =    0.0                 !
 ! A3    A(2,1,5)              101.5804         -DE/DX =    0.0                 !
 ! A4    A(3,1,4)              116.0754         -DE/DX =    0.0                 !
 ! A5    A(3,1,5)              101.5804         -DE/DX =    0.0                 !
 ! A6    A(4,1,5)              101.5804         -DE/DX =    0.0                 !
 ! A7    A(1,5,6)              101.5804         -DE/DX =    0.0                 !
 ! A8    A(1,5,7)              101.5804         -DE/DX =    0.0                 !
 ! A9    A(1,5,8)              101.5804         -DE/DX =    0.0                 !
 ! A10   A(6,5,7)              116.0754         -DE/DX =    0.0                 !
 ! A11   A(6,5,8)              116.0754         -DE/DX =    0.0                 !
 ! A12   A(7,5,8)              116.0754         -DE/DX =    0.0                 !
 ! D1    D(2,1,5,6)             58.9049         -DE/DX =    0.0                 !
 ! D2    D(2,1,5,7)            178.9049         -DE/DX =    0.0                 !
 ! D3    D(2,1,5,8)            -61.0951         -DE/DX =    0.0                 !
 ! D4    D(3,1,5,6)            -61.0951         -DE/DX =    0.0                 !
 ! D5    D(3,1,5,7)             58.9049         -DE/DX =    0.0                 !
 ! D6    D(3,1,5,8)            178.9049         -DE/DX =    0.0                 !
 ! D7    D(4,1,5,6)            178.9049         -DE/DX =    0.0                 !
 ! D8    D(4,1,5,7)            -61.0951         -DE/DX =    0.0                 !
 ! D9    D(4,1,5,8)             58.9049         -DE/DX =    0.0                 !
 --------------------------------------------------------------------------------
 Iteration  1 RMS(Cart)=  0.05050507 RMS(Int)=  0.00000001
 Iteration  2 RMS(Cart)=  0.00000001 RMS(Int)=  0.00000000
 Iteration  1 RMS(Cart)=  0.00000001 RMS(Int)=  0.00000000
 GradGradGradGradGradGradGradGradGradGradGradGradGradGradGradGradGradGrad

 Leave Link  103 at Mon Oct  6 14:21:05 2025, MaxMem=   104857600 cpu:               0.0 elap:               0.0
 (Enter /home/zhouoh/g16/l202.exe)
                          Input orientation:                          
 ---------------------------------------------------------------------
 Center     Atomic      Atomic             Coordinates (Angstroms)
 Number     Number       Type             X           Y           Z
 ---------------------------------------------------------------------
      1          6           0       -2.082878   -0.318118   -0.408248
      2          1           0       -1.648598   -1.299409   -0.284027
      3          1           0       -1.663626    0.290739   -1.195956
      4          1           0       -3.152807   -0.251705   -0.274813
      5          6           0       -1.236197    0.879239    1.665653
      6          1           0       -0.166288    0.795093    1.542464
      7          1           0       -1.653745    1.866426    1.531198
      8          1           0       -1.672163    0.282220    2.453349
 ---------------------------------------------------------------------
                    Distance matrix (angstroms):
                    1          2          3          4          5
     1  C    0.000000
     2  H    1.080261   0.000000
     3  H    1.080261   1.833143   0.000000
     4  H    1.080261   1.833143   1.833143   0.000000
     5  C    2.540000   2.952598   2.952598   2.952598   0.000000
     6  H    2.952598   3.149643   3.161540   3.649325   1.080261
     7  H    2.952598   3.649325   3.149643   3.161540   1.080261
     8  H    2.952598   3.161540   3.649325   3.149643   1.080261
                    6          7          8
     6  H    0.000000
     7  H    1.833143   0.000000
     8  H    1.833143   1.833143   0.000000
 Stoichiometry    C2H6
 Framework group  D3[C3(C.C),X(H6)]
 Deg. of freedom     4
 Full point group                 D3      NOp   6
 RotChk:  IX=0 Diff= 7.82D-14
 Largest Abelian subgroup         C2      NOp   2
 Largest concise Abelian subgroup C2      NOp   2
                         Standard orientation:                         
 ---------------------------------------------------------------------
 Center     Atomic      Atomic             Coordinates (Angstroms)
 Number     Number       Type             X           Y           Z
 ---------------------------------------------------------------------
      1          6           0        0.000000    0.000000    1.270000
      2          1           0       -0.520290    0.921649    1.486392
      3          1           0        1.058316   -0.010240    1.486392
      4          1           0       -0.538026   -0.911408    1.486392
      5          6           0        0.000000    0.000000   -1.270000
      6          1           0        0.520290    0.921649   -1.486392
      7          1           0        0.538026   -0.911408   -1.486392
      8          1           0       -1.058316   -0.010240   -1.486392
 ---------------------------------------------------------------------
 Rotational constants (GHZ):          74.6121544           9.1131190           9.1131190
 Leave Link  202 at Mon Oct  6 14:21:05 2025, MaxMem=   104857600 cpu:               0.0 elap:               0.0
 (Enter /home/zhouoh/g16/l301.exe)
 Standard basis: STO-3G (5D, 7F)
 Ernie: Thresh=  0.10000D-02 Tol=  0.10000D-05 Strict=F.
 There are     8 symmetry adapted cartesian basis functions of A   symmetry.
 There are     8 symmetry adapted cartesian basis functions of B   symmetry.
 There are     8 symmetry adapted basis functions of A   symmetry.
 There are     8 symmetry adapted basis functions of B   symmetry.
    16 basis functions,    48 primitive gaussians,    16 cartesian basis functions
     9 alpha electrons        9 beta electrons
       nuclear repulsion energy        34.7604372454 Hartrees.
 IExCor=    0 DFT=F Ex=HF Corr=None ExCW=0 ScaHFX=  1.000000
 ScaDFX=  1.000000  1.000000  1.000000  1.000000 ScalE2=  1.000000  1.000000
 IRadAn=      5 IRanWt=     -1 IRanGd=            0 ICorTp=0 IEmpDi=  4
 NAtoms=    8 NActive=    8 NUniq=    2 SFac= 4.00D+00 NAtFMM=   60 NAOKFM=F Big=F
 Integral buffers will be    131072 words long.
 Raffenetti 1 integral format.
 Two-electron integral symmetry is turned on.
 Leave Link  301 at Mon Oct  6 14:21:05 2025, MaxMem=   104857600 cpu:               0.0 elap:               0.0
 (Enter /home/zhouoh/g16/l402.exe)
 External calculation of energy and first derivatives.
 Running external command "python ../GauUMA_client.py R"
         input file       "/home/zhouoh/scratch/Gau-2811633.EIn"
         output file      "/home/zhouoh/scratch/Gau-2811633.EOu"
         message file     "/home/zhouoh/scratch/Gau-2811633.EMs"
         fchk file        "/home/zhouoh/scratch/Gau-2811633.EFC"
         mat. el file     "/home/zhouoh/scratch/Gau-2811633.EUF"
Sent job to server.
Received result from server:
SCF Done:  E(UMA) =  -79.66458963525245     A.U.
 Recovered energy= -79.6645896352     dipole=      0.000000000000      0.000000000000      0.000000000000
 Energy=    -79.6645896     NIter=   0.
 Dipole moment=       0.000000       0.000000       0.000000
 Leave Link  402 at Mon Oct  6 14:21:05 2025, MaxMem=   104857600 cpu:               0.0 elap:               0.1
 (Enter /home/zhouoh/g16/l716.exe)
 Dipole        = 0.00000000D+00 0.00000000D+00 0.00000000D+00
 ***** Axes restored to original set *****
 -------------------------------------------------------------------
 Center     Atomic                   Forces (Hartrees/Bohr)
 Number     Number              X              Y              Z
 -------------------------------------------------------------------
      1        6           0.016113333    0.022787178    0.039468968
      2        1           0.000659113    0.000449955    0.001327398
      3        1           0.000652001    0.000929615    0.001053391
      4        1           0.000204631    0.000763874    0.001331761
      5        6          -0.016113408   -0.022787118   -0.039468953
      6        1          -0.000204540   -0.000771936   -0.001327090
      7        1          -0.000651485   -0.000447359   -0.001332070
      8        1          -0.000659641   -0.000924204   -0.001053398
 -------------------------------------------------------------------
 Cartesian Forces:  Max     0.039468968 RMS     0.013975844
 Leave Link  716 at Mon Oct  6 14:21:05 2025, MaxMem=   104857600 cpu:               0.0 elap:               0.0
 (Enter /home/zhouoh/g16/l103.exe)

 GradGradGradGradGradGradGradGradGradGradGradGradGradGradGradGradGradGrad
 Berny optimization.
 FormGI is forming the generalized inverse of G from B-inverse, IUseBI=4.
 Internal  Forces:  Max     0.052886325 RMS     0.010069251
 Search for a local minimum.
 Step number   1 out of a maximum of   38 on scan point    11 out of    21
 All quantities printed in internal units (Hartrees-Bohrs-Radians)
 RMS Force = .12465D-02 SwitMx=.10000D-02 MixMth= 1
 Mixed Optimization -- RFO/linear search
 Second derivative matrix not updated -- first step.
 ITU=  0
     Eigenvalues ---    0.00123   0.07112   0.07112   0.07112   0.07114
     Eigenvalues ---    0.10172   0.16000   0.16000   0.16000   0.16000
     Eigenvalues ---    0.17134   0.36950   0.37230   0.37230   0.37230
     Eigenvalues ---    0.37230   0.372351000.000001000.000001000.00000
     Eigenvalues --- 1000.000001000.000001000.000001000.000001000.00000
     Eigenvalues --- 1000.000001000.000001000.00000
 RFO step:  Lambda=-4.09622166D-04 EMin= 1.22575704D-03
 Linear search not attempted -- first point.
 Iteration  1 RMS(Cart)=  0.02043387 RMS(Int)=  0.00038110
 Iteration  2 RMS(Cart)=  0.00035043 RMS(Int)=  0.00026917
 Iteration  3 RMS(Cart)=  0.00000031 RMS(Int)=  0.00026917
 Iteration  1 RMS(Cart)=  0.00000000 RMS(Int)=  0.00000000
 ITry= 1 IFail=0 DXMaxC= 3.91D-02 DCOld= 1.00D+10 DXMaxT= 1.79D-01 DXLimC= 3.00D+00 Rises=F
 ClnCor:  largest displacement from symmetrization is 3.53D-05 for atom     4.
 Variable       Old X    -DE/DX   Delta X   Delta X   Delta X     New X
                                 (Linear)    (Quad)   (Total)
    R1        2.04140   0.00001   0.00000  -0.00110  -0.00111   2.04029
    R2        2.04140   0.00001   0.00000  -0.00110  -0.00111   2.04029
    R3        2.04140   0.00001   0.00000  -0.00111  -0.00111   2.04029
    R4        4.79990  -0.05289   0.00000   0.00000  -0.00000   4.79990
    R5        2.04140   0.00001   0.00000  -0.00110  -0.00111   2.04029
    R6        2.04140   0.00001   0.00000  -0.00111  -0.00111   2.04029
    R7        2.04140   0.00001   0.00000  -0.00110  -0.00111   2.04029
    A1        2.02618   0.00145   0.00000   0.01416   0.01366   2.03985
    A2        2.02618   0.00145   0.00000   0.01416   0.01366   2.03985
    A3        1.77248  -0.00221   0.00000  -0.02160  -0.02190   1.75058
    A4        2.02618   0.00145   0.00000   0.01415   0.01366   2.03985
    A5        1.77248  -0.00221   0.00000  -0.02159  -0.02190   1.75058
    A6        1.77248  -0.00221   0.00000  -0.02159  -0.02190   1.75058
    A7        1.77248  -0.00221   0.00000  -0.02160  -0.02190   1.75058
    A8        1.77248  -0.00221   0.00000  -0.02159  -0.02190   1.75058
    A9        1.77248  -0.00221   0.00000  -0.02159  -0.02190   1.75058
   A10        2.02618   0.00145   0.00000   0.01416   0.01366   2.03985
   A11        2.02618   0.00145   0.00000   0.01416   0.01366   2.03985
   A12        2.02618   0.00145   0.00000   0.01415   0.01366   2.03985
    D1        1.02785  -0.00000   0.00000  -0.00198  -0.00198   1.02587
    D2        3.12224  -0.00000   0.00000  -0.00198  -0.00198   3.12026
    D3       -1.06655  -0.00000   0.00000  -0.00198  -0.00198  -1.06853
    D4       -1.06655  -0.00000   0.00000  -0.00198  -0.00198  -1.06853
    D5        1.02785  -0.00000   0.00000  -0.00198  -0.00198   1.02587
    D6        3.12224  -0.00000   0.00000  -0.00198  -0.00198   3.12026
    D7        3.12224  -0.00000   0.00000  -0.00198  -0.00198   3.12026
    D8       -1.06655  -0.00000   0.00000  -0.00198  -0.00198  -1.06853
    D9        1.02785  -0.00000   0.00000  -0.00198  -0.00198   1.02587
         Item               Value     Threshold  Converged?
 Maximum Force            0.002211     0.000450     NO 
 RMS     Force            0.001246     0.000300     NO 
 Maximum Displacement     0.039160     0.001800     NO 
 RMS     Displacement     0.020716     0.001200     NO 
 Predicted change in Energy=-2.055410D-04
 GradGradGradGradGradGradGradGradGradGradGradGradGradGradGradGradGradGrad

 Leave Link  103 at Mon Oct  6 14:21:05 2025, MaxMem=   104857600 cpu:               0.0 elap:               0.0
 (Enter /home/zhouoh/g16/l202.exe)
                          Input orientation:                          
 ---------------------------------------------------------------------
 Center     Atomic      Atomic             Coordinates (Angstroms)
 Number     Number       Type             X           Y           Z
 ---------------------------------------------------------------------
      1          6           0       -2.082878   -0.318118   -0.408248
      2          1           0       -1.638097   -1.291346   -0.264393
      3          1           0       -1.654896    0.304964   -1.179156
      4          1           0       -3.148705   -0.240996   -0.254094
      5          6           0       -1.236197    0.879239    1.665653
      6          1           0       -0.170391    0.782498    1.522834
      7          1           0       -1.662468    1.858990    1.510475
      8          1           0       -1.682670    0.269253    2.436549
 ---------------------------------------------------------------------
                    Distance matrix (angstroms):
                    1          2          3          4          5
     1  C    0.000000
     2  H    1.079675   0.000000
     3  H    1.079675   1.839913   0.000000
     4  H    1.079675   1.839913   1.839913   0.000000
     5  C    2.540000   2.932242   2.932242   2.932242   0.000000
     6  H    2.932242   3.106311   3.119702   3.615988   1.079675
     7  H    2.932242   3.615988   3.106311   3.119702   1.079675
     8  H    2.932242   3.119702   3.615988   3.106311   1.079675
                    6          7          8
     6  H    0.000000
     7  H    1.839913   0.000000
     8  H    1.839913   1.839913   0.000000
 Stoichiometry    C2H6
 Framework group  D3[C3(C.C),X(H6)]
 Deg. of freedom     4
 Full point group                 D3      NOp   6
 RotChk:  IX=0 Diff= 3.60D-16
 Largest Abelian subgroup         C2      NOp   2
 Largest concise Abelian subgroup C2      NOp   2
                         Standard orientation:                         
 ---------------------------------------------------------------------
 Center     Atomic      Atomic             Coordinates (Angstroms)
 Number     Number       Type             X           Y           Z
 ---------------------------------------------------------------------
      1          6           0       -0.000000   -0.000000    1.270000
      2          1           0       -0.521296    0.925569    1.463060
      3          1           0        1.062214   -0.011329    1.463060
      4          1           0       -0.540918   -0.914240    1.463060
      5          6           0        0.000000   -0.000000   -1.270000
      6          1           0        0.521296    0.925569   -1.463060
      7          1           0        0.540918   -0.914240   -1.463060
      8          1           0       -1.062214   -0.011329   -1.463060
 ---------------------------------------------------------------------
 Rotational constants (GHZ):          74.0640258           9.1778413           9.1778413
 Leave Link  202 at Mon Oct  6 14:21:05 2025, MaxMem=   104857600 cpu:               0.0 elap:               0.0
 (Enter /home/zhouoh/g16/l301.exe)
 Standard basis: STO-3G (5D, 7F)
 Ernie: Thresh=  0.10000D-02 Tol=  0.10000D-05 Strict=F.
 There are     8 symmetry adapted cartesian basis functions of A   symmetry.
 There are     8 symmetry adapted cartesian basis functions of B   symmetry.
 There are     8 symmetry adapted basis functions of A   symmetry.
 There are     8 symmetry adapted basis functions of B   symmetry.
    16 basis functions,    48 primitive gaussians,    16 cartesian basis functions
     9 alpha electrons        9 beta electrons
       nuclear repulsion energy        34.8261875342 Hartrees.
 IExCor=    0 DFT=F Ex=HF Corr=None ExCW=0 ScaHFX=  1.000000
 ScaDFX=  1.000000  1.000000  1.000000  1.000000 ScalE2=  1.000000  1.000000
 IRadAn=      5 IRanWt=     -1 IRanGd=            0 ICorTp=0 IEmpDi=  4
 NAtoms=    8 NActive=    8 NUniq=    2 SFac= 4.00D+00 NAtFMM=   60 NAOKFM=F Big=F
 Integral buffers will be    131072 words long.
 Raffenetti 1 integral format.
 Two-electron integral symmetry is turned on.
 Leave Link  301 at Mon Oct  6 14:21:05 2025, MaxMem=   104857600 cpu:               0.0 elap:               0.0
 (Enter /home/zhouoh/g16/l402.exe)
 External calculation of energy and first derivatives.
 Running external command "python ../GauUMA_client.py R"
         input file       "/home/zhouoh/scratch/Gau-2811633.EIn"
         output file      "/home/zhouoh/scratch/Gau-2811633.EOu"
         message file     "/home/zhouoh/scratch/Gau-2811633.EMs"
         fchk file        "/home/zhouoh/scratch/Gau-2811633.EFC"
         mat. el file     "/home/zhouoh/scratch/Gau-2811633.EUF"
Sent job to server.
Received result from server:
SCF Done:  E(UMA) =  -79.66482225894856     A.U.
 Recovered energy= -79.6648222589     dipole=      0.000000000000      0.000000000000      0.000000000000
 Energy=    -79.6648223     NIter=   0.
 Dipole moment=       0.000000       0.000000       0.000000
 Leave Link  402 at Mon Oct  6 14:21:05 2025, MaxMem=   104857600 cpu:               0.0 elap:               0.1
 (Enter /home/zhouoh/g16/l716.exe)
 Dipole        = 0.00000000D+00 0.00000000D+00 0.00000000D+00
 ***** Axes restored to original set *****
 -------------------------------------------------------------------
 Center     Atomic                   Forces (Hartrees/Bohr)
 Number     Number              X              Y              Z
 -------------------------------------------------------------------
      1        6           0.016632699    0.023521550    0.040740920
      2        1           0.000091159    0.000058095    0.000179066
      3        1           0.000088430    0.000127963    0.000139848
      4        1           0.000024390    0.000102419    0.000180742
      5        6          -0.016632681   -0.023521554   -0.040740916
      6        1          -0.000024391   -0.000105392   -0.000179020
      7        1          -0.000088362   -0.000057107   -0.000180787
      8        1          -0.000091244   -0.000125973   -0.000139850
 -------------------------------------------------------------------
 Cartesian Forces:  Max     0.040740920 RMS     0.014404465
 Leave Link  716 at Mon Oct  6 14:21:05 2025, MaxMem=   104857600 cpu:               0.0 elap:               0.0
 (Enter /home/zhouoh/g16/l103.exe)

 GradGradGradGradGradGradGradGradGradGradGradGradGradGradGradGradGradGrad
 Berny optimization.
 Using GEDIIS/GDIIS optimizer.
 FormGI is forming the generalized inverse of G from B-inverse, IUseBI=4.
 Internal  Forces:  Max     0.050509169 RMS     0.009546848
 Search for a local minimum.
 Step number   2 out of a maximum of   38 on scan point    11 out of    21
 All quantities printed in internal units (Hartrees-Bohrs-Radians)
 RMS Force = .17303D-03 SwitMx=.10000D-02 MixMth= 2
 Mixed Optimization -- En-DIIS/RFO-DIIS
 Update second derivatives using D2CorX and points    1    2
 DE= -2.33D-04 DEPred=-2.06D-04 R= 1.13D+00
 TightC=F SS=  1.41D+00  RLast= 6.36D-02 DXNew= 3.0049D-01 1.9068D-01
 Trust test= 1.13D+00 RLast= 6.36D-02 DXMaxT set to 1.91D-01
 ITU=  1  0
 Use linear search instead of GDIIS.
     Eigenvalues ---    0.00123   0.07302   0.07302   0.07302   0.07302
     Eigenvalues ---    0.08792   0.16000   0.16000   0.16000   0.16000
     Eigenvalues ---    0.17132   0.36940   0.37230   0.37230   0.37230
     Eigenvalues ---    0.37230   0.372351000.000001000.000001000.00000
     Eigenvalues --- 1000.000001000.000001000.000001000.000001000.00000
     Eigenvalues --- 1000.000001000.000001000.00000
 RFO step:  Lambda= 0.00000000D+00 EMin= 1.22612664D-03
 Quartic linear search produced a step of  0.16242.
 Iteration  1 RMS(Cart)=  0.00345404 RMS(Int)=  0.00005382
 Iteration  2 RMS(Cart)=  0.00000947 RMS(Int)=  0.00005330
 Iteration  3 RMS(Cart)=  0.00000000 RMS(Int)=  0.00005330
 Iteration  1 RMS(Cart)=  0.00000001 RMS(Int)=  0.00000000
 ITry= 1 IFail=0 DXMaxC= 6.83D-03 DCOld= 1.00D+10 DXMaxT= 1.91D-01 DXLimC= 3.00D+00 Rises=F
 ClnCor:  largest displacement from symmetrization is 1.13D-04 for atom     7.
 Variable       Old X    -DE/DX   Delta X   Delta X   Delta X     New X
                                 (Linear)    (Quad)   (Total)
    R1        2.04029   0.00001  -0.00018   0.00002  -0.00016   2.04013
    R2        2.04029   0.00001  -0.00018   0.00002  -0.00016   2.04013
    R3        2.04029   0.00001  -0.00018   0.00002  -0.00016   2.04013
    R4        4.79990  -0.05051  -0.00000   0.00000  -0.00000   4.79990
    R5        2.04029   0.00001  -0.00018   0.00002  -0.00016   2.04013
    R6        2.04029   0.00001  -0.00018   0.00002  -0.00016   2.04013
    R7        2.04029   0.00001  -0.00018   0.00002  -0.00016   2.04013
    A1        2.03985   0.00019   0.00222   0.00001   0.00214   2.04198
    A2        2.03985   0.00019   0.00222   0.00000   0.00214   2.04198
    A3        1.75058  -0.00032  -0.00356  -0.00003  -0.00365   1.74693
    A4        2.03985   0.00019   0.00222  -0.00000   0.00214   2.04198
    A5        1.75058  -0.00032  -0.00356  -0.00000  -0.00365   1.74693
    A6        1.75058  -0.00032  -0.00356   0.00002  -0.00365   1.74693
    A7        1.75058  -0.00032  -0.00356  -0.00003  -0.00365   1.74693
    A8        1.75058  -0.00032  -0.00356   0.00002  -0.00365   1.74693
    A9        1.75058  -0.00032  -0.00356  -0.00000  -0.00365   1.74693
   A10        2.03985   0.00019   0.00222   0.00000   0.00214   2.04198
   A11        2.03985   0.00019   0.00222   0.00001   0.00214   2.04198
   A12        2.03985   0.00019   0.00222  -0.00000   0.00214   2.04198
    D1        1.02587  -0.00000  -0.00032  -0.00084  -0.00116   1.02471
    D2        3.12026  -0.00000  -0.00032  -0.00084  -0.00116   3.11911
    D3       -1.06853  -0.00000  -0.00032  -0.00084  -0.00116  -1.06968
    D4       -1.06853  -0.00000  -0.00032  -0.00084  -0.00116  -1.06968
    D5        1.02587  -0.00000  -0.00032  -0.00084  -0.00116   1.02471
    D6        3.12026  -0.00000  -0.00032  -0.00084  -0.00116   3.11911
    D7        3.12026  -0.00000  -0.00032  -0.00084  -0.00116   3.11911
    D8       -1.06853  -0.00000  -0.00032  -0.00084  -0.00116  -1.06968
    D9        1.02587  -0.00000  -0.00032  -0.00084  -0.00116   1.02471
         Item               Value     Threshold  Converged?
 Maximum Force            0.000316     0.000450     YES
 RMS     Force            0.000173     0.000300     YES
 Maximum Displacement     0.006921     0.001800     NO 
 RMS     Displacement     0.003487     0.001200     NO 
 Predicted change in Energy=-4.578385D-06
 GradGradGradGradGradGradGradGradGradGradGradGradGradGradGradGradGradGrad

 Leave Link  103 at Mon Oct  6 14:21:05 2025, MaxMem=   104857600 cpu:               0.0 elap:               0.0
 (Enter /home/zhouoh/g16/l202.exe)
                          Input orientation:                          
 ---------------------------------------------------------------------
 Center     Atomic      Atomic             Coordinates (Angstroms)
 Number     Number       Type             X           Y           Z
 ---------------------------------------------------------------------
      1          6           0       -2.082878   -0.318118   -0.408248
      2          1           0       -1.636007   -1.289840   -0.261352
      3          1           0       -1.653819    0.307562   -1.176331
      4          1           0       -3.147982   -0.239598   -0.250431
      5          6           0       -1.236197    0.879239    1.665653
      6          1           0       -0.171116    0.780024    1.519794
      7          1           0       -1.663543    1.857841    1.506813
      8          1           0       -1.684760    0.267374    2.433723
 ---------------------------------------------------------------------
                    Distance matrix (angstroms):
                    1          2          3          4          5
     1  C    0.000000
     2  H    1.079591   0.000000
     3  H    1.079591   1.840977   0.000000
     4  H    1.079591   1.840977   1.840977   0.000000
     5  C    2.540000   2.928839   2.928839   2.928839   0.000000
     6  H    2.928839   3.098826   3.112992   3.610410   1.079591
     7  H    2.928839   3.610410   3.098826   3.112992   1.079591
     8  H    2.928839   3.112992   3.610410   3.098826   1.079591
                    6          7          8
     6  H    0.000000
     7  H    1.840977   0.000000
     8  H    1.840977   1.840977   0.000000
 Stoichiometry    C2H6
 Framework group  D3[C3(C.C),X(H6)]
 Deg. of freedom     4
 Full point group                 D3      NOp   6
 RotChk:  IX=0 Diff= 1.41D-15
 Largest Abelian subgroup         C2      NOp   2
 Largest concise Abelian subgroup C2      NOp   2
                         Standard orientation:                         
 ---------------------------------------------------------------------
 Center     Atomic      Atomic             Coordinates (Angstroms)
 Number     Number       Type             X           Y           Z
 ---------------------------------------------------------------------
      1          6           0       -0.000000   -0.000000    1.270000
      2          1           0       -0.521061    0.926406    1.459170
      3          1           0        1.062821   -0.011950    1.459170
      4          1           0       -0.541760   -0.914455    1.459170
      5          6           0        0.000000   -0.000000   -1.270000
      6          1           0        0.521061    0.926406   -1.459170
      7          1           0        0.541760   -0.914455   -1.459170
      8          1           0       -1.062821   -0.011950   -1.459170
 ---------------------------------------------------------------------
 Rotational constants (GHZ):          73.9784706           9.1886532           9.1886532
 Leave Link  202 at Mon Oct  6 14:21:05 2025, MaxMem=   104857600 cpu:               0.0 elap:               0.0
 (Enter /home/zhouoh/g16/l301.exe)
 Standard basis: STO-3G (5D, 7F)
 Ernie: Thresh=  0.10000D-02 Tol=  0.10000D-05 Strict=F.
 There are     8 symmetry adapted cartesian basis functions of A   symmetry.
 There are     8 symmetry adapted cartesian basis functions of B   symmetry.
 There are     8 symmetry adapted basis functions of A   symmetry.
 There are     8 symmetry adapted basis functions of B   symmetry.
    16 basis functions,    48 primitive gaussians,    16 cartesian basis functions
     9 alpha electrons        9 beta electrons
       nuclear repulsion energy        34.8371246127 Hartrees.
 IExCor=    0 DFT=F Ex=HF Corr=None ExCW=0 ScaHFX=  1.000000
 ScaDFX=  1.000000  1.000000  1.000000  1.000000 ScalE2=  1.000000  1.000000
 IRadAn=      5 IRanWt=     -1 IRanGd=            0 ICorTp=0 IEmpDi=  4
 NAtoms=    8 NActive=    8 NUniq=    2 SFac= 4.00D+00 NAtFMM=   60 NAOKFM=F Big=F
 Integral buffers will be    131072 words long.
 Raffenetti 1 integral format.
 Two-electron integral symmetry is turned on.
 Leave Link  301 at Mon Oct  6 14:21:05 2025, MaxMem=   104857600 cpu:               0.0 elap:               0.0
 (Enter /home/zhouoh/g16/l402.exe)
 External calculation of energy and first derivatives.
 Running external command "python ../GauUMA_client.py R"
         input file       "/home/zhouoh/scratch/Gau-2811633.EIn"
         output file      "/home/zhouoh/scratch/Gau-2811633.EOu"
         message file     "/home/zhouoh/scratch/Gau-2811633.EMs"
         fchk file        "/home/zhouoh/scratch/Gau-2811633.EFC"
         mat. el file     "/home/zhouoh/scratch/Gau-2811633.EUF"
Sent job to server.
Received result from server:
SCF Done:  E(UMA) =  -79.66482689389905     A.U.
 Recovered energy= -79.6648268939     dipole=      0.000000000000      0.000000000000      0.000000000000
 Energy=    -79.6648269     NIter=   0.
 Dipole moment=       0.000000       0.000000       0.000000
 Leave Link  402 at Mon Oct  6 14:21:06 2025, MaxMem=   104857600 cpu:               0.0 elap:               0.1
 (Enter /home/zhouoh/g16/l716.exe)
 Dipole        = 0.00000000D+00 0.00000000D+00 0.00000000D+00
 ***** Axes restored to original set *****
 -------------------------------------------------------------------
 Center     Atomic                   Forces (Hartrees/Bohr)
 Number     Number              X              Y              Z
 -------------------------------------------------------------------
      1        6           0.016701579    0.023618837    0.040909578
      2        1           0.000001952   -0.000003465   -0.000000974
      3        1           0.000000218    0.000002191   -0.000003544
      4        1          -0.000003999   -0.000001172    0.000000123
      5        6          -0.016701447   -0.023618930   -0.040909569
      6        1           0.000003915   -0.000000692    0.000000976
      7        1          -0.000000221    0.000004164   -0.000000129
      8        1          -0.000001999   -0.000000932    0.000003538
 -------------------------------------------------------------------
 Cartesian Forces:  Max     0.040909578 RMS     0.014463706
 Leave Link  716 at Mon Oct  6 14:21:06 2025, MaxMem=   104857600 cpu:               0.0 elap:               0.0
 (Enter /home/zhouoh/g16/l103.exe)

 GradGradGradGradGradGradGradGradGradGradGradGradGradGradGradGradGradGrad
 Berny optimization.
 Using GEDIIS/GDIIS optimizer.
 FormGI is forming the generalized inverse of G from B-inverse, IUseBI=4.
 Internal  Forces:  Max     0.050098399 RMS     0.009467708
 Search for a local minimum.
 Step number   3 out of a maximum of   38 on scan point    11 out of    21
 All quantities printed in internal units (Hartrees-Bohrs-Radians)
 RMS Force = .20818D-05 SwitMx=.10000D-02 MixMth= 2
 Mixed Optimization -- En-DIIS/RFO-DIIS
 Swapping is turned off.
 Update second derivatives using D2CorX and points    1    2    3
 DE= -4.63D-06 DEPred=-4.58D-06 R= 1.01D+00
 TightC=F SS=  1.41D+00  RLast= 1.09D-02 DXNew= 3.2069D-01 3.2784D-02
 Trust test= 1.01D+00 RLast= 1.09D-02 DXMaxT set to 1.91D-01
 ITU=  1  1  0
     Eigenvalues ---    0.00122   0.07332   0.07332   0.07332   0.07332
     Eigenvalues ---    0.08714   0.16000   0.16000   0.16000   0.16000
     Eigenvalues ---    0.17133   0.36931   0.37230   0.37230   0.37230
     Eigenvalues ---    0.37230   0.372351000.000001000.000001000.00000
     Eigenvalues --- 1000.000001000.000001000.000001000.000001000.00000
     Eigenvalues --- 1000.000001000.000001000.00000
 En-DIIS/RFO-DIIS/Sim-DIIS IScMMF=       -3 using points:     3    2
 RFO step:  Lambda=-2.51022588D-06.
 NNeg= 0 NGDIIS= 2 SimSw=  2.50D-03 Rises=F DC= -4.63D-06 SmlDif=  1.00D-05
 NRisDI= 0 DoIntr=F SqrtH=F CThrHd= 10.0 CDAdj=  3.0
 RMS Error=  0.3200008373D-03 NUsed= 2 OKEnD=F EnDIS=F
 InvSVX:  RCond= 2.98D-05 Info=           0 Equed=N FErr=  1.02D-15 BErr=  4.62D-17
 DidBck=F Rises=F RFO-DIIS coefs:    1.04439   -0.04439
 Iteration  1 RMS(Cart)=  0.00026314 RMS(Int)=  0.00000035
 Iteration  2 RMS(Cart)=  0.00000004 RMS(Int)=  0.00000035
 Iteration  1 RMS(Cart)=  0.00000001 RMS(Int)=  0.00000000
 ITry= 1 IFail=0 DXMaxC= 5.26D-04 DCOld= 1.00D+10 DXMaxT= 1.91D-01 DXLimC= 3.00D+00 Rises=F
 ClnCor:  largest displacement from symmetrization is 7.57D-05 for atom     7.
 Variable       Old X    -DE/DX   Delta X   Delta X   Delta X     New X
                                 (Linear)    (Quad)   (Total)
    R1        2.04013   0.00000  -0.00001   0.00002   0.00001   2.04014
    R2        2.04013   0.00000  -0.00001   0.00002   0.00001   2.04014
    R3        2.04013   0.00000  -0.00001   0.00002   0.00001   2.04014
    R4        4.79990  -0.05010  -0.00000   0.00000  -0.00000   4.79990
    R5        2.04013   0.00000  -0.00001   0.00002   0.00001   2.04014
    R6        2.04013   0.00000  -0.00001   0.00002   0.00001   2.04014
    R7        2.04013   0.00000  -0.00001   0.00002   0.00001   2.04014
    A1        2.04198  -0.00000   0.00009  -0.00010  -0.00000   2.04198
    A2        2.04198  -0.00000   0.00009  -0.00011  -0.00000   2.04198
    A3        1.74693   0.00000  -0.00016   0.00016   0.00000   1.74693
    A4        2.04198  -0.00000   0.00009  -0.00011  -0.00000   2.04198
    A5        1.74693   0.00000  -0.00016   0.00018   0.00000   1.74693
    A6        1.74693   0.00000  -0.00016   0.00020   0.00000   1.74693
    A7        1.74693   0.00000  -0.00016   0.00016   0.00000   1.74693
    A8        1.74693   0.00000  -0.00016   0.00020   0.00000   1.74693
    A9        1.74693   0.00000  -0.00016   0.00018   0.00000   1.74693
   A10        2.04198  -0.00000   0.00009  -0.00011  -0.00000   2.04198
   A11        2.04198  -0.00000   0.00009  -0.00010  -0.00000   2.04198
   A12        2.04198  -0.00000   0.00009  -0.00011  -0.00000   2.04198
    D1        1.02471  -0.00000  -0.00005  -0.00051  -0.00056   1.02415
    D2        3.11911  -0.00000  -0.00005  -0.00051  -0.00056   3.11854
    D3       -1.06968  -0.00000  -0.00005  -0.00051  -0.00056  -1.07025
    D4       -1.06968  -0.00000  -0.00005  -0.00051  -0.00056  -1.07025
    D5        1.02471  -0.00000  -0.00005  -0.00051  -0.00056   1.02415
    D6        3.11911  -0.00000  -0.00005  -0.00051  -0.00056   3.11854
    D7        3.11911  -0.00000  -0.00005  -0.00051  -0.00056   3.11854
    D8       -1.06968  -0.00000  -0.00005  -0.00051  -0.00056  -1.07025
    D9        1.02471  -0.00000  -0.00005  -0.00051  -0.00056   1.02415
         Item               Value     Threshold  Converged?
 Maximum Force            0.000004     0.000450     YES
 RMS     Force            0.000002     0.000300     YES
 Maximum Displacement     0.000489     0.001800     YES
 RMS     Displacement     0.000261     0.001200     YES
 Predicted change in Energy=-1.961832D-09
 Optimization completed.
    -- Stationary point found.
                           ----------------------------
                           !   Optimized Parameters   !
                           ! (Angstroms and Degrees)  !
 --------------------------                            --------------------------
 ! Name  Definition              Value          Derivative Info.                !
 --------------------------------------------------------------------------------
 ! R1    R(1,2)                  1.0796         -DE/DX =    0.0                 !
 ! R2    R(1,3)                  1.0796         -DE/DX =    0.0                 !
 ! R3    R(1,4)                  1.0796         -DE/DX =    0.0                 !
 ! R4    R(1,5)                  2.54           -DE/DX =   -0.0501              !
 ! R5    R(5,6)                  1.0796         -DE/DX =    0.0                 !
 ! R6    R(5,7)                  1.0796         -DE/DX =    0.0                 !
 ! R7    R(5,8)                  1.0796         -DE/DX =    0.0                 !
 ! A1    A(2,1,3)              116.9971         -DE/DX =    0.0                 !
 ! A2    A(2,1,4)              116.9971         -DE/DX =    0.0                 !
 ! A3    A(2,1,5)              100.0917         -DE/DX =    0.0                 !
 ! A4    A(3,1,4)              116.9971         -DE/DX =    0.0                 !
 ! A5    A(3,1,5)              100.0917         -DE/DX =    0.0                 !
 ! A6    A(4,1,5)              100.0917         -DE/DX =    0.0                 !
 ! A7    A(1,5,6)              100.0917         -DE/DX =    0.0                 !
 ! A8    A(1,5,7)              100.0917         -DE/DX =    0.0                 !
 ! A9    A(1,5,8)              100.0917         -DE/DX =    0.0                 !
 ! A10   A(6,5,7)              116.9971         -DE/DX =    0.0                 !
 ! A11   A(6,5,8)              116.9971         -DE/DX =    0.0                 !
 ! A12   A(7,5,8)              116.9971         -DE/DX =    0.0                 !
 ! D1    D(2,1,5,6)             58.7116         -DE/DX =    0.0                 !
 ! D2    D(2,1,5,7)            178.7116         -DE/DX =    0.0                 !
 ! D3    D(2,1,5,8)            -61.2884         -DE/DX =    0.0                 !
 ! D4    D(3,1,5,6)            -61.2884         -DE/DX =    0.0                 !
 ! D5    D(3,1,5,7)             58.7116         -DE/DX =    0.0                 !
 ! D6    D(3,1,5,8)            178.7116         -DE/DX =    0.0                 !
 ! D7    D(4,1,5,6)            178.7116         -DE/DX =    0.0                 !
 ! D8    D(4,1,5,7)            -61.2884         -DE/DX =    0.0                 !
 ! D9    D(4,1,5,8)             58.7116         -DE/DX =    0.0                 !
 --------------------------------------------------------------------------------
 Iteration  1 RMS(Cart)=  0.05050507 RMS(Int)=  0.00000001
 Iteration  2 RMS(Cart)=  0.00000001 RMS(Int)=  0.00000000
 Iteration  1 RMS(Cart)=  0.00000000 RMS(Int)=  0.00000000
 GradGradGradGradGradGradGradGradGradGradGradGradGradGradGradGradGradGrad

 Leave Link  103 at Mon Oct  6 14:21:06 2025, MaxMem=   104857600 cpu:               0.0 elap:               0.0
 (Enter /home/zhouoh/g16/l202.exe)
                          Input orientation:                          
 ---------------------------------------------------------------------
 Center     Atomic      Atomic             Coordinates (Angstroms)
 Number     Number       Type             X           Y           Z
 ---------------------------------------------------------------------
      1          6           0       -2.099545   -0.341688   -0.449073
      2          1           0       -1.652429   -1.313325   -0.302326
      3          1           0       -1.670730    0.284165   -1.217158
      4          1           0       -3.164651   -0.263427   -0.291107
      5          6           0       -1.219530    0.902809    1.706478
      6          1           0       -0.154447    0.803336    1.560768
      7          1           0       -1.646632    1.881498    1.547489
      8          1           0       -1.668337    0.291117    2.474549
 ---------------------------------------------------------------------
                    Distance matrix (angstroms):
                    1          2          3          4          5
     1  C    0.000000
     2  H    1.079596   0.000000
     3  H    1.079596   1.840985   0.000000
     4  H    1.079596   1.840985   1.840985   0.000000
     5  C    2.640000   3.022242   3.022242   3.022242   0.000000
     6  H    3.022242   3.193012   3.207105   3.691714   1.079596
     7  H    3.022242   3.691714   3.193012   3.207105   1.079596
     8  H    3.022242   3.207105   3.691714   3.193012   1.079596
                    6          7          8
     6  H    0.000000
     7  H    1.840985   0.000000
     8  H    1.840985   1.840985   0.000000
 Stoichiometry    C2H6
 Framework group  D3[C3(C.C),X(H6)]
 Deg. of freedom     4
 Full point group                 D3      NOp   6
 RotChk:  IX=0 Diff= 1.53D-13
 Largest Abelian subgroup         C2      NOp   2
 Largest concise Abelian subgroup C2      NOp   2
                         Standard orientation:                         
 ---------------------------------------------------------------------
 Center     Atomic      Atomic             Coordinates (Angstroms)
 Number     Number       Type             X           Y           Z
 ---------------------------------------------------------------------
      1          6           0       -0.000000    0.000000    1.320000
      2          1           0       -0.520803    0.926556    1.509170
      3          1           0        1.062823   -0.012249    1.509170
      4          1           0       -0.542019   -0.914307    1.509170
      5          6           0        0.000000    0.000000   -1.320000
      6          1           0        0.520803    0.926556   -1.509170
      7          1           0        0.542019   -0.914307   -1.509170
      8          1           0       -1.062823   -0.012249   -1.509170
 ---------------------------------------------------------------------
 Rotational constants (GHZ):          73.9778304           8.5648963           8.5648963
 Leave Link  202 at Mon Oct  6 14:21:06 2025, MaxMem=   104857600 cpu:               0.0 elap:               0.0
 (Enter /home/zhouoh/g16/l301.exe)
 Standard basis: STO-3G (5D, 7F)
 Ernie: Thresh=  0.10000D-02 Tol=  0.10000D-05 Strict=F.
 There are     8 symmetry adapted cartesian basis functions of A   symmetry.
 There are     8 symmetry adapted cartesian basis functions of B   symmetry.
 There are     8 symmetry adapted basis functions of A   symmetry.
 There are     8 symmetry adapted basis functions of B   symmetry.
    16 basis functions,    48 primitive gaussians,    16 cartesian basis functions
     9 alpha electrons        9 beta electrons
       nuclear repulsion energy        34.3121630291 Hartrees.
 IExCor=    0 DFT=F Ex=HF Corr=None ExCW=0 ScaHFX=  1.000000
 ScaDFX=  1.000000  1.000000  1.000000  1.000000 ScalE2=  1.000000  1.000000
 IRadAn=      5 IRanWt=     -1 IRanGd=            0 ICorTp=0 IEmpDi=  4
 NAtoms=    8 NActive=    8 NUniq=    2 SFac= 4.00D+00 NAtFMM=   60 NAOKFM=F Big=F
 Integral buffers will be    131072 words long.
 Raffenetti 1 integral format.
 Two-electron integral symmetry is turned on.
 Leave Link  301 at Mon Oct  6 14:21:06 2025, MaxMem=   104857600 cpu:               0.0 elap:               0.0
 (Enter /home/zhouoh/g16/l402.exe)
 External calculation of energy and first derivatives.
 Running external command "python ../GauUMA_client.py R"
         input file       "/home/zhouoh/scratch/Gau-2811633.EIn"
         output file      "/home/zhouoh/scratch/Gau-2811633.EOu"
         message file     "/home/zhouoh/scratch/Gau-2811633.EMs"
         fchk file        "/home/zhouoh/scratch/Gau-2811633.EFC"
         mat. el file     "/home/zhouoh/scratch/Gau-2811633.EUF"
Sent job to server.
Received result from server:
SCF Done:  E(UMA) =  -79.65675766415642     A.U.
 Recovered energy= -79.6567576642     dipole=      0.000000000000      0.000000000000      0.000000000000
 Energy=    -79.6567577     NIter=   0.
 Dipole moment=       0.000000       0.000000       0.000000
 Leave Link  402 at Mon Oct  6 14:21:06 2025, MaxMem=   104857600 cpu:               0.0 elap:               0.1
 (Enter /home/zhouoh/g16/l716.exe)
 Dipole        = 0.00000000D+00 0.00000000D+00 0.00000000D+00
 ***** Axes restored to original set *****
 -------------------------------------------------------------------
 Center     Atomic                   Forces (Hartrees/Bohr)
 Number     Number              X              Y              Z
 -------------------------------------------------------------------
      1        6           0.010538051    0.014902742    0.025812569
      2        1           0.000629946    0.000444272    0.001276689
      3        1           0.000622984    0.000888418    0.001023109
      4        1           0.000208985    0.000734631    0.001280930
      5        6          -0.010538130   -0.014902688   -0.025812568
      6        1          -0.000208913   -0.000742497   -0.001276402
      7        1          -0.000622492   -0.000441738   -0.001281214
      8        1          -0.000630433   -0.000883144   -0.001023115
 -------------------------------------------------------------------
 Cartesian Forces:  Max     0.025812569 RMS     0.009156525
 Leave Link  716 at Mon Oct  6 14:21:06 2025, MaxMem=   104857600 cpu:               0.0 elap:               0.0
 (Enter /home/zhouoh/g16/l103.exe)

 GradGradGradGradGradGradGradGradGradGradGradGradGradGradGradGradGradGrad
 Berny optimization.
 FormGI is forming the generalized inverse of G from B-inverse, IUseBI=4.
 Internal  Forces:  Max     0.035999282 RMS     0.006911340
 Search for a local minimum.
 Step number   1 out of a maximum of   38 on scan point    12 out of    21
 All quantities printed in internal units (Hartrees-Bohrs-Radians)
 RMS Force = .12400D-02 SwitMx=.10000D-02 MixMth= 1
 Mixed Optimization -- RFO/linear search
 Second derivative matrix not updated -- first step.
 ITU=  0
     Eigenvalues ---    0.00122   0.07332   0.07332   0.07332   0.07332
     Eigenvalues ---    0.08714   0.16000   0.16000   0.16000   0.16000
     Eigenvalues ---    0.17133   0.36931   0.37230   0.37230   0.37230
     Eigenvalues ---    0.37230   0.372351000.000001000.000001000.00000
     Eigenvalues --- 1000.000001000.000001000.000001000.000001000.00000
     Eigenvalues --- 1000.000001000.000001000.00000
 RFO step:  Lambda=-4.72726482D-04 EMin= 1.22383615D-03
 Linear search not attempted -- first point.
 Iteration  1 RMS(Cart)=  0.02462913 RMS(Int)=  0.00056823
 Iteration  2 RMS(Cart)=  0.00049473 RMS(Int)=  0.00042081
 Iteration  3 RMS(Cart)=  0.00000080 RMS(Int)=  0.00042081
 Iteration  1 RMS(Cart)=  0.00000000 RMS(Int)=  0.00000000
 ITry= 1 IFail=0 DXMaxC= 4.87D-02 DCOld= 1.00D+10 DXMaxT= 1.91D-01 DXLimC= 3.00D+00 Rises=F
 ClnCor:  largest displacement from symmetrization is 3.08D-04 for atom     4.
 Variable       Old X    -DE/DX   Delta X   Delta X   Delta X     New X
                                 (Linear)    (Quad)   (Total)
    R1        2.04014   0.00003   0.00000  -0.00113  -0.00112   2.03902
    R2        2.04014   0.00003   0.00000  -0.00113  -0.00112   2.03902
    R3        2.04014   0.00003   0.00000  -0.00113  -0.00112   2.03902
    R4        4.98888  -0.03600   0.00000   0.00000   0.00000   4.98888
    R5        2.04014   0.00003   0.00000  -0.00113  -0.00112   2.03902
    R6        2.04014   0.00003   0.00000  -0.00113  -0.00112   2.03902
    R7        2.04014   0.00003   0.00000  -0.00113  -0.00112   2.03902
    A1        2.04198   0.00132   0.00000   0.01503   0.01420   2.05618
    A2        2.04198   0.00132   0.00000   0.01505   0.01420   2.05618
    A3        1.74693  -0.00227   0.00000  -0.02584  -0.02624   1.72069
    A4        2.04198   0.00132   0.00000   0.01507   0.01420   2.05618
    A5        1.74693  -0.00227   0.00000  -0.02591  -0.02624   1.72069
    A6        1.74693  -0.00227   0.00000  -0.02599  -0.02624   1.72069
    A7        1.74693  -0.00227   0.00000  -0.02584  -0.02624   1.72069
    A8        1.74693  -0.00227   0.00000  -0.02599  -0.02624   1.72069
    A9        1.74693  -0.00227   0.00000  -0.02591  -0.02624   1.72069
   A10        2.04198   0.00132   0.00000   0.01505   0.01420   2.05618
   A11        2.04198   0.00132   0.00000   0.01503   0.01420   2.05618
   A12        2.04198   0.00132   0.00000   0.01507   0.01420   2.05618
    D1        1.02415  -0.00000   0.00000  -0.00587  -0.00587   1.01828
    D2        3.11854  -0.00000   0.00000  -0.00587  -0.00587   3.11267
    D3       -1.07025  -0.00000   0.00000  -0.00587  -0.00587  -1.07612
    D4       -1.07025  -0.00000   0.00000  -0.00587  -0.00587  -1.07612
    D5        1.02415  -0.00000   0.00000  -0.00587  -0.00587   1.01828
    D6        3.11854  -0.00000   0.00000  -0.00587  -0.00587   3.11267
    D7        3.11854  -0.00000   0.00000  -0.00587  -0.00587   3.11267
    D8       -1.07025  -0.00000   0.00000  -0.00587  -0.00587  -1.07612
    D9        1.02415  -0.00000   0.00000  -0.00587  -0.00587   1.01828
         Item               Value     Threshold  Converged?
 Maximum Force            0.002274     0.000450     NO 
 RMS     Force            0.001240     0.000300     NO 
 Maximum Displacement     0.048443     0.001800     NO 
 RMS     Displacement     0.024933     0.001200     NO 
 Predicted change in Energy=-2.373080D-04
 GradGradGradGradGradGradGradGradGradGradGradGradGradGradGradGradGradGrad

 Leave Link  103 at Mon Oct  6 14:21:06 2025, MaxMem=   104857600 cpu:               0.0 elap:               0.0
 (Enter /home/zhouoh/g16/l202.exe)
                          Input orientation:                          
 ---------------------------------------------------------------------
 Center     Atomic      Atomic             Coordinates (Angstroms)
 Number     Number       Type             X           Y           Z
 ---------------------------------------------------------------------
      1          6           0       -2.099545   -0.341688   -0.449073
      2          1           0       -1.638616   -1.302498   -0.279868
      3          1           0       -1.662101    0.301866   -1.196552
      4          1           0       -3.159047   -0.252294   -0.265474
      5          6           0       -1.219530    0.902809    1.706478
      6          1           0       -0.160057    0.786698    1.538316
      7          1           0       -1.655251    1.872501    1.521854
      8          1           0       -1.682154    0.277090    2.453939
 ---------------------------------------------------------------------
                    Distance matrix (angstroms):
                    1          2          3          4          5
     1  C    0.000000
     2  H    1.079001   0.000000
     3  H    1.079001   1.847930   0.000000
     4  H    1.079001   1.847930   1.847930   0.000000
     5  C    2.640000   2.997430   2.997430   2.997430   0.000000
     6  H    2.997430   3.139533   3.157641   3.650630   1.079001
     7  H    2.997430   3.650630   3.139533   3.157641   1.079001
     8  H    2.997430   3.157641   3.650630   3.139533   1.079001
                    6          7          8
     6  H    0.000000
     7  H    1.847930   0.000000
     8  H    1.847930   1.847930   0.000000
 Stoichiometry    C2H6
 Framework group  D3[C3(C.C),X(H6)]
 Deg. of freedom     4
 Full point group                 D3      NOp   6
 RotChk:  IX=0 Diff= 1.15D-15
 Largest Abelian subgroup         C2      NOp   2
 Largest concise Abelian subgroup C2      NOp   2
                         Standard orientation:                         
 ---------------------------------------------------------------------
 Center     Atomic      Atomic             Coordinates (Angstroms)
 Number     Number       Type             X           Y           Z
 ---------------------------------------------------------------------
      1          6           0        0.000000   -0.000000    1.320000
      2          1           0       -0.520034    0.931582    1.481125
      3          1           0        1.066791   -0.015428    1.481125
      4          1           0       -0.546757   -0.916154    1.481125
      5          6           0        0.000000   -0.000000   -1.320000
      6          1           0        0.520034    0.931582   -1.481125
      7          1           0        0.546757   -0.916154   -1.481125
      8          1           0       -1.066791   -0.015428   -1.481125
 ---------------------------------------------------------------------
 Rotational constants (GHZ):          73.4228214           8.6353331           8.6353331
 Leave Link  202 at Mon Oct  6 14:21:06 2025, MaxMem=   104857600 cpu:               0.0 elap:               0.0
 (Enter /home/zhouoh/g16/l301.exe)
 Standard basis: STO-3G (5D, 7F)
 Ernie: Thresh=  0.10000D-02 Tol=  0.10000D-05 Strict=F.
 There are     8 symmetry adapted cartesian basis functions of A   symmetry.
 There are     8 symmetry adapted cartesian basis functions of B   symmetry.
 There are     8 symmetry adapted basis functions of A   symmetry.
 There are     8 symmetry adapted basis functions of B   symmetry.
    16 basis functions,    48 primitive gaussians,    16 cartesian basis functions
     9 alpha electrons        9 beta electrons
       nuclear repulsion energy        34.3886533776 Hartrees.
 IExCor=    0 DFT=F Ex=HF Corr=None ExCW=0 ScaHFX=  1.000000
 ScaDFX=  1.000000  1.000000  1.000000  1.000000 ScalE2=  1.000000  1.000000
 IRadAn=      5 IRanWt=     -1 IRanGd=            0 ICorTp=0 IEmpDi=  4
 NAtoms=    8 NActive=    8 NUniq=    2 SFac= 4.00D+00 NAtFMM=   60 NAOKFM=F Big=F
 Integral buffers will be    131072 words long.
 Raffenetti 1 integral format.
 Two-electron integral symmetry is turned on.
 Leave Link  301 at Mon Oct  6 14:21:06 2025, MaxMem=   104857600 cpu:               0.0 elap:               0.0
 (Enter /home/zhouoh/g16/l402.exe)
 External calculation of energy and first derivatives.
 Running external command "python ../GauUMA_client.py R"
         input file       "/home/zhouoh/scratch/Gau-2811633.EIn"
         output file      "/home/zhouoh/scratch/Gau-2811633.EOu"
         message file     "/home/zhouoh/scratch/Gau-2811633.EMs"
         fchk file        "/home/zhouoh/scratch/Gau-2811633.EFC"
         mat. el file     "/home/zhouoh/scratch/Gau-2811633.EUF"
Sent job to server.
Received result from server:
SCF Done:  E(UMA) =  -79.65702409057266     A.U.
 Recovered energy= -79.6570240906     dipole=      0.000000000000      0.000000000000      0.000000000000
 Energy=    -79.6570241     NIter=   0.
 Dipole moment=       0.000000       0.000000       0.000000
 Leave Link  402 at Mon Oct  6 14:21:06 2025, MaxMem=   104857600 cpu:               0.0 elap:               0.1
 (Enter /home/zhouoh/g16/l716.exe)
 Dipole        = 0.00000000D+00 0.00000000D+00 0.00000000D+00
 ***** Axes restored to original set *****
 -------------------------------------------------------------------
 Center     Atomic                   Forces (Hartrees/Bohr)
 Number     Number              X              Y              Z
 -------------------------------------------------------------------
      1        6           0.011076609    0.015664262    0.027131568
      2        1           0.000080870    0.000065745    0.000168778
      3        1           0.000079852    0.000114013    0.000141330
      4        1           0.000035034    0.000097090    0.000169397
      5        6          -0.011076594   -0.015664265   -0.027131563
      6        1          -0.000035034   -0.000098216   -0.000168750
      7        1          -0.000079809   -0.000065375   -0.000169432
      8        1          -0.000080929   -0.000113253   -0.000141331
 -------------------------------------------------------------------
 Cartesian Forces:  Max     0.027131568 RMS     0.009592967
 Leave Link  716 at Mon Oct  6 14:21:06 2025, MaxMem=   104857600 cpu:               0.0 elap:               0.0
 (Enter /home/zhouoh/g16/l103.exe)

 GradGradGradGradGradGradGradGradGradGradGradGradGradGradGradGradGradGrad
 Berny optimization.
 Using GEDIIS/GDIIS optimizer.
 FormGI is forming the generalized inverse of G from B-inverse, IUseBI=4.
 Internal  Forces:  Max     0.033816514 RMS     0.006392913
 Search for a local minimum.
 Step number   2 out of a maximum of   38 on scan point    12 out of    21
 All quantities printed in internal units (Hartrees-Bohrs-Radians)
 RMS Force = .17048D-03 SwitMx=.10000D-02 MixMth= 2
 Mixed Optimization -- En-DIIS/RFO-DIIS
 Update second derivatives using D2CorX and points    1    2
 DE= -2.66D-04 DEPred=-2.37D-04 R= 1.12D+00
 TightC=F SS=  1.41D+00  RLast= 7.52D-02 DXNew= 3.2069D-01 2.2571D-01
 Trust test= 1.12D+00 RLast= 7.52D-02 DXMaxT set to 2.26D-01
 ITU=  1  0
 Use linear search instead of GDIIS.
     Eigenvalues ---    0.00122   0.07536   0.07536   0.07536   0.07536
     Eigenvalues ---    0.07575   0.16000   0.16000   0.16000   0.16000
     Eigenvalues ---    0.17125   0.36926   0.37230   0.37230   0.37230
     Eigenvalues ---    0.37230   0.372351000.000001000.000001000.00000
     Eigenvalues --- 1000.000001000.000001000.000001000.000001000.00000
     Eigenvalues --- 1000.000001000.000001000.00000
 RFO step:  Lambda=-1.47840212D-08 EMin= 1.22491810D-03
 Quartic linear search produced a step of  0.16272.
 Iteration  1 RMS(Cart)=  0.00422125 RMS(Int)=  0.00008411
 Iteration  2 RMS(Cart)=  0.00001311 RMS(Int)=  0.00008342
 Iteration  3 RMS(Cart)=  0.00000000 RMS(Int)=  0.00008342
 Iteration  1 RMS(Cart)=  0.00000001 RMS(Int)=  0.00000000
 ITry= 1 IFail=0 DXMaxC= 8.52D-03 DCOld= 1.00D+10 DXMaxT= 2.26D-01 DXLimC= 3.00D+00 Rises=F
 ClnCor:  largest displacement from symmetrization is 1.49D-04 for atom     4.
 Variable       Old X    -DE/DX   Delta X   Delta X   Delta X     New X
                                 (Linear)    (Quad)   (Total)
    R1        2.03902   0.00000  -0.00018  -0.00001  -0.00019   2.03882
    R2        2.03902   0.00000  -0.00018  -0.00001  -0.00019   2.03882
    R3        2.03902   0.00000  -0.00018  -0.00001  -0.00019   2.03882
    R4        4.98888  -0.03382   0.00000   0.00000  -0.00000   4.98888
    R5        2.03902   0.00000  -0.00018  -0.00001  -0.00019   2.03882
    R6        2.03902   0.00000  -0.00018  -0.00001  -0.00019   2.03882
    R7        2.03902   0.00000  -0.00018  -0.00001  -0.00019   2.03882
    A1        2.05618   0.00016   0.00231   0.00001   0.00217   2.05836
    A2        2.05618   0.00016   0.00231   0.00000   0.00217   2.05836
    A3        1.72069  -0.00032  -0.00427  -0.00005  -0.00440   1.71629
    A4        2.05618   0.00016   0.00231  -0.00001   0.00217   2.05836
    A5        1.72069  -0.00032  -0.00427  -0.00001  -0.00440   1.71629
    A6        1.72069  -0.00032  -0.00427   0.00003  -0.00440   1.71629
    A7        1.72069  -0.00032  -0.00427  -0.00005  -0.00440   1.71629
    A8        1.72069  -0.00032  -0.00427   0.00003  -0.00440   1.71629
    A9        1.72069  -0.00032  -0.00427  -0.00001  -0.00440   1.71629
   A10        2.05618   0.00016   0.00231   0.00000   0.00217   2.05836
   A11        2.05618   0.00016   0.00231   0.00001   0.00217   2.05836
   A12        2.05618   0.00016   0.00231  -0.00001   0.00217   2.05836
    D1        1.01828  -0.00000  -0.00096  -0.00115  -0.00210   1.01618
    D2        3.11267  -0.00000  -0.00096  -0.00115  -0.00210   3.11057
    D3       -1.07612  -0.00000  -0.00096  -0.00115  -0.00210  -1.07822
    D4       -1.07612  -0.00000  -0.00096  -0.00115  -0.00210  -1.07822
    D5        1.01828  -0.00000  -0.00096  -0.00115  -0.00210   1.01618
    D6        3.11267  -0.00000  -0.00096  -0.00115  -0.00210   3.11057
    D7        3.11267  -0.00000  -0.00096  -0.00115  -0.00210   3.11057
    D8       -1.07612  -0.00000  -0.00096  -0.00115  -0.00210  -1.07822
    D9        1.01828  -0.00000  -0.00096  -0.00115  -0.00210   1.01618
         Item               Value     Threshold  Converged?
 Maximum Force            0.000323     0.000450     YES
 RMS     Force            0.000170     0.000300     YES
 Maximum Displacement     0.008644     0.001800     NO 
 RMS     Displacement     0.004264     0.001200     NO 
 Predicted change in Energy=-5.161489D-06
 GradGradGradGradGradGradGradGradGradGradGradGradGradGradGradGradGradGrad

 Leave Link  103 at Mon Oct  6 14:21:06 2025, MaxMem=   104857600 cpu:               0.0 elap:               0.0
 (Enter /home/zhouoh/g16/l202.exe)
                          Input orientation:                          
 ---------------------------------------------------------------------
 Center     Atomic      Atomic             Coordinates (Angstroms)
 Number     Number       Type             X           Y           Z
 ---------------------------------------------------------------------
      1          6           0       -2.099545   -0.341688   -0.449073
      2          1           0       -1.635852   -1.300438   -0.276423
      3          1           0       -1.661180    0.305123   -1.193044
      4          1           0       -3.158025   -0.250956   -0.260900
      5          6           0       -1.219530    0.902809    1.706478
      6          1           0       -0.161081    0.783405    1.534871
      7          1           0       -1.656170    1.871091    1.517280
      8          1           0       -1.684917    0.275138    2.450431
 ---------------------------------------------------------------------
                    Distance matrix (angstroms):
                    1          2          3          4          5
     1  C    0.000000
     2  H    1.078898   0.000000
     3  H    1.078898   1.848962   0.000000
     4  H    1.078898   1.848962   1.848962   0.000000
     5  C    2.640000   2.993245   2.993245   2.993245   0.000000
     6  H    2.993245   3.130198   3.149694   3.643676   1.078898
     7  H    2.993245   3.643676   3.130198   3.149694   1.078898
     8  H    2.993245   3.149694   3.643676   3.130198   1.078898
                    6          7          8
     6  H    0.000000
     7  H    1.848962   0.000000
     8  H    1.848962   1.848962   0.000000
 Stoichiometry    C2H6
 Framework group  D3[C3(C.C),X(H6)]
 Deg. of freedom     4
 Full point group                 D3      NOp   6
 RotChk:  IX=0 Diff= 8.19D-16
 Largest Abelian subgroup         C2      NOp   2
 Largest concise Abelian subgroup C2      NOp   2
                         Standard orientation:                         
 ---------------------------------------------------------------------
 Center     Atomic      Atomic             Coordinates (Angstroms)
 Number     Number       Type             X           Y           Z
 ---------------------------------------------------------------------
      1          6           0       -0.000000   -0.000000    1.320000
      2          1           0       -0.519346    0.932648    1.476419
      3          1           0        1.067370   -0.016557    1.476419
      4          1           0       -0.548024   -0.916091    1.476419
      5          6           0        0.000000    0.000000   -1.320000
      6          1           0        0.519346    0.932648   -1.476419
      7          1           0        0.548024   -0.916091   -1.476419
      8          1           0       -1.067370   -0.016557   -1.476419
 ---------------------------------------------------------------------
 Rotational constants (GHZ):          73.3408619           8.6472003           8.6472003
 Leave Link  202 at Mon Oct  6 14:21:06 2025, MaxMem=   104857600 cpu:               0.0 elap:               0.0
 (Enter /home/zhouoh/g16/l301.exe)
 Standard basis: STO-3G (5D, 7F)
 Ernie: Thresh=  0.10000D-02 Tol=  0.10000D-05 Strict=F.
 There are     8 symmetry adapted cartesian basis functions of A   symmetry.
 There are     8 symmetry adapted cartesian basis functions of B   symmetry.
 There are     8 symmetry adapted basis functions of A   symmetry.
 There are     8 symmetry adapted basis functions of B   symmetry.
    16 basis functions,    48 primitive gaussians,    16 cartesian basis functions
     9 alpha electrons        9 beta electrons
       nuclear repulsion energy        34.4018724792 Hartrees.
 IExCor=    0 DFT=F Ex=HF Corr=None ExCW=0 ScaHFX=  1.000000
 ScaDFX=  1.000000  1.000000  1.000000  1.000000 ScalE2=  1.000000  1.000000
 IRadAn=      5 IRanWt=     -1 IRanGd=            0 ICorTp=0 IEmpDi=  4
 NAtoms=    8 NActive=    8 NUniq=    2 SFac= 4.00D+00 NAtFMM=   60 NAOKFM=F Big=F
 Integral buffers will be    131072 words long.
 Raffenetti 1 integral format.
 Two-electron integral symmetry is turned on.
 Leave Link  301 at Mon Oct  6 14:21:06 2025, MaxMem=   104857600 cpu:               0.0 elap:               0.0
 (Enter /home/zhouoh/g16/l402.exe)
 External calculation of energy and first derivatives.
 Running external command "python ../GauUMA_client.py R"
         input file       "/home/zhouoh/scratch/Gau-2811633.EIn"
         output file      "/home/zhouoh/scratch/Gau-2811633.EOu"
         message file     "/home/zhouoh/scratch/Gau-2811633.EMs"
         fchk file        "/home/zhouoh/scratch/Gau-2811633.EFC"
         mat. el file     "/home/zhouoh/scratch/Gau-2811633.EUF"
Sent job to server.
Received result from server:
SCF Done:  E(UMA) =  -79.65702938265223     A.U.
 Recovered energy= -79.6570293826     dipole=      0.000000000000      0.000000000000      0.000000000000
 Energy=    -79.6570294     NIter=   0.
 Dipole moment=       0.000000       0.000000       0.000000
 Leave Link  402 at Mon Oct  6 14:21:06 2025, MaxMem=   104857600 cpu:               0.0 elap:               0.1
 (Enter /home/zhouoh/g16/l716.exe)
 Dipole        = 0.00000000D+00 0.00000000D+00 0.00000000D+00
 ***** Axes restored to original set *****
 -------------------------------------------------------------------
 Center     Atomic                   Forces (Hartrees/Bohr)
 Number     Number              X              Y              Z
 -------------------------------------------------------------------
      1        6           0.011147644    0.015764724    0.027305415
      2        1           0.000002130   -0.000005728    0.000000284
      3        1           0.000002185    0.000003002   -0.000004755
      4        1          -0.000006111    0.000000195    0.000000236
      5        6          -0.011147634   -0.015764727   -0.027305413
      6        1           0.000006111   -0.000000110   -0.000000281
      7        1          -0.000002214    0.000005702   -0.000000243
      8        1          -0.000002113   -0.000003057    0.000004756
 -------------------------------------------------------------------
 Cartesian Forces:  Max     0.027305415 RMS     0.009653938
 Leave Link  716 at Mon Oct  6 14:21:06 2025, MaxMem=   104857600 cpu:               0.0 elap:               0.0
 (Enter /home/zhouoh/g16/l103.exe)

 GradGradGradGradGradGradGradGradGradGradGradGradGradGradGradGradGradGrad
 Berny optimization.
 Using GEDIIS/GDIIS optimizer.
 FormGI is forming the generalized inverse of G from B-inverse, IUseBI=4.
 Internal  Forces:  Max     0.033436973 RMS     0.006318995
 Search for a local minimum.
 Step number   3 out of a maximum of   38 on scan point    12 out of    21
 All quantities printed in internal units (Hartrees-Bohrs-Radians)
 RMS Force = .29417D-05 SwitMx=.10000D-02 MixMth= 2
 Mixed Optimization -- En-DIIS/RFO-DIIS
 Swapping is turned off.
 Update second derivatives using D2CorX and points    1    2    3
 DE= -5.29D-06 DEPred=-5.16D-06 R= 1.03D+00
 TightC=F SS=  1.41D+00  RLast= 1.36D-02 DXNew= 3.7959D-01 4.0702D-02
 Trust test= 1.03D+00 RLast= 1.36D-02 DXMaxT set to 2.26D-01
 ITU=  1  1  0
     Eigenvalues ---    0.00122   0.07428   0.07568   0.07568   0.07568
     Eigenvalues ---    0.07568   0.16000   0.16000   0.16000   0.16000
     Eigenvalues ---    0.17126   0.36916   0.37230   0.37230   0.37230
     Eigenvalues ---    0.37230   0.372351000.000001000.000001000.00000
     Eigenvalues --- 1000.000001000.000001000.000001000.000001000.00000
     Eigenvalues --- 1000.000001000.000001000.00000
 En-DIIS/RFO-DIIS/Sim-DIIS IScMMF=       -3 using points:     3    2
 RFO step:  Lambda=-1.11866204D-06.
 NNeg= 0 NGDIIS= 2 SimSw=  2.50D-03 Rises=F DC= -5.29D-06 SmlDif=  1.00D-05
 NRisDI= 0 DoIntr=F SqrtH=F CThrHd= 10.0 CDAdj=  3.0
 RMS Error=  0.5126395135D-04 NUsed= 2 OKEnD=F EnDIS=F
 InvSVX:  RCond= 2.07D-04 Info=           0 Equed=N FErr=  9.00D-16 BErr=  1.27D-17
 DidBck=F Rises=F RFO-DIIS coefs:    0.98696    0.01304
 Iteration  1 RMS(Cart)=  0.00004646 RMS(Int)=  0.00000016
 Iteration  2 RMS(Cart)=  0.00000000 RMS(Int)=  0.00000016
 Iteration  1 RMS(Cart)=  0.00000001 RMS(Int)=  0.00000000
 ITry= 1 IFail=0 DXMaxC= 9.81D-05 DCOld= 1.00D+10 DXMaxT= 2.26D-01 DXLimC= 3.00D+00 Rises=F
 ClnCor:  largest displacement from symmetrization is 8.19D-06 for atom     7.
 Variable       Old X    -DE/DX   Delta X   Delta X   Delta X     New X
                                 (Linear)    (Quad)   (Total)
    R1        2.03882   0.00001   0.00000   0.00001   0.00002   2.03884
    R2        2.03882   0.00001   0.00000   0.00001   0.00002   2.03884
    R3        2.03882   0.00001   0.00000   0.00001   0.00002   2.03884
    R4        4.98888  -0.03344   0.00000   0.00000   0.00000   4.98888
    R5        2.03882   0.00001   0.00000   0.00001   0.00002   2.03884
    R6        2.03882   0.00001   0.00000   0.00001   0.00002   2.03884
    R7        2.03882   0.00001   0.00000   0.00001   0.00002   2.03884
    A1        2.05836  -0.00000  -0.00003   0.00002  -0.00001   2.05834
    A2        2.05836  -0.00000  -0.00003   0.00002  -0.00001   2.05834
    A3        1.71629   0.00000   0.00006  -0.00003   0.00003   1.71631
    A4        2.05836  -0.00000  -0.00003   0.00002  -0.00001   2.05834
    A5        1.71629   0.00000   0.00006  -0.00003   0.00003   1.71631
    A6        1.71629   0.00000   0.00006  -0.00004   0.00003   1.71631
    A7        1.71629   0.00000   0.00006  -0.00003   0.00003   1.71631
    A8        1.71629   0.00000   0.00006  -0.00004   0.00003   1.71631
    A9        1.71629   0.00000   0.00006  -0.00003   0.00003   1.71631
   A10        2.05836  -0.00000  -0.00003   0.00002  -0.00001   2.05834
   A11        2.05836  -0.00000  -0.00003   0.00002  -0.00001   2.05834
   A12        2.05836  -0.00000  -0.00003   0.00002  -0.00001   2.05834
    D1        1.01618   0.00000   0.00003   0.00006   0.00009   1.01626
    D2        3.11057   0.00000   0.00003   0.00006   0.00009   3.11066
    D3       -1.07822   0.00000   0.00003   0.00006   0.00009  -1.07813
    D4       -1.07822   0.00000   0.00003   0.00006   0.00009  -1.07813
    D5        1.01618   0.00000   0.00003   0.00006   0.00009   1.01626
    D6        3.11057   0.00000   0.00003   0.00006   0.00009   3.11066
    D7        3.11057   0.00000   0.00003   0.00006   0.00009   3.11066
    D8       -1.07822   0.00000   0.00003   0.00006   0.00009  -1.07813
    D9        1.01618   0.00000   0.00003   0.00006   0.00009   1.01626
         Item               Value     Threshold  Converged?
 Maximum Force            0.000006     0.000450     YES
 RMS     Force            0.000003     0.000300     YES
 Maximum Displacement     0.000098     0.001800     YES
 RMS     Displacement     0.000047     0.001200     YES
 Predicted change in Energy=-5.575096D-10
 Optimization completed.
    -- Stationary point found.
                           ----------------------------
                           !   Optimized Parameters   !
                           ! (Angstroms and Degrees)  !
 --------------------------                            --------------------------
 ! Name  Definition              Value          Derivative Info.                !
 --------------------------------------------------------------------------------
 ! R1    R(1,2)                  1.0789         -DE/DX =    0.0                 !
 ! R2    R(1,3)                  1.0789         -DE/DX =    0.0                 !
 ! R3    R(1,4)                  1.0789         -DE/DX =    0.0                 !
 ! R4    R(1,5)                  2.64           -DE/DX =   -0.0334              !
 ! R5    R(5,6)                  1.0789         -DE/DX =    0.0                 !
 ! R6    R(5,7)                  1.0789         -DE/DX =    0.0                 !
 ! R7    R(5,8)                  1.0789         -DE/DX =    0.0                 !
 ! A1    A(2,1,3)              117.9351         -DE/DX =    0.0                 !
 ! A2    A(2,1,4)              117.9351         -DE/DX =    0.0                 !
 ! A3    A(2,1,5)               98.3362         -DE/DX =    0.0                 !
 ! A4    A(3,1,4)              117.9351         -DE/DX =    0.0                 !
 ! A5    A(3,1,5)               98.3362         -DE/DX =    0.0                 !
 ! A6    A(4,1,5)               98.3362         -DE/DX =    0.0                 !
 ! A7    A(1,5,6)               98.3362         -DE/DX =    0.0                 !
 ! A8    A(1,5,7)               98.3362         -DE/DX =    0.0                 !
 ! A9    A(1,5,8)               98.3362         -DE/DX =    0.0                 !
 ! A10   A(6,5,7)              117.9351         -DE/DX =    0.0                 !
 ! A11   A(6,5,8)              117.9351         -DE/DX =    0.0                 !
 ! A12   A(7,5,8)              117.9351         -DE/DX =    0.0                 !
 ! D1    D(2,1,5,6)             58.2226         -DE/DX =    0.0                 !
 ! D2    D(2,1,5,7)            178.2226         -DE/DX =    0.0                 !
 ! D3    D(2,1,5,8)            -61.7774         -DE/DX =    0.0                 !
 ! D4    D(3,1,5,6)            -61.7774         -DE/DX =    0.0                 !
 ! D5    D(3,1,5,7)             58.2226         -DE/DX =    0.0                 !
 ! D6    D(3,1,5,8)            178.2226         -DE/DX =    0.0                 !
 ! D7    D(4,1,5,6)            178.2226         -DE/DX =    0.0                 !
 ! D8    D(4,1,5,7)            -61.7774         -DE/DX =    0.0                 !
 ! D9    D(4,1,5,8)             58.2226         -DE/DX =    0.0                 !
 --------------------------------------------------------------------------------
 Iteration  1 RMS(Cart)=  0.05050507 RMS(Int)=  0.00000002
 Iteration  2 RMS(Cart)=  0.00000002 RMS(Int)=  0.00000000
 Iteration  1 RMS(Cart)=  0.00000001 RMS(Int)=  0.00000000
 GradGradGradGradGradGradGradGradGradGradGradGradGradGradGradGradGradGrad

 Leave Link  103 at Mon Oct  6 14:21:06 2025, MaxMem=   104857600 cpu:               0.0 elap:               0.0
 (Enter /home/zhouoh/g16/l202.exe)
                          Input orientation:                          
 ---------------------------------------------------------------------
 Center     Atomic      Atomic             Coordinates (Angstroms)
 Number     Number       Type             X           Y           Z
 ---------------------------------------------------------------------
      1          6           0       -2.116212   -0.365258   -0.489898
      2          1           0       -1.652563   -1.324039   -0.317246
      3          1           0       -1.677816    0.281517   -1.233896
      4          1           0       -3.174707   -0.274499   -0.301769
      5          6           0       -1.202863    0.926379    1.747303
      6          1           0       -0.144399    0.807027    1.575695
      7          1           0       -1.639534    1.894666    1.558149
      8          1           0       -1.668206    0.298691    2.491282
 ---------------------------------------------------------------------
                    Distance matrix (angstroms):
                    1          2          3          4          5
     1  C    0.000000
     2  H    1.078907   0.000000
     3  H    1.078907   1.848971   0.000000
     4  H    1.078907   1.848971   1.848971   0.000000
     5  C    2.740000   3.086903   3.086903   3.086903   0.000000
     6  H    3.086903   3.224783   3.243659   3.725230   1.078907
     7  H    3.086903   3.725230   3.224783   3.243659   1.078907
     8  H    3.086903   3.243659   3.725230   3.224783   1.078907
                    6          7          8
     6  H    0.000000
     7  H    1.848971   0.000000
     8  H    1.848971   1.848971   0.000000
 Stoichiometry    C2H6
 Framework group  D3[C3(C.C),X(H6)]
 Deg. of freedom     4
 Full point group                 D3      NOp   6
 RotChk:  IX=0 Diff= 5.97D-11
 Largest Abelian subgroup         C2      NOp   2
 Largest concise Abelian subgroup C2      NOp   2
                         Standard orientation:                         
 ---------------------------------------------------------------------
 Center     Atomic      Atomic             Coordinates (Angstroms)
 Number     Number       Type             X           Y           Z
 ---------------------------------------------------------------------
      1          6           0        0.000000   -0.000000    1.370000
      2          1           0       -0.519389    0.932631    1.526447
      3          1           0        1.067376   -0.016511    1.526447
      4          1           0       -0.547987   -0.916119    1.526447
      5          6           0        0.000000   -0.000000   -1.370000
      6          1           0        0.519389    0.932631   -1.526447
      7          1           0        0.547987   -0.916119   -1.526447
      8          1           0       -1.067376   -0.016511   -1.526447
 ---------------------------------------------------------------------
 Rotational constants (GHZ):          73.3401380           8.0756380           8.0756380
 Leave Link  202 at Mon Oct  6 14:21:06 2025, MaxMem=   104857600 cpu:               0.0 elap:               0.0
 (Enter /home/zhouoh/g16/l301.exe)
 Standard basis: STO-3G (5D, 7F)
 Ernie: Thresh=  0.10000D-02 Tol=  0.10000D-05 Strict=F.
 There are     8 symmetry adapted cartesian basis functions of A   symmetry.
 There are     8 symmetry adapted cartesian basis functions of B   symmetry.
 There are     8 symmetry adapted basis functions of A   symmetry.
 There are     8 symmetry adapted basis functions of B   symmetry.
    16 basis functions,    48 primitive gaussians,    16 cartesian basis functions
     9 alpha electrons        9 beta electrons
       nuclear repulsion energy        33.9062354231 Hartrees.
 IExCor=    0 DFT=F Ex=HF Corr=None ExCW=0 ScaHFX=  1.000000
 ScaDFX=  1.000000  1.000000  1.000000  1.000000 ScalE2=  1.000000  1.000000
 IRadAn=      5 IRanWt=     -1 IRanGd=            0 ICorTp=0 IEmpDi=  4
 NAtoms=    8 NActive=    8 NUniq=    2 SFac= 4.00D+00 NAtFMM=   60 NAOKFM=F Big=F
 Integral buffers will be    131072 words long.
 Raffenetti 1 integral format.
 Two-electron integral symmetry is turned on.
 Leave Link  301 at Mon Oct  6 14:21:06 2025, MaxMem=   104857600 cpu:               0.0 elap:               0.0
 (Enter /home/zhouoh/g16/l402.exe)
 External calculation of energy and first derivatives.
 Running external command "python ../GauUMA_client.py R"
         input file       "/home/zhouoh/scratch/Gau-2811633.EIn"
         output file      "/home/zhouoh/scratch/Gau-2811633.EOu"
         message file     "/home/zhouoh/scratch/Gau-2811633.EMs"
         fchk file        "/home/zhouoh/scratch/Gau-2811633.EFC"
         mat. el file     "/home/zhouoh/scratch/Gau-2811633.EUF"
Sent job to server.
Received result from server:
SCF Done:  E(UMA) =  -79.65163185577333     A.U.
 Recovered energy= -79.6516318558     dipole=      0.000000000000      0.000000000000      0.000000000000
 Energy=    -79.6516319     NIter=   0.
 Dipole moment=       0.000000       0.000000       0.000000
 Leave Link  402 at Mon Oct  6 14:21:06 2025, MaxMem=   104857600 cpu:               0.0 elap:               0.1
 (Enter /home/zhouoh/g16/l716.exe)
 Dipole        = 0.00000000D+00 0.00000000D+00 0.00000000D+00
 ***** Axes restored to original set *****
 -------------------------------------------------------------------
 Center     Atomic                   Forces (Hartrees/Bohr)
 Number     Number              X              Y              Z
 -------------------------------------------------------------------
      1        6           0.006985308    0.009878446    0.017109977
      2        1           0.000466690    0.000344012    0.000955360
      3        1           0.000462278    0.000658398    0.000775670
      4        1           0.000168790    0.000550022    0.000958043
      5        6          -0.006985298   -0.009878451   -0.017109973
      6        1          -0.000168789   -0.000555017   -0.000955158
      7        1          -0.000461981   -0.000342352   -0.000958244
      8        1          -0.000466997   -0.000655057   -0.000775674
 -------------------------------------------------------------------
 Cartesian Forces:  Max     0.017109977 RMS     0.006075058
 Leave Link  716 at Mon Oct  6 14:21:06 2025, MaxMem=   104857600 cpu:               0.0 elap:               0.0
 (Enter /home/zhouoh/g16/l103.exe)

 GradGradGradGradGradGradGradGradGradGradGradGradGradGradGradGradGradGrad
 Berny optimization.
 FormGI is forming the generalized inverse of G from B-inverse, IUseBI=4.
 Internal  Forces:  Max     0.024248779 RMS     0.004679531
 Search for a local minimum.
 Step number   1 out of a maximum of   38 on scan point    13 out of    21
 All quantities printed in internal units (Hartrees-Bohrs-Radians)
 RMS Force = .96496D-03 SwitMx=.10000D-02 MixMth= 1
 Mixed Optimization -- RFO/linear search
 Second derivative matrix not updated -- first step.
 ITU=  0
     Eigenvalues ---    0.00122   0.07428   0.07567   0.07567   0.07567
     Eigenvalues ---    0.07568   0.16000   0.16000   0.16000   0.16000
     Eigenvalues ---    0.17126   0.36916   0.37230   0.37230   0.37230
     Eigenvalues ---    0.37230   0.372351000.000001000.000001000.00000
     Eigenvalues --- 1000.000001000.000001000.000001000.000001000.00000
     Eigenvalues --- 1000.000001000.000001000.00000
 RFO step:  Lambda=-3.36483341D-04 EMin= 1.21979766D-03
 Linear search not attempted -- first point.
 Iteration  1 RMS(Cart)=  0.02359275 RMS(Int)=  0.00053279
 Iteration  2 RMS(Cart)=  0.00042880 RMS(Int)=  0.00041179
 Iteration  3 RMS(Cart)=  0.00000075 RMS(Int)=  0.00041179
 Iteration  1 RMS(Cart)=  0.00000000 RMS(Int)=  0.00000000
 ITry= 1 IFail=0 DXMaxC= 4.74D-02 DCOld= 1.00D+10 DXMaxT= 2.26D-01 DXLimC= 3.00D+00 Rises=F
 ClnCor:  largest displacement from symmetrization is 4.37D-04 for atom     4.
 Variable       Old X    -DE/DX   Delta X   Delta X   Delta X     New X
                                 (Linear)    (Quad)   (Total)
    R1        2.03884   0.00005   0.00000  -0.00090  -0.00090   2.03794
    R2        2.03884   0.00005   0.00000  -0.00090  -0.00090   2.03794
    R3        2.03884   0.00005   0.00000  -0.00090  -0.00090   2.03794
    R4        5.17785  -0.02425   0.00000   0.00000   0.00000   5.17785
    R5        2.03884   0.00005   0.00000  -0.00090  -0.00090   2.03794
    R6        2.03884   0.00005   0.00000  -0.00090  -0.00090   2.03794
    R7        2.03884   0.00005   0.00000  -0.00090  -0.00090   2.03794
    A1        2.05834   0.00090   0.00000   0.01198   0.01114   2.06949
    A2        2.05834   0.00090   0.00000   0.01201   0.01114   2.06949
    A3        1.71631  -0.00184   0.00000  -0.02455  -0.02489   1.69143
    A4        2.05834   0.00090   0.00000   0.01204   0.01114   2.06949
    A5        1.71631  -0.00184   0.00000  -0.02466  -0.02489   1.69143
    A6        1.71631  -0.00184   0.00000  -0.02476  -0.02489   1.69143
    A7        1.71631  -0.00184   0.00000  -0.02455  -0.02489   1.69143
    A8        1.71631  -0.00184   0.00000  -0.02476  -0.02489   1.69143
    A9        1.71631  -0.00184   0.00000  -0.02466  -0.02489   1.69143
   A10        2.05834   0.00090   0.00000   0.01201   0.01114   2.06949
   A11        2.05834   0.00090   0.00000   0.01198   0.01114   2.06949
   A12        2.05834   0.00090   0.00000   0.01204   0.01114   2.06949
    D1        1.01626   0.00000   0.00000  -0.00827  -0.00828   1.00799
    D2        3.11066   0.00000   0.00000  -0.00827  -0.00828   3.10238
    D3       -1.07813   0.00000   0.00000  -0.00826  -0.00828  -1.08641
    D4       -1.07813   0.00000   0.00000  -0.00826  -0.00828  -1.08641
    D5        1.01626   0.00000   0.00000  -0.00826  -0.00828   1.00799
    D6        3.11066   0.00000   0.00000  -0.00826  -0.00828   3.10238
    D7        3.11066   0.00000   0.00000  -0.00827  -0.00828   3.10238
    D8       -1.07813   0.00000   0.00000  -0.00827  -0.00828  -1.08641
    D9        1.01626   0.00000   0.00000  -0.00826  -0.00828   1.00799
         Item               Value     Threshold  Converged?
 Maximum Force            0.001840     0.000450     NO 
 RMS     Force            0.000965     0.000300     NO 
 Maximum Displacement     0.047021     0.001800     NO 
 RMS     Displacement     0.023801     0.001200     NO 
 Predicted change in Energy=-1.687102D-04
 GradGradGradGradGradGradGradGradGradGradGradGradGradGradGradGradGradGrad

 Leave Link  103 at Mon Oct  6 14:21:06 2025, MaxMem=   104857600 cpu:               0.0 elap:               0.0
 (Enter /home/zhouoh/g16/l202.exe)
                          Input orientation:                          
 ---------------------------------------------------------------------
 Center     Atomic      Atomic             Coordinates (Angstroms)
 Number     Number       Type             X           Y           Z
 ---------------------------------------------------------------------
      1          6           0       -2.116212   -0.365258   -0.489898
      2          1           0       -1.638599   -1.312691   -0.296837
      3          1           0       -1.671157    0.298683   -1.213864
      4          1           0       -3.168663   -0.265299   -0.276887
      5          6           0       -1.202863    0.926379    1.747303
      6          1           0       -0.150452    0.790075    1.555292
      7          1           0       -1.646184    1.885895    1.533266
      8          1           0       -1.682172    0.286700    2.471245
 ---------------------------------------------------------------------
                    Distance matrix (angstroms):
                    1          2          3          4          5
     1  C    0.000000
     2  H    1.078433   0.000000
     3  H    1.078433   1.854326   0.000000
     4  H    1.078433   1.854326   1.854326   0.000000
     5  C    2.740000   3.062974   3.062974   3.062974   0.000000
     6  H    3.062974   3.172789   3.197222   3.685145   1.078433
     7  H    3.062974   3.685145   3.172789   3.197222   1.078433
     8  H    3.062974   3.197222   3.685145   3.172789   1.078433
                    6          7          8
     6  H    0.000000
     7  H    1.854326   0.000000
     8  H    1.854326   1.854326   0.000000
 Stoichiometry    C2H6
 Framework group  D3[C3(C.C),X(H6)]
 Deg. of freedom     4
 Full point group                 D3      NOp   6
 RotChk:  IX=0 Diff= 4.77D-16
 Largest Abelian subgroup         C2      NOp   2
 Largest concise Abelian subgroup C2      NOp   2
                         Standard orientation:                         
 ---------------------------------------------------------------------
 Center     Atomic      Atomic             Coordinates (Angstroms)
 Number     Number       Type             X           Y           Z
 ---------------------------------------------------------------------
      1          6           0        0.000000   -0.000000    1.370000
      2          1           0       -0.517019    0.937479    1.499779
      3          1           0        1.070390   -0.020988    1.499779
      4          1           0       -0.553371   -0.916491    1.499779
      5          6           0       -0.000000    0.000000   -1.370000
      6          1           0        0.517019    0.937479   -1.499779
      7          1           0        0.553371   -0.916491   -1.499779
      8          1           0       -1.070390   -0.020988   -1.499779
 ---------------------------------------------------------------------
 Rotational constants (GHZ):          72.9171974           8.1364882           8.1364882
 Leave Link  202 at Mon Oct  6 14:21:06 2025, MaxMem=   104857600 cpu:               0.0 elap:               0.0
 (Enter /home/zhouoh/g16/l301.exe)
 Standard basis: STO-3G (5D, 7F)
 Ernie: Thresh=  0.10000D-02 Tol=  0.10000D-05 Strict=F.
 There are     8 symmetry adapted cartesian basis functions of A   symmetry.
 There are     8 symmetry adapted cartesian basis functions of B   symmetry.
 There are     8 symmetry adapted basis functions of A   symmetry.
 There are     8 symmetry adapted basis functions of B   symmetry.
    16 basis functions,    48 primitive gaussians,    16 cartesian basis functions
     9 alpha electrons        9 beta electrons
       nuclear repulsion energy        33.9770677466 Hartrees.
 IExCor=    0 DFT=F Ex=HF Corr=None ExCW=0 ScaHFX=  1.000000
 ScaDFX=  1.000000  1.000000  1.000000  1.000000 ScalE2=  1.000000  1.000000
 IRadAn=      5 IRanWt=     -1 IRanGd=            0 ICorTp=0 IEmpDi=  4
 NAtoms=    8 NActive=    8 NUniq=    2 SFac= 4.00D+00 NAtFMM=   60 NAOKFM=F Big=F
 Integral buffers will be    131072 words long.
 Raffenetti 1 integral format.
 Two-electron integral symmetry is turned on.
 Leave Link  301 at Mon Oct  6 14:21:06 2025, MaxMem=   104857600 cpu:               0.0 elap:               0.0
 (Enter /home/zhouoh/g16/l402.exe)
 External calculation of energy and first derivatives.
 Running external command "python ../GauUMA_client.py R"
         input file       "/home/zhouoh/scratch/Gau-2811633.EIn"
         output file      "/home/zhouoh/scratch/Gau-2811633.EOu"
         message file     "/home/zhouoh/scratch/Gau-2811633.EMs"
         fchk file        "/home/zhouoh/scratch/Gau-2811633.EFC"
         mat. el file     "/home/zhouoh/scratch/Gau-2811633.EUF"
Sent job to server.
Received result from server:
SCF Done:  E(UMA) =  -79.65181817377325     A.U.
 Recovered energy= -79.6518181738     dipole=      0.000000000000      0.000000000000      0.000000000000
 Energy=    -79.6518182     NIter=   0.
 Dipole moment=       0.000000       0.000000       0.000000
 Leave Link  402 at Mon Oct  6 14:21:06 2025, MaxMem=   104857600 cpu:               0.0 elap:               0.1
 (Enter /home/zhouoh/g16/l716.exe)
 Dipole        = 0.00000000D+00 0.00000000D+00 0.00000000D+00
 ***** Axes restored to original set *****
 -------------------------------------------------------------------
 Center     Atomic                   Forces (Hartrees/Bohr)
 Number     Number              X              Y              Z
 -------------------------------------------------------------------
      1        6           0.007448222    0.010533087    0.018244024
      2        1           0.000055312    0.000037569    0.000114331
      3        1           0.000057199    0.000078896    0.000089704
      4        1           0.000016987    0.000066676    0.000113173
      5        6          -0.007448209   -0.010533091   -0.018244018
      6        1          -0.000016984   -0.000064718   -0.000114308
      7        1          -0.000057159   -0.000038221   -0.000113203
      8        1          -0.000055365   -0.000080197   -0.000089701
 -------------------------------------------------------------------
 Cartesian Forces:  Max     0.018244024 RMS     0.006450574
 Leave Link  716 at Mon Oct  6 14:21:06 2025, MaxMem=   104857600 cpu:               0.0 elap:               0.0
 (Enter /home/zhouoh/g16/l103.exe)

 GradGradGradGradGradGradGradGradGradGradGradGradGradGradGradGradGradGrad
 Berny optimization.
 Using GEDIIS/GDIIS optimizer.
 FormGI is forming the generalized inverse of G from B-inverse, IUseBI=4.
 Internal  Forces:  Max     0.022732766 RMS     0.004297637
 Search for a local minimum.
 Step number   2 out of a maximum of   38 on scan point    13 out of    21
 All quantities printed in internal units (Hartrees-Bohrs-Radians)
 RMS Force = .11746D-03 SwitMx=.10000D-02 MixMth= 2
 Mixed Optimization -- En-DIIS/RFO-DIIS
 Update second derivatives using D2CorX and points    1    2
 DE= -1.86D-04 DEPred=-1.69D-04 R= 1.10D+00
 TightC=F SS=  1.41D+00  RLast= 7.13D-02 DXNew= 3.7959D-01 2.1386D-01
 Trust test= 1.10D+00 RLast= 7.13D-02 DXMaxT set to 2.26D-01
 ITU=  1  0
 Use linear search instead of GDIIS.
     Eigenvalues ---    0.00122   0.06581   0.07733   0.07733   0.07733
     Eigenvalues ---    0.07735   0.16000   0.16000   0.16000   0.16000
     Eigenvalues ---    0.17113   0.36908   0.37230   0.37230   0.37230
     Eigenvalues ---    0.37230   0.372351000.000001000.000001000.00000
     Eigenvalues --- 1000.000001000.000001000.000001000.000001000.00000
     Eigenvalues --- 1000.000001000.000001000.00000
 RFO step:  Lambda= 0.00000000D+00 EMin= 1.22211484D-03
 Quartic linear search produced a step of  0.14170.
 Iteration  1 RMS(Cart)=  0.00346262 RMS(Int)=  0.00006934
 Iteration  2 RMS(Cart)=  0.00000832 RMS(Int)=  0.00006898
 Iteration  3 RMS(Cart)=  0.00000000 RMS(Int)=  0.00006898
 Iteration  1 RMS(Cart)=  0.00000003 RMS(Int)=  0.00000000
 ITry= 1 IFail=0 DXMaxC= 6.94D-03 DCOld= 1.00D+10 DXMaxT= 2.26D-01 DXLimC= 3.00D+00 Rises=F
 ClnCor:  largest displacement from symmetrization is 5.71D-05 for atom     4.
 Variable       Old X    -DE/DX   Delta X   Delta X   Delta X     New X
                                 (Linear)    (Quad)   (Total)
    R1        2.03794   0.00001  -0.00013   0.00002  -0.00011   2.03783
    R2        2.03794   0.00001  -0.00013   0.00002  -0.00011   2.03783
    R3        2.03794   0.00001  -0.00013   0.00002  -0.00011   2.03783
    R4        5.17785  -0.02273   0.00000   0.00000  -0.00000   5.17785
    R5        2.03794   0.00001  -0.00013   0.00002  -0.00011   2.03783
    R6        2.03794   0.00001  -0.00013   0.00002  -0.00011   2.03783
    R7        2.03794   0.00001  -0.00013   0.00002  -0.00011   2.03783
    A1        2.06949   0.00009   0.00158   0.00001   0.00145   2.07094
    A2        2.06949   0.00009   0.00158   0.00000   0.00145   2.07094
    A3        1.69143  -0.00023  -0.00353  -0.00002  -0.00360   1.68783
    A4        2.06949   0.00009   0.00158  -0.00000   0.00145   2.07094
    A5        1.69143  -0.00023  -0.00353  -0.00001  -0.00360   1.68783
    A6        1.69143  -0.00023  -0.00353   0.00001  -0.00360   1.68783
    A7        1.69143  -0.00023  -0.00353  -0.00002  -0.00360   1.68783
    A8        1.69143  -0.00023  -0.00353   0.00001  -0.00360   1.68783
    A9        1.69143  -0.00023  -0.00353  -0.00001  -0.00360   1.68783
   A10        2.06949   0.00009   0.00158   0.00000   0.00145   2.07094
   A11        2.06949   0.00009   0.00158   0.00001   0.00145   2.07094
   A12        2.06949   0.00009   0.00158  -0.00000   0.00145   2.07094
    D1        1.00799   0.00000  -0.00117  -0.00042  -0.00159   1.00639
    D2        3.10238   0.00000  -0.00117  -0.00042  -0.00159   3.10079
    D3       -1.08641   0.00000  -0.00117  -0.00042  -0.00159  -1.08800
    D4       -1.08641   0.00000  -0.00117  -0.00042  -0.00159  -1.08800
    D5        1.00799   0.00000  -0.00117  -0.00042  -0.00159   1.00639
    D6        3.10238   0.00000  -0.00117  -0.00042  -0.00159   3.10079
    D7        3.10238   0.00000  -0.00117  -0.00042  -0.00159   3.10079
    D8       -1.08641   0.00000  -0.00117  -0.00042  -0.00159  -1.08800
    D9        1.00799   0.00000  -0.00117  -0.00042  -0.00159   1.00639
         Item               Value     Threshold  Converged?
 Maximum Force            0.000230     0.000450     YES
 RMS     Force            0.000117     0.000300     YES
 Maximum Displacement     0.006989     0.001800     NO 
 RMS     Displacement     0.003481     0.001200     NO 
 Predicted change in Energy=-2.798699D-06
 GradGradGradGradGradGradGradGradGradGradGradGradGradGradGradGradGradGrad

 Leave Link  103 at Mon Oct  6 14:21:06 2025, MaxMem=   104857600 cpu:               0.0 elap:               0.0
 (Enter /home/zhouoh/g16/l202.exe)
                          Input orientation:                          
 ---------------------------------------------------------------------
 Center     Atomic      Atomic             Coordinates (Angstroms)
 Number     Number       Type             X           Y           Z
 ---------------------------------------------------------------------
      1          6           0       -2.116212   -0.365258   -0.489898
      2          1           0       -1.636425   -1.310943   -0.294000
      3          1           0       -1.670389    0.301260   -1.210931
      4          1           0       -3.167739   -0.264158   -0.273189
      5          6           0       -1.202863    0.926379    1.747303
      6          1           0       -0.151377    0.787442    1.552455
      7          1           0       -1.646951    1.884643    1.529568
      8          1           0       -1.684345    0.285119    2.468311
 ---------------------------------------------------------------------
                    Distance matrix (angstroms):
                    1          2          3          4          5
     1  C    0.000000
     2  H    1.078375   0.000000
     3  H    1.078375   1.855024   0.000000
     4  H    1.078375   1.855024   1.855024   0.000000
     5  C    2.740000   3.059493   3.059493   3.059493   0.000000
     6  H    3.059493   3.165120   3.190622   3.679304   1.078375
     7  H    3.059493   3.679304   3.165120   3.190622   1.078375
     8  H    3.059493   3.190622   3.679304   3.165120   1.078375
                    6          7          8
     6  H    0.000000
     7  H    1.855024   0.000000
     8  H    1.855024   1.855024   0.000000
 Stoichiometry    C2H6
 Framework group  D3[C3(C.C),X(H6)]
 Deg. of freedom     4
 Full point group                 D3      NOp   6
 RotChk:  IX=0 Diff= 6.68D-16
 Largest Abelian subgroup         C2      NOp   2
 Largest concise Abelian subgroup C2      NOp   2
                         Standard orientation:                         
 ---------------------------------------------------------------------
 Center     Atomic      Atomic             Coordinates (Angstroms)
 Number     Number       Type             X           Y           Z
 ---------------------------------------------------------------------
      1          6           0       -0.000000   -0.000000    1.370000
      2          1           0       -0.516466    0.938243    1.495914
      3          1           0        1.070776   -0.021849    1.495914
      4          1           0       -0.554310   -0.916394    1.495914
      5          6           0        0.000000    0.000000   -1.370000
      6          1           0        0.516466    0.938243   -1.495914
      7          1           0        0.554310   -0.916394   -1.495914
      8          1           0       -1.070776   -0.021849   -1.495914
 ---------------------------------------------------------------------
 Rotational constants (GHZ):          72.8623259           8.1453291           8.1453291
 Leave Link  202 at Mon Oct  6 14:21:06 2025, MaxMem=   104857600 cpu:               0.0 elap:               0.0
 (Enter /home/zhouoh/g16/l301.exe)
 Standard basis: STO-3G (5D, 7F)
 Ernie: Thresh=  0.10000D-02 Tol=  0.10000D-05 Strict=F.
 There are     8 symmetry adapted cartesian basis functions of A   symmetry.
 There are     8 symmetry adapted cartesian basis functions of B   symmetry.
 There are     8 symmetry adapted basis functions of A   symmetry.
 There are     8 symmetry adapted basis functions of B   symmetry.
    16 basis functions,    48 primitive gaussians,    16 cartesian basis functions
     9 alpha electrons        9 beta electrons
       nuclear repulsion energy        33.9873731658 Hartrees.
 IExCor=    0 DFT=F Ex=HF Corr=None ExCW=0 ScaHFX=  1.000000
 ScaDFX=  1.000000  1.000000  1.000000  1.000000 ScalE2=  1.000000  1.000000
 IRadAn=      5 IRanWt=     -1 IRanGd=            0 ICorTp=0 IEmpDi=  4
 NAtoms=    8 NActive=    8 NUniq=    2 SFac= 4.00D+00 NAtFMM=   60 NAOKFM=F Big=F
 Integral buffers will be    131072 words long.
 Raffenetti 1 integral format.
 Two-electron integral symmetry is turned on.
 Leave Link  301 at Mon Oct  6 14:21:06 2025, MaxMem=   104857600 cpu:               0.0 elap:               0.0
 (Enter /home/zhouoh/g16/l402.exe)
 External calculation of energy and first derivatives.
 Running external command "python ../GauUMA_client.py R"
         input file       "/home/zhouoh/scratch/Gau-2811633.EIn"
         output file      "/home/zhouoh/scratch/Gau-2811633.EOu"
         message file     "/home/zhouoh/scratch/Gau-2811633.EMs"
         fchk file        "/home/zhouoh/scratch/Gau-2811633.EFC"
         mat. el file     "/home/zhouoh/scratch/Gau-2811633.EUF"
Sent job to server.
Received result from server:
SCF Done:  E(UMA) =  -79.65182107390295     A.U.
 Recovered energy= -79.6518210739     dipole=      0.000000000000      0.000000000000      0.000000000000
 Energy=    -79.6518211     NIter=   0.
 Dipole moment=       0.000000       0.000000       0.000000
 Leave Link  402 at Mon Oct  6 14:21:07 2025, MaxMem=   104857600 cpu:               0.0 elap:               0.1
 (Enter /home/zhouoh/g16/l716.exe)
 Dipole        = 0.00000000D+00 0.00000000D+00 0.00000000D+00
 ***** Axes restored to original set *****
 -------------------------------------------------------------------
 Center     Atomic                   Forces (Hartrees/Bohr)
 Number     Number              X              Y              Z
 -------------------------------------------------------------------
      1        6           0.007502811    0.010610280    0.018377749
      2        1           0.000000731   -0.000004769    0.000002128
      3        1           0.000003731    0.000002102   -0.000003065
      4        1          -0.000004733    0.000002301    0.000000278
      5        6          -0.007502792   -0.010610290   -0.018377742
      6        1           0.000004741    0.000000891   -0.000002125
      7        1          -0.000003741    0.000003701   -0.000000284
      8        1          -0.000000749   -0.000004217    0.000003064
 -------------------------------------------------------------------
 Cartesian Forces:  Max     0.018377749 RMS     0.006497511
 Leave Link  716 at Mon Oct  6 14:21:07 2025, MaxMem=   104857600 cpu:               0.0 elap:               0.0
 (Enter /home/zhouoh/g16/l103.exe)

 GradGradGradGradGradGradGradGradGradGradGradGradGradGradGradGradGradGrad
 Berny optimization.
 Using GEDIIS/GDIIS optimizer.
 FormGI is forming the generalized inverse of G from B-inverse, IUseBI=4.
 Internal  Forces:  Max     0.022507239 RMS     0.004253469
 Search for a local minimum.
 Step number   3 out of a maximum of   38 on scan point    13 out of    21
 All quantities printed in internal units (Hartrees-Bohrs-Radians)
 RMS Force = .24413D-05 SwitMx=.10000D-02 MixMth= 2
 Mixed Optimization -- En-DIIS/RFO-DIIS
 Swapping is turned off.
 Update second derivatives using D2CorX and points    1    2    3
 DE= -2.90D-06 DEPred=-2.80D-06 R= 1.04D+00
 TightC=F SS=  1.41D+00  RLast= 1.07D-02 DXNew= 3.7959D-01 3.1955D-02
 Trust test= 1.04D+00 RLast= 1.07D-02 DXMaxT set to 2.26D-01
 ITU=  1  1  0
     Eigenvalues ---    0.00122   0.06405   0.07755   0.07755   0.07755
     Eigenvalues ---    0.07757   0.16000   0.16000   0.16000   0.16000
     Eigenvalues ---    0.17112   0.36893   0.37230   0.37230   0.37230
     Eigenvalues ---    0.37230   0.372351000.000001000.000001000.00000
     Eigenvalues --- 1000.000001000.000001000.000001000.000001000.00000
     Eigenvalues --- 1000.000001000.000001000.00000
 En-DIIS/RFO-DIIS/Sim-DIIS IScMMF=       -3 using points:     3    2
 RFO step:  Lambda=-5.19547584D-07.
 NNeg= 0 NGDIIS= 2 SimSw=  2.50D-03 Rises=F DC= -2.90D-06 SmlDif=  1.00D-05
 NRisDI= 0 DoIntr=F SqrtH=F CThrHd= 10.0 CDAdj=  3.0
 RMS Error=  0.6065573199D-03 NUsed= 2 OKEnD=F EnDIS=F
 InvSVX:  RCond= 1.28D-04 Info=           0 Equed=N FErr=  1.09D-15 BErr=  2.60D-17
 DidBck=F Rises=F RFO-DIIS coefs:    0.86379    0.13621
 Iteration  1 RMS(Cart)=  0.00050187 RMS(Int)=  0.00000124
 Iteration  2 RMS(Cart)=  0.00000013 RMS(Int)=  0.00000123
 Iteration  1 RMS(Cart)=  0.00000001 RMS(Int)=  0.00000000
 ITry= 1 IFail=0 DXMaxC= 9.69D-04 DCOld= 1.00D+10 DXMaxT= 2.26D-01 DXLimC= 3.00D+00 Rises=F
 ClnCor:  largest displacement from symmetrization is 1.38D-04 for atom     4.
 Variable       Old X    -DE/DX   Delta X   Delta X   Delta X     New X
                                 (Linear)    (Quad)   (Total)
    R1        2.03783   0.00000   0.00001  -0.00000   0.00001   2.03785
    R2        2.03783   0.00000   0.00001  -0.00000   0.00001   2.03785
    R3        2.03783   0.00000   0.00001  -0.00000   0.00001   2.03785
    R4        5.17785  -0.02251   0.00000   0.00000   0.00000   5.17785
    R5        2.03783   0.00000   0.00001  -0.00000   0.00001   2.03785
    R6        2.03783   0.00000   0.00001  -0.00000   0.00001   2.03785
    R7        2.03783   0.00000   0.00001  -0.00000   0.00001   2.03785
    A1        2.07094   0.00000  -0.00020   0.00018  -0.00002   2.07092
    A2        2.07094   0.00000  -0.00020   0.00019  -0.00002   2.07092
    A3        1.68783  -0.00000   0.00049  -0.00045   0.00004   1.68786
    A4        2.07094   0.00000  -0.00020   0.00020  -0.00002   2.07092
    A5        1.68783  -0.00000   0.00049  -0.00049   0.00004   1.68786
    A6        1.68783  -0.00000   0.00049  -0.00052   0.00004   1.68786
    A7        1.68783  -0.00000   0.00049  -0.00045   0.00004   1.68786
    A8        1.68783  -0.00000   0.00049  -0.00052   0.00004   1.68786
    A9        1.68783  -0.00000   0.00049  -0.00049   0.00004   1.68786
   A10        2.07094   0.00000  -0.00020   0.00019  -0.00002   2.07092
   A11        2.07094   0.00000  -0.00020   0.00018  -0.00002   2.07092
   A12        2.07094   0.00000  -0.00020   0.00020  -0.00002   2.07092
    D1        1.00639   0.00000   0.00022   0.00085   0.00107   1.00746
    D2        3.10079   0.00000   0.00022   0.00085   0.00107   3.10185
    D3       -1.08800   0.00000   0.00022   0.00085   0.00107  -1.08694
    D4       -1.08800   0.00000   0.00022   0.00085   0.00107  -1.08694
    D5        1.00639   0.00000   0.00022   0.00085   0.00107   1.00746
    D6        3.10079   0.00000   0.00022   0.00086   0.00107   3.10185
    D7        3.10079   0.00000   0.00022   0.00085   0.00107   3.10185
    D8       -1.08800   0.00000   0.00022   0.00085   0.00107  -1.08694
    D9        1.00639   0.00000   0.00022   0.00085   0.00107   1.00746
         Item               Value     Threshold  Converged?
 Maximum Force            0.000005     0.000450     YES
 RMS     Force            0.000002     0.000300     YES
 Maximum Displacement     0.000967     0.001800     YES
 RMS     Displacement     0.000501     0.001200     YES
 Predicted change in Energy=-5.520901D-09
 Optimization completed.
    -- Stationary point found.
                           ----------------------------
                           !   Optimized Parameters   !
                           ! (Angstroms and Degrees)  !
 --------------------------                            --------------------------
 ! Name  Definition              Value          Derivative Info.                !
 --------------------------------------------------------------------------------
 ! R1    R(1,2)                  1.0784         -DE/DX =    0.0                 !
 ! R2    R(1,3)                  1.0784         -DE/DX =    0.0                 !
 ! R3    R(1,4)                  1.0784         -DE/DX =    0.0                 !
 ! R4    R(1,5)                  2.74           -DE/DX =   -0.0225              !
 ! R5    R(5,6)                  1.0784         -DE/DX =    0.0                 !
 ! R6    R(5,7)                  1.0784         -DE/DX =    0.0                 !
 ! R7    R(5,8)                  1.0784         -DE/DX =    0.0                 !
 ! A1    A(2,1,3)              118.656          -DE/DX =    0.0                 !
 ! A2    A(2,1,4)              118.656          -DE/DX =    0.0                 !
 ! A3    A(2,1,5)               96.7053         -DE/DX =    0.0                 !
 ! A4    A(3,1,4)              118.656          -DE/DX =    0.0                 !
 ! A5    A(3,1,5)               96.7053         -DE/DX =    0.0                 !
 ! A6    A(4,1,5)               96.7053         -DE/DX =    0.0                 !
 ! A7    A(1,5,6)               96.7053         -DE/DX =    0.0                 !
 ! A8    A(1,5,7)               96.7053         -DE/DX =    0.0                 !
 ! A9    A(1,5,8)               96.7053         -DE/DX =    0.0                 !
 ! A10   A(6,5,7)              118.656          -DE/DX =    0.0                 !
 ! A11   A(6,5,8)              118.656          -DE/DX =    0.0                 !
 ! A12   A(7,5,8)              118.656          -DE/DX =    0.0                 !
 ! D1    D(2,1,5,6)             57.6621         -DE/DX =    0.0                 !
 ! D2    D(2,1,5,7)            177.6621         -DE/DX =    0.0                 !
 ! D3    D(2,1,5,8)            -62.3379         -DE/DX =    0.0                 !
 ! D4    D(3,1,5,6)            -62.3379         -DE/DX =    0.0                 !
 ! D5    D(3,1,5,7)             57.6621         -DE/DX =    0.0                 !
 ! D6    D(3,1,5,8)            177.6621         -DE/DX =    0.0                 !
 ! D7    D(4,1,5,6)            177.6621         -DE/DX =    0.0                 !
 ! D8    D(4,1,5,7)            -62.3379         -DE/DX =    0.0                 !
 ! D9    D(4,1,5,8)             57.6621         -DE/DX =    0.0                 !
 --------------------------------------------------------------------------------
 Iteration  1 RMS(Cart)=  0.05050507 RMS(Int)=  0.00000003
 Iteration  2 RMS(Cart)=  0.00000003 RMS(Int)=  0.00000000
 Iteration  1 RMS(Cart)=  0.00000000 RMS(Int)=  0.00000000
 GradGradGradGradGradGradGradGradGradGradGradGradGradGradGradGradGradGrad

 Leave Link  103 at Mon Oct  6 14:21:07 2025, MaxMem=   104857600 cpu:               0.0 elap:               0.0
 (Enter /home/zhouoh/g16/l202.exe)
                          Input orientation:                          
 ---------------------------------------------------------------------
 Center     Atomic      Atomic             Coordinates (Angstroms)
 Number     Number       Type             X           Y           Z
 ---------------------------------------------------------------------
      1          6           0       -2.132879   -0.388828   -0.530723
      2          1           0       -1.653565   -1.334709   -0.334570
      3          1           0       -1.686597    0.277350   -1.251798
      4          1           0       -3.184433   -0.287251   -0.314329
      5          6           0       -1.186196    0.949949    1.788128
      6          1           0       -0.134682    0.811524    1.593024
      7          1           0       -1.630743    1.908080    1.570708
      8          1           0       -1.667205    0.308369    2.509179
 ---------------------------------------------------------------------
                    Distance matrix (angstroms):
                    1          2          3          4          5
     1  C    0.000000
     2  H    1.078383   0.000000
     3  H    1.078383   1.855029   0.000000
     4  H    1.078383   1.855029   1.855029   0.000000
     5  C    2.840000   3.153401   3.153401   3.153401   0.000000
     6  H    3.153401   3.260206   3.284326   3.761155   1.078383
     7  H    3.153401   3.761155   3.260206   3.284326   1.078383
     8  H    3.153401   3.284326   3.761155   3.260206   1.078383
                    6          7          8
     6  H    0.000000
     7  H    1.855029   0.000000
     8  H    1.855029   1.855029   0.000000
 Stoichiometry    C2H6
 Framework group  D3[C3(C.C),X(H6)]
 Deg. of freedom     4
 Full point group                 D3      NOp   6
 RotChk:  IX=0 Diff= 6.44D-13
 Largest Abelian subgroup         C2      NOp   2
 Largest concise Abelian subgroup C2      NOp   2
                         Standard orientation:                         
 ---------------------------------------------------------------------
 Center     Atomic      Atomic             Coordinates (Angstroms)
 Number     Number       Type             X           Y           Z
 ---------------------------------------------------------------------
      1          6           0       -0.000000    0.000000    1.420000
      2          1           0       -0.516968    0.937971    1.545956
      3          1           0        1.070790   -0.021278    1.545956
      4          1           0       -0.553823   -0.916692    1.545956
      5          6           0        0.000000    0.000000   -1.420000
      6          1           0        0.516968    0.937971   -1.545956
      7          1           0        0.553823   -0.916692   -1.545956
      8          1           0       -1.070790   -0.021278   -1.545956
 ---------------------------------------------------------------------
 Rotational constants (GHZ):          72.8619227           7.6210287           7.6210287
 Leave Link  202 at Mon Oct  6 14:21:07 2025, MaxMem=   104857600 cpu:               0.0 elap:               0.0
 (Enter /home/zhouoh/g16/l301.exe)
 Standard basis: STO-3G (5D, 7F)
 Ernie: Thresh=  0.10000D-02 Tol=  0.10000D-05 Strict=F.
 There are     8 symmetry adapted cartesian basis functions of A   symmetry.
 There are     8 symmetry adapted cartesian basis functions of B   symmetry.
 There are     8 symmetry adapted basis functions of A   symmetry.
 There are     8 symmetry adapted basis functions of B   symmetry.
    16 basis functions,    48 primitive gaussians,    16 cartesian basis functions
     9 alpha electrons        9 beta electrons
       nuclear repulsion energy        33.5187832454 Hartrees.
 IExCor=    0 DFT=F Ex=HF Corr=None ExCW=0 ScaHFX=  1.000000
 ScaDFX=  1.000000  1.000000  1.000000  1.000000 ScalE2=  1.000000  1.000000
 IRadAn=      5 IRanWt=     -1 IRanGd=            0 ICorTp=0 IEmpDi=  4
 NAtoms=    8 NActive=    8 NUniq=    2 SFac= 4.00D+00 NAtFMM=   60 NAOKFM=F Big=F
 Integral buffers will be    131072 words long.
 Raffenetti 1 integral format.
 Two-electron integral symmetry is turned on.
 Leave Link  301 at Mon Oct  6 14:21:07 2025, MaxMem=   104857600 cpu:               0.0 elap:               0.0
 (Enter /home/zhouoh/g16/l402.exe)
 External calculation of energy and first derivatives.
 Running external command "python ../GauUMA_client.py R"
         input file       "/home/zhouoh/scratch/Gau-2811633.EIn"
         output file      "/home/zhouoh/scratch/Gau-2811633.EOu"
         message file     "/home/zhouoh/scratch/Gau-2811633.EMs"
         fchk file        "/home/zhouoh/scratch/Gau-2811633.EFC"
         mat. el file     "/home/zhouoh/scratch/Gau-2811633.EUF"
Sent job to server.
Received result from server:
SCF Done:  E(UMA) =  -79.64814238642927     A.U.
 Recovered energy= -79.6481423864     dipole=      0.000000000000      0.000000000000      0.000000000000
 Energy=    -79.6481424     NIter=   0.
 Dipole moment=       0.000000       0.000000       0.000000
 Leave Link  402 at Mon Oct  6 14:21:07 2025, MaxMem=   104857600 cpu:               0.0 elap:               0.1
 (Enter /home/zhouoh/g16/l716.exe)
 Dipole        = 0.00000000D+00 0.00000000D+00 0.00000000D+00
 ***** Axes restored to original set *****
 -------------------------------------------------------------------
 Center     Atomic                   Forces (Hartrees/Bohr)
 Number     Number              X              Y              Z
 -------------------------------------------------------------------
      1        6           0.004796412    0.006782864    0.011748527
      2        1           0.000330644    0.000268121    0.000693160
      3        1           0.000329409    0.000467178    0.000578725
      4        1           0.000142498    0.000399757    0.000693960
      5        6          -0.004796309   -0.006782937   -0.011748522
      6        1          -0.000142585   -0.000401326   -0.000693032
      7        1          -0.000329192   -0.000267519   -0.000694089
      8        1          -0.000330879   -0.000466138   -0.000578728
 -------------------------------------------------------------------
 Cartesian Forces:  Max     0.011748527 RMS     0.004173585
 Leave Link  716 at Mon Oct  6 14:21:07 2025, MaxMem=   104857600 cpu:               0.0 elap:               0.0
 (Enter /home/zhouoh/g16/l103.exe)

 GradGradGradGradGradGradGradGradGradGradGradGradGradGradGradGradGradGrad
 Berny optimization.
 FormGI is forming the generalized inverse of G from B-inverse, IUseBI=4.
 Internal  Forces:  Max     0.016796602 RMS     0.003253296
 Search for a local minimum.
 Step number   1 out of a maximum of   38 on scan point    14 out of    21
 All quantities printed in internal units (Hartrees-Bohrs-Radians)
 RMS Force = .72583D-03 SwitMx=.10000D-02 MixMth= 1
 Mixed Optimization -- RFO/linear search
 Second derivative matrix not updated -- first step.
 ITU=  0
     Eigenvalues ---    0.00122   0.06405   0.07754   0.07754   0.07754
     Eigenvalues ---    0.07757   0.16000   0.16000   0.16000   0.16000
     Eigenvalues ---    0.17112   0.36893   0.37230   0.37230   0.37230
     Eigenvalues ---    0.37230   0.372351000.000001000.000001000.00000
     Eigenvalues --- 1000.000001000.000001000.000001000.000001000.00000
     Eigenvalues --- 1000.000001000.000001000.00000
 RFO step:  Lambda=-2.21114408D-04 EMin= 1.21935229D-03
 Linear search not attempted -- first point.
 Iteration  1 RMS(Cart)=  0.02125581 RMS(Int)=  0.00044460
 Iteration  2 RMS(Cart)=  0.00032509 RMS(Int)=  0.00035697
 Iteration  3 RMS(Cart)=  0.00000052 RMS(Int)=  0.00035697
 Iteration  1 RMS(Cart)=  0.00000000 RMS(Int)=  0.00000000
 ITry= 1 IFail=0 DXMaxC= 4.21D-02 DCOld= 1.00D+10 DXMaxT= 2.26D-01 DXLimC= 3.00D+00 Rises=F
 ClnCor:  largest displacement from symmetrization is 4.06D-04 for atom     4.
 Variable       Old X    -DE/DX   Delta X   Delta X   Delta X     New X
                                 (Linear)    (Quad)   (Total)
    R1        2.03785   0.00004   0.00000  -0.00069  -0.00069   2.03716
    R2        2.03785   0.00004   0.00000  -0.00069  -0.00069   2.03716
    R3        2.03785   0.00004   0.00000  -0.00069  -0.00069   2.03716
    R4        5.36682  -0.01680   0.00000   0.00000   0.00000   5.36682
    R5        2.03785   0.00004   0.00000  -0.00069  -0.00069   2.03716
    R6        2.03785   0.00004   0.00000  -0.00069  -0.00069   2.03716
    R7        2.03785   0.00004   0.00000  -0.00069  -0.00069   2.03716
    A1        2.07092   0.00057   0.00000   0.00881   0.00807   2.07899
    A2        2.07092   0.00057   0.00000   0.00884   0.00807   2.07899
    A3        1.68786  -0.00143   0.00000  -0.02218  -0.02242   1.66545
    A4        2.07092   0.00057   0.00000   0.00886   0.00807   2.07899
    A5        1.68786  -0.00143   0.00000  -0.02228  -0.02242   1.66545
    A6        1.68786  -0.00143   0.00000  -0.02238  -0.02242   1.66545
    A7        1.68786  -0.00143   0.00000  -0.02218  -0.02242   1.66545
    A8        1.68786  -0.00143   0.00000  -0.02238  -0.02242   1.66545
    A9        1.68786  -0.00143   0.00000  -0.02228  -0.02242   1.66545
   A10        2.07092   0.00057   0.00000   0.00884   0.00807   2.07899
   A11        2.07092   0.00057   0.00000   0.00881   0.00807   2.07899
   A12        2.07092   0.00057   0.00000   0.00886   0.00807   2.07899
    D1        1.00746   0.00000   0.00000  -0.00676  -0.00676   1.00070
    D2        3.10185   0.00000   0.00000  -0.00676  -0.00676   3.09509
    D3       -1.08694   0.00000   0.00000  -0.00675  -0.00676  -1.09370
    D4       -1.08694   0.00000   0.00000  -0.00675  -0.00676  -1.09370
    D5        1.00746   0.00000   0.00000  -0.00675  -0.00676   1.00070
    D6        3.10185   0.00000   0.00000  -0.00674  -0.00676   3.09509
    D7        3.10185   0.00000   0.00000  -0.00676  -0.00676   3.09509
    D8       -1.08694   0.00000   0.00000  -0.00676  -0.00676  -1.09370
    D9        1.00746   0.00000   0.00000  -0.00675  -0.00676   1.00070
         Item               Value     Threshold  Converged?
 Maximum Force            0.001431     0.000450     NO 
 RMS     Force            0.000726     0.000300     NO 
 Maximum Displacement     0.041763     0.001800     NO 
 RMS     Displacement     0.021381     0.001200     NO 
 Predicted change in Energy=-1.106759D-04
 GradGradGradGradGradGradGradGradGradGradGradGradGradGradGradGradGradGrad

 Leave Link  103 at Mon Oct  6 14:21:07 2025, MaxMem=   104857600 cpu:               0.0 elap:               0.0
 (Enter /home/zhouoh/g16/l202.exe)
                          Input orientation:                          
 ---------------------------------------------------------------------
 Center     Atomic      Atomic             Coordinates (Angstroms)
 Number     Number       Type             X           Y           Z
 ---------------------------------------------------------------------
      1          6           0       -2.132879   -0.388828   -0.530723
      2          1           0       -1.641548   -1.324066   -0.316139
      3          1           0       -1.680571    0.292227   -1.233365
      4          1           0       -3.178404   -0.278728   -0.292230
      5          6           0       -1.186196    0.949949    1.788128
      6          1           0       -0.140717    0.796644    1.574598
      7          1           0       -1.636763    1.899551    1.548609
      8          1           0       -1.679223    0.297736    2.490743
 ---------------------------------------------------------------------
                    Distance matrix (angstroms):
                    1          2          3          4          5
     1  C    0.000000
     2  H    1.078018   0.000000
     3  H    1.078018   1.858825   0.000000
     4  H    1.078018   1.858825   1.858825   0.000000
     5  C    2.840000   3.131522   3.131522   3.131522   0.000000
     6  H    3.131522   3.213221   3.241951   3.724112   1.078018
     7  H    3.131522   3.724112   3.213221   3.241951   1.078018
     8  H    3.131522   3.241951   3.724112   3.213221   1.078018
                    6          7          8
     6  H    0.000000
     7  H    1.858825   0.000000
     8  H    1.858825   1.858825   0.000000
 Stoichiometry    C2H6
 Framework group  D3[C3(C.C),X(H6)]
 Deg. of freedom     4
 Full point group                 D3      NOp   6
 RotChk:  IX=0 Diff= 5.91D-16
 Largest Abelian subgroup         C2      NOp   2
 Largest concise Abelian subgroup C2      NOp   2
                         Standard orientation:                         
 ---------------------------------------------------------------------
 Center     Atomic      Atomic             Coordinates (Angstroms)
 Number     Number       Type             X           Y           Z
 ---------------------------------------------------------------------
      1          6           0       -0.000000   -0.000000    1.420000
      2          1           0       -0.514845    0.941636    1.521884
      3          1           0        1.072903   -0.024949    1.521884
      4          1           0       -0.558058   -0.916687    1.521884
      5          6           0        0.000000   -0.000000   -1.420000
      6          1           0        0.514845    0.941636   -1.521884
      7          1           0        0.558058   -0.916687   -1.521884
      8          1           0       -1.072903   -0.024949   -1.521884
 ---------------------------------------------------------------------
 Rotational constants (GHZ):          72.5646523           7.6710419           7.6710419
 Leave Link  202 at Mon Oct  6 14:21:07 2025, MaxMem=   104857600 cpu:               0.0 elap:               0.0
 (Enter /home/zhouoh/g16/l301.exe)
 Standard basis: STO-3G (5D, 7F)
 Ernie: Thresh=  0.10000D-02 Tol=  0.10000D-05 Strict=F.
 There are     8 symmetry adapted cartesian basis functions of A   symmetry.
 There are     8 symmetry adapted cartesian basis functions of B   symmetry.
 There are     8 symmetry adapted basis functions of A   symmetry.
 There are     8 symmetry adapted basis functions of B   symmetry.
    16 basis functions,    48 primitive gaussians,    16 cartesian basis functions
     9 alpha electrons        9 beta electrons
       nuclear repulsion energy        33.5811036501 Hartrees.
 IExCor=    0 DFT=F Ex=HF Corr=None ExCW=0 ScaHFX=  1.000000
 ScaDFX=  1.000000  1.000000  1.000000  1.000000 ScalE2=  1.000000  1.000000
 IRadAn=      5 IRanWt=     -1 IRanGd=            0 ICorTp=0 IEmpDi=  4
 NAtoms=    8 NActive=    8 NUniq=    2 SFac= 4.00D+00 NAtFMM=   60 NAOKFM=F Big=F
 Integral buffers will be    131072 words long.
 Raffenetti 1 integral format.
 Two-electron integral symmetry is turned on.
 Leave Link  301 at Mon Oct  6 14:21:07 2025, MaxMem=   104857600 cpu:               0.0 elap:               0.0
 (Enter /home/zhouoh/g16/l402.exe)
 External calculation of energy and first derivatives.
 Running external command "python ../GauUMA_client.py R"
         input file       "/home/zhouoh/scratch/Gau-2811633.EIn"
         output file      "/home/zhouoh/scratch/Gau-2811633.EOu"
         message file     "/home/zhouoh/scratch/Gau-2811633.EMs"
         fchk file        "/home/zhouoh/scratch/Gau-2811633.EFC"
         mat. el file     "/home/zhouoh/scratch/Gau-2811633.EUF"
Sent job to server.
Received result from server:
SCF Done:  E(UMA) =  -79.64826249210257     A.U.
 Recovered energy= -79.6482624921     dipole=      0.000000000000      0.000000000000      0.000000000000
 Energy=    -79.6482625     NIter=   0.
 Dipole moment=       0.000000       0.000000       0.000000
 Leave Link  402 at Mon Oct  6 14:21:07 2025, MaxMem=   104857600 cpu:               0.0 elap:               0.1
 (Enter /home/zhouoh/g16/l716.exe)
 Dipole        = 0.00000000D+00 0.00000000D+00 0.00000000D+00
 ***** Axes restored to original set *****
 -------------------------------------------------------------------
 Center     Atomic                   Forces (Hartrees/Bohr)
 Number     Number              X              Y              Z
 -------------------------------------------------------------------
      1        6           0.005189957    0.007339509    0.012712543
      2        1           0.000036746    0.000014159    0.000072759
      3        1           0.000040491    0.000053287    0.000048640
      4        1           0.000001099    0.000043339    0.000070466
      5        6          -0.005189951   -0.007339509   -0.012712541
      6        1          -0.000001099   -0.000039410   -0.000072736
      7        1          -0.000040455   -0.000015464   -0.000070495
      8        1          -0.000036787   -0.000055909   -0.000048640
 -------------------------------------------------------------------
 Cartesian Forces:  Max     0.012712543 RMS     0.004494750
 Leave Link  716 at Mon Oct  6 14:21:07 2025, MaxMem=   104857600 cpu:               0.0 elap:               0.0
 (Enter /home/zhouoh/g16/l103.exe)

 GradGradGradGradGradGradGradGradGradGradGradGradGradGradGradGradGradGrad
 Berny optimization.
 Using GEDIIS/GDIIS optimizer.
 FormGI is forming the generalized inverse of G from B-inverse, IUseBI=4.
 Internal  Forces:  Max     0.015804606 RMS     0.002987676
 Search for a local minimum.
 Step number   2 out of a maximum of   38 on scan point    14 out of    21
 All quantities printed in internal units (Hartrees-Bohrs-Radians)
 RMS Force = .74096D-04 SwitMx=.10000D-02 MixMth= 2
 Mixed Optimization -- En-DIIS/RFO-DIIS
 Update second derivatives using D2CorX and points    1    2
 DE= -1.20D-04 DEPred=-1.11D-04 R= 1.09D+00
 TightC=F SS=  1.41D+00  RLast= 6.18D-02 DXNew= 3.7959D-01 1.8542D-01
 Trust test= 1.09D+00 RLast= 6.18D-02 DXMaxT set to 2.26D-01
 ITU=  1  0
 Use linear search instead of GDIIS.
     Eigenvalues ---    0.00122   0.05803   0.07877   0.07877   0.07877
     Eigenvalues ---    0.07883   0.16000   0.16000   0.16000   0.16000
     Eigenvalues ---    0.17097   0.36883   0.37230   0.37230   0.37230
     Eigenvalues ---    0.37230   0.372351000.000001000.000001000.00000
     Eigenvalues --- 1000.000001000.000001000.000001000.000001000.00000
     Eigenvalues --- 1000.000001000.000001000.00000
 RFO step:  Lambda=-1.16230889D-08 EMin= 1.22192215D-03
 Quartic linear search produced a step of  0.11484.
 Iteration  1 RMS(Cart)=  0.00246005 RMS(Int)=  0.00004692
 Iteration  2 RMS(Cart)=  0.00000399 RMS(Int)=  0.00004680
 Iteration  3 RMS(Cart)=  0.00000000 RMS(Int)=  0.00004680
 Iteration  1 RMS(Cart)=  0.00000000 RMS(Int)=  0.00000000
 ITry= 1 IFail=0 DXMaxC= 4.50D-03 DCOld= 1.00D+10 DXMaxT= 2.26D-01 DXLimC= 3.00D+00 Rises=F
 ClnCor:  largest displacement from symmetrization is 9.98D-05 for atom     7.
 Variable       Old X    -DE/DX   Delta X   Delta X   Delta X     New X
                                 (Linear)    (Quad)   (Total)
    R1        2.03716   0.00002  -0.00008   0.00004  -0.00003   2.03713
    R2        2.03716   0.00002  -0.00008   0.00005  -0.00003   2.03713
    R3        2.03716   0.00002  -0.00008   0.00005  -0.00003   2.03713
    R4        5.36682  -0.01580   0.00000   0.00000  -0.00000   5.36682
    R5        2.03716   0.00002  -0.00008   0.00004  -0.00003   2.03713
    R6        2.03716   0.00002  -0.00008   0.00005  -0.00003   2.03713
    R7        2.03716   0.00002  -0.00008   0.00005  -0.00003   2.03713
    A1        2.07899   0.00005   0.00093  -0.00000   0.00082   2.07982
    A2        2.07899   0.00005   0.00093   0.00000   0.00082   2.07982
    A3        1.66545  -0.00015  -0.00257   0.00002  -0.00259   1.66286
    A4        2.07899   0.00005   0.00093   0.00001   0.00082   2.07982
    A5        1.66545  -0.00015  -0.00257  -0.00001  -0.00259   1.66286
    A6        1.66545  -0.00015  -0.00257  -0.00003  -0.00259   1.66286
    A7        1.66545  -0.00015  -0.00257   0.00002  -0.00259   1.66286
    A8        1.66545  -0.00015  -0.00257  -0.00003  -0.00259   1.66286
    A9        1.66545  -0.00015  -0.00257  -0.00001  -0.00259   1.66286
   A10        2.07899   0.00005   0.00093   0.00000   0.00082   2.07982
   A11        2.07899   0.00005   0.00093  -0.00000   0.00082   2.07982
   A12        2.07899   0.00005   0.00093   0.00001   0.00082   2.07982
    D1        1.00070   0.00000  -0.00078   0.00080   0.00002   1.00072
    D2        3.09509   0.00000  -0.00078   0.00080   0.00002   3.09511
    D3       -1.09370   0.00000  -0.00078   0.00080   0.00002  -1.09368
    D4       -1.09370   0.00000  -0.00078   0.00080   0.00002  -1.09368
    D5        1.00070   0.00000  -0.00078   0.00080   0.00002   1.00072
    D6        3.09509   0.00000  -0.00078   0.00080   0.00002   3.09511
    D7        3.09509   0.00000  -0.00078   0.00080   0.00002   3.09511
    D8       -1.09370   0.00000  -0.00078   0.00080   0.00002  -1.09368
    D9        1.00070   0.00000  -0.00078   0.00080   0.00002   1.00072
         Item               Value     Threshold  Converged?
 Maximum Force            0.000148     0.000450     YES
 RMS     Force            0.000074     0.000300     YES
 Maximum Displacement     0.004423     0.001800     NO 
 RMS     Displacement     0.002439     0.001200     NO 
 Predicted change in Energy=-1.250385D-06
 GradGradGradGradGradGradGradGradGradGradGradGradGradGradGradGradGradGrad

 Leave Link  103 at Mon Oct  6 14:21:07 2025, MaxMem=   104857600 cpu:               0.0 elap:               0.0
 (Enter /home/zhouoh/g16/l202.exe)
                          Input orientation:                          
 ---------------------------------------------------------------------
 Center     Atomic      Atomic             Coordinates (Angstroms)
 Number     Number       Type             X           Y           Z
 ---------------------------------------------------------------------
      1          6           0       -2.132879   -0.388828   -0.530723
      2          1           0       -1.640512   -1.322960   -0.313798
      3          1           0       -1.679527    0.293694   -1.231237
      4          1           0       -3.177707   -0.277374   -0.289894
      5          6           0       -1.186196    0.949949    1.788128
      6          1           0       -0.141415    0.795299    1.572257
      7          1           0       -1.637807    1.898442    1.546273
      8          1           0       -1.680259    0.296262    2.488614
 ---------------------------------------------------------------------
                    Distance matrix (angstroms):
                    1          2          3          4          5
     1  C    0.000000
     2  H    1.078000   0.000000
     3  H    1.078000   1.859244   0.000000
     4  H    1.078000   1.859244   1.859244   0.000000
     5  C    2.840000   3.128995   3.128995   3.128995   0.000000
     6  H    3.128995   3.208040   3.236816   3.719852   1.078000
     7  H    3.128995   3.719852   3.208040   3.236816   1.078000
     8  H    3.128995   3.236816   3.719852   3.208040   1.078000
                    6          7          8
     6  H    0.000000
     7  H    1.859244   0.000000
     8  H    1.859244   1.859244   0.000000
 Stoichiometry    C2H6
 Framework group  D3[C3(C.C),X(H6)]
 Deg. of freedom     4
 Full point group                 D3      NOp   6
 RotChk:  IX=0 Diff= 8.51D-16
 Largest Abelian subgroup         C2      NOp   2
 Largest concise Abelian subgroup C2      NOp   2
                         Standard orientation:                         
 ---------------------------------------------------------------------
 Center     Atomic      Atomic             Coordinates (Angstroms)
 Number     Number       Type             X           Y           Z
 ---------------------------------------------------------------------
      1          6           0       -0.000000   -0.000000    1.420000
      2          1           0       -0.514970    0.941843    1.519107
      3          1           0        1.073145   -0.024944    1.519107
      4          1           0       -0.558175   -0.916899    1.519107
      5          6           0        0.000000    0.000000   -1.420000
      6          1           0        0.514970    0.941843   -1.519107
      7          1           0        0.558175   -0.916899   -1.519107
      8          1           0       -1.073145   -0.024944   -1.519107
 ---------------------------------------------------------------------
 Rotational constants (GHZ):          72.5319293           7.6768110           7.6768110
 Leave Link  202 at Mon Oct  6 14:21:07 2025, MaxMem=   104857600 cpu:               0.0 elap:               0.0
 (Enter /home/zhouoh/g16/l301.exe)
 Standard basis: STO-3G (5D, 7F)
 Ernie: Thresh=  0.10000D-02 Tol=  0.10000D-05 Strict=F.
 There are     8 symmetry adapted cartesian basis functions of A   symmetry.
 There are     8 symmetry adapted cartesian basis functions of B   symmetry.
 There are     8 symmetry adapted basis functions of A   symmetry.
 There are     8 symmetry adapted basis functions of B   symmetry.
    16 basis functions,    48 primitive gaussians,    16 cartesian basis functions
     9 alpha electrons        9 beta electrons
       nuclear repulsion energy        33.5879877651 Hartrees.
 IExCor=    0 DFT=F Ex=HF Corr=None ExCW=0 ScaHFX=  1.000000
 ScaDFX=  1.000000  1.000000  1.000000  1.000000 ScalE2=  1.000000  1.000000
 IRadAn=      5 IRanWt=     -1 IRanGd=            0 ICorTp=0 IEmpDi=  4
 NAtoms=    8 NActive=    8 NUniq=    2 SFac= 4.00D+00 NAtFMM=   60 NAOKFM=F Big=F
 Integral buffers will be    131072 words long.
 Raffenetti 1 integral format.
 Two-electron integral symmetry is turned on.
 Leave Link  301 at Mon Oct  6 14:21:07 2025, MaxMem=   104857600 cpu:               0.0 elap:               0.0
 (Enter /home/zhouoh/g16/l402.exe)
 External calculation of energy and first derivatives.
 Running external command "python ../GauUMA_client.py R"
         input file       "/home/zhouoh/scratch/Gau-2811633.EIn"
         output file      "/home/zhouoh/scratch/Gau-2811633.EOu"
         message file     "/home/zhouoh/scratch/Gau-2811633.EMs"
         fchk file        "/home/zhouoh/scratch/Gau-2811633.EFC"
         mat. el file     "/home/zhouoh/scratch/Gau-2811633.EUF"
Sent job to server.
Received result from server:
SCF Done:  E(UMA) =  -79.64826377131386     A.U.
 Recovered energy= -79.6482637713     dipole=      0.000000000000      0.000000000000      0.000000000000
 Energy=    -79.6482638     NIter=   0.
 Dipole moment=       0.000000       0.000000       0.000000
 Leave Link  402 at Mon Oct  6 14:21:07 2025, MaxMem=   104857600 cpu:               0.0 elap:               0.1
 (Enter /home/zhouoh/g16/l716.exe)
 Dipole        = 0.00000000D+00 0.00000000D+00 0.00000000D+00
 ***** Axes restored to original set *****
 -------------------------------------------------------------------
 Center     Atomic                   Forces (Hartrees/Bohr)
 Number     Number              X              Y              Z
 -------------------------------------------------------------------
      1        6           0.005228230    0.007393641    0.012806261
      2        1          -0.000000167   -0.000003442    0.000003521
      3        1           0.000004545    0.000001437   -0.000001219
      4        1          -0.000003189    0.000003688    0.000000636
      5        6          -0.005228233   -0.007393635   -0.012806256
      6        1           0.000003195    0.000001294   -0.000003519
      7        1          -0.000004536    0.000001783   -0.000000642
      8        1           0.000000152   -0.000004764    0.000001219
 -------------------------------------------------------------------
 Cartesian Forces:  Max     0.012806261 RMS     0.004527698
 Leave Link  716 at Mon Oct  6 14:21:07 2025, MaxMem=   104857600 cpu:               0.0 elap:               0.0
 (Enter /home/zhouoh/g16/l103.exe)

 GradGradGradGradGradGradGradGradGradGradGradGradGradGradGradGradGradGrad
 Berny optimization.
 Using GEDIIS/GDIIS optimizer.
 FormGI is forming the generalized inverse of G from B-inverse, IUseBI=4.
 Internal  Forces:  Max     0.015687996 RMS     0.002964754
 Search for a local minimum.
 Step number   3 out of a maximum of   38 on scan point    14 out of    21
 All quantities printed in internal units (Hartrees-Bohrs-Radians)
 RMS Force = .24945D-05 SwitMx=.10000D-02 MixMth= 2
 Mixed Optimization -- En-DIIS/RFO-DIIS
 Swapping is turned off.
 Update second derivatives using D2CorX and points    1    2    3
 DE= -1.28D-06 DEPred=-1.25D-06 R= 1.02D+00
 TightC=F SS=  1.41D+00  RLast= 6.65D-03 DXNew= 3.7959D-01 1.9952D-02
 Trust test= 1.02D+00 RLast= 6.65D-03 DXMaxT set to 2.26D-01
 ITU=  1  1  0
     Eigenvalues ---    0.00122   0.05616   0.07890   0.07890   0.07890
     Eigenvalues ---    0.07896   0.16000   0.16000   0.16000   0.16000
     Eigenvalues ---    0.17091   0.36862   0.37230   0.37230   0.37230
     Eigenvalues ---    0.37230   0.372351000.000001000.000001000.00000
     Eigenvalues --- 1000.000001000.000001000.000001000.000001000.00000
     Eigenvalues --- 1000.000001000.000001000.00000
 En-DIIS/RFO-DIIS/Sim-DIIS IScMMF=       -3 using points:     3    2
 RFO step:  Lambda=-2.76867787D-07.
 NNeg= 0 NGDIIS= 2 SimSw=  2.50D-03 Rises=F DC= -1.28D-06 SmlDif=  1.00D-05
 NRisDI= 0 DoIntr=F SqrtH=F CThrHd= 10.0 CDAdj=  3.0
 RMS Error=  0.9309933007D-03 NUsed= 2 OKEnD=F EnDIS=F
 InvSVX:  RCond= 1.11D-05 Info=           0 Equed=N FErr=  1.93D-15 BErr=  1.08D-17
 DidBck=F Rises=F RFO-DIIS coefs:    1.02632   -0.02632
 Iteration  1 RMS(Cart)=  0.00077302 RMS(Int)=  0.00000034
 Iteration  2 RMS(Cart)=  0.00000032 RMS(Int)=  0.00000013
 Iteration  1 RMS(Cart)=  0.00000000 RMS(Int)=  0.00000000
 ITry= 1 IFail=0 DXMaxC= 1.54D-03 DCOld= 1.00D+10 DXMaxT= 2.26D-01 DXLimC= 3.00D+00 Rises=F
 ClnCor:  largest displacement from symmetrization is 2.13D-04 for atom     4.
 Variable       Old X    -DE/DX   Delta X   Delta X   Delta X     New X
                                 (Linear)    (Quad)   (Total)
    R1        2.03713   0.00000  -0.00000   0.00001   0.00001   2.03713
    R2        2.03713   0.00000  -0.00000   0.00001   0.00001   2.03713
    R3        2.03713   0.00000  -0.00000   0.00001   0.00001   2.03713
    R4        5.36682  -0.01569  -0.00000   0.00000  -0.00000   5.36682
    R5        2.03713   0.00000  -0.00000   0.00001   0.00001   2.03713
    R6        2.03713   0.00000  -0.00000   0.00001   0.00001   2.03713
    R7        2.03713   0.00000  -0.00000   0.00001   0.00001   2.03713
    A1        2.07982   0.00000   0.00002  -0.00002  -0.00000   2.07982
    A2        2.07982   0.00000   0.00002  -0.00001  -0.00000   2.07982
    A3        1.66286  -0.00000  -0.00007   0.00007   0.00000   1.66286
    A4        2.07982   0.00000   0.00002   0.00001  -0.00000   2.07982
    A5        1.66286  -0.00000  -0.00007   0.00002   0.00000   1.66286
    A6        1.66286  -0.00000  -0.00007  -0.00003   0.00000   1.66286
    A7        1.66286  -0.00000  -0.00007   0.00007   0.00000   1.66286
    A8        1.66286  -0.00000  -0.00007  -0.00003   0.00000   1.66286
    A9        1.66286  -0.00000  -0.00007   0.00002   0.00000   1.66286
   A10        2.07982   0.00000   0.00002  -0.00001  -0.00000   2.07982
   A11        2.07982   0.00000   0.00002  -0.00002  -0.00000   2.07982
   A12        2.07982   0.00000   0.00002   0.00001  -0.00000   2.07982
    D1        1.00072   0.00000   0.00000   0.00164   0.00164   1.00235
    D2        3.09511   0.00000   0.00000   0.00164   0.00164   3.09675
    D3       -1.09368   0.00000   0.00000   0.00164   0.00164  -1.09204
    D4       -1.09368   0.00000   0.00000   0.00164   0.00164  -1.09204
    D5        1.00072   0.00000   0.00000   0.00164   0.00164   1.00235
    D6        3.09511   0.00000   0.00000   0.00165   0.00164   3.09675
    D7        3.09511   0.00000   0.00000   0.00164   0.00164   3.09675
    D8       -1.09368   0.00000   0.00000   0.00164   0.00164  -1.09204
    D9        1.00072   0.00000   0.00000   0.00164   0.00164   1.00235
         Item               Value     Threshold  Converged?
 Maximum Force            0.000004     0.000450     YES
 RMS     Force            0.000002     0.000300     YES
 Maximum Displacement     0.001441     0.001800     YES
 RMS     Displacement     0.000768     0.001200     YES
 Predicted change in Energy=-1.388241D-08
 Optimization completed.
    -- Stationary point found.
                           ----------------------------
                           !   Optimized Parameters   !
                           ! (Angstroms and Degrees)  !
 --------------------------                            --------------------------
 ! Name  Definition              Value          Derivative Info.                !
 --------------------------------------------------------------------------------
 ! R1    R(1,2)                  1.078          -DE/DX =    0.0                 !
 ! R2    R(1,3)                  1.078          -DE/DX =    0.0                 !
 ! R3    R(1,4)                  1.078          -DE/DX =    0.0                 !
 ! R4    R(1,5)                  2.84           -DE/DX =   -0.0157              !
 ! R5    R(5,6)                  1.078          -DE/DX =    0.0                 !
 ! R6    R(5,7)                  1.078          -DE/DX =    0.0                 !
 ! R7    R(5,8)                  1.078          -DE/DX =    0.0                 !
 ! A1    A(2,1,3)              119.1647         -DE/DX =    0.0                 !
 ! A2    A(2,1,4)              119.1647         -DE/DX =    0.0                 !
 ! A3    A(2,1,5)               95.275          -DE/DX =    0.0                 !
 ! A4    A(3,1,4)              119.1647         -DE/DX =    0.0                 !
 ! A5    A(3,1,5)               95.275          -DE/DX =    0.0                 !
 ! A6    A(4,1,5)               95.275          -DE/DX =    0.0                 !
 ! A7    A(1,5,6)               95.275          -DE/DX =    0.0                 !
 ! A8    A(1,5,7)               95.275          -DE/DX =    0.0                 !
 ! A9    A(1,5,8)               95.275          -DE/DX =    0.0                 !
 ! A10   A(6,5,7)              119.1647         -DE/DX =    0.0                 !
 ! A11   A(6,5,8)              119.1647         -DE/DX =    0.0                 !
 ! A12   A(7,5,8)              119.1647         -DE/DX =    0.0                 !
 ! D1    D(2,1,5,6)             57.3369         -DE/DX =    0.0                 !
 ! D2    D(2,1,5,7)            177.3369         -DE/DX =    0.0                 !
 ! D3    D(2,1,5,8)            -62.6631         -DE/DX =    0.0                 !
 ! D4    D(3,1,5,6)            -62.6631         -DE/DX =    0.0                 !
 ! D5    D(3,1,5,7)             57.3369         -DE/DX =    0.0                 !
 ! D6    D(3,1,5,8)            177.3369         -DE/DX =    0.0                 !
 ! D7    D(4,1,5,6)            177.3369         -DE/DX =    0.0                 !
 ! D8    D(4,1,5,7)            -62.6631         -DE/DX =    0.0                 !
 ! D9    D(4,1,5,8)             57.3369         -DE/DX =    0.0                 !
 --------------------------------------------------------------------------------
 Iteration  1 RMS(Cart)=  0.05050506 RMS(Int)=  0.00000001
 Iteration  2 RMS(Cart)=  0.00000002 RMS(Int)=  0.00000000
 Iteration  1 RMS(Cart)=  0.00000000 RMS(Int)=  0.00000000
 GradGradGradGradGradGradGradGradGradGradGradGradGradGradGradGradGradGrad

 Leave Link  103 at Mon Oct  6 14:21:07 2025, MaxMem=   104857600 cpu:               0.0 elap:               0.0
 (Enter /home/zhouoh/g16/l202.exe)
                          Input orientation:                          
 ---------------------------------------------------------------------
 Center     Atomic      Atomic             Coordinates (Angstroms)
 Number     Number       Type             X           Y           Z
 ---------------------------------------------------------------------
      1          6           0       -2.149546   -0.412398   -0.571548
      2          1           0       -1.657886   -1.346804   -0.354180
      3          1           0       -1.695467    0.269632   -1.272078
      4          1           0       -3.194397   -0.300181   -0.331153
      5          6           0       -1.169529    0.973519    1.828953
      6          1           0       -0.124723    0.819626    1.612638
      7          1           0       -1.621867    1.921781    1.587532
      8          1           0       -1.662886    0.319310    2.529456
 ---------------------------------------------------------------------
                    Distance matrix (angstroms):
                    1          2          3          4          5
     1  C    0.000000
     2  H    1.078005   0.000000
     3  H    1.078005   1.859252   0.000000
     4  H    1.078005   1.859252   1.859252   0.000000
     5  C    2.940000   3.223113   3.223113   3.223113   0.000000
     6  H    3.223113   3.303389   3.330363   3.801998   1.078005
     7  H    3.223113   3.801998   3.303389   3.330363   1.078005
     8  H    3.223113   3.330363   3.801998   3.303389   1.078005
                    6          7          8
     6  H    0.000000
     7  H    1.859252   0.000000
     8  H    1.859252   1.859252   0.000000
 Stoichiometry    C2H6
 Framework group  D3[C3(C.C),X(H6)]
 Deg. of freedom     4
 Full point group                 D3      NOp   6
 RotChk:  IX=0 Diff= 3.51D-11
 Largest Abelian subgroup         C2      NOp   2
 Largest concise Abelian subgroup C2      NOp   2
                         Standard orientation:                         
 ---------------------------------------------------------------------
 Center     Atomic      Atomic             Coordinates (Angstroms)
 Number     Number       Type             X           Y           Z
 ---------------------------------------------------------------------
      1          6           0        0.000000    0.000000    1.470000
      2          1           0       -0.515743    0.941425    1.569110
      3          1           0        1.073170   -0.024066    1.569110
      4          1           0       -0.557427   -0.917359    1.569110
      5          6           0       -0.000000   -0.000000   -1.470000
      6          1           0        0.515743    0.941425   -1.569110
      7          1           0        0.557427   -0.917359   -1.569110
      8          1           0       -1.073170   -0.024066   -1.569110
 ---------------------------------------------------------------------
 Rotational constants (GHZ):          72.5313428           7.1956778           7.1956778
 Leave Link  202 at Mon Oct  6 14:21:07 2025, MaxMem=   104857600 cpu:               0.0 elap:               0.0
 (Enter /home/zhouoh/g16/l301.exe)
 Standard basis: STO-3G (5D, 7F)
 Ernie: Thresh=  0.10000D-02 Tol=  0.10000D-05 Strict=F.
 There are     8 symmetry adapted cartesian basis functions of A   symmetry.
 There are     8 symmetry adapted cartesian basis functions of B   symmetry.
 There are     8 symmetry adapted basis functions of A   symmetry.
 There are     8 symmetry adapted basis functions of B   symmetry.
    16 basis functions,    48 primitive gaussians,    16 cartesian basis functions
     9 alpha electrons        9 beta electrons
       nuclear repulsion energy        33.1446797247 Hartrees.
 IExCor=    0 DFT=F Ex=HF Corr=None ExCW=0 ScaHFX=  1.000000
 ScaDFX=  1.000000  1.000000  1.000000  1.000000 ScalE2=  1.000000  1.000000
 IRadAn=      5 IRanWt=     -1 IRanGd=            0 ICorTp=0 IEmpDi=  4
 NAtoms=    8 NActive=    8 NUniq=    2 SFac= 4.00D+00 NAtFMM=   60 NAOKFM=F Big=F
 Integral buffers will be    131072 words long.
 Raffenetti 1 integral format.
 Two-electron integral symmetry is turned on.
 Leave Link  301 at Mon Oct  6 14:21:07 2025, MaxMem=   104857600 cpu:               0.0 elap:               0.0
 (Enter /home/zhouoh/g16/l402.exe)
 External calculation of energy and first derivatives.
 Running external command "python ../GauUMA_client.py R"
         input file       "/home/zhouoh/scratch/Gau-2811633.EIn"
         output file      "/home/zhouoh/scratch/Gau-2811633.EOu"
         message file     "/home/zhouoh/scratch/Gau-2811633.EMs"
         fchk file        "/home/zhouoh/scratch/Gau-2811633.EFC"
         mat. el file     "/home/zhouoh/scratch/Gau-2811633.EUF"
Sent job to server.
Received result from server:
SCF Done:  E(UMA) =  -79.64565984912483     A.U.
 Recovered energy= -79.6456598491     dipole=      0.000000000000      0.000000000000      0.000000000000
 Energy=    -79.6456598     NIter=   0.
 Dipole moment=       0.000000       0.000000       0.000000
 Leave Link  402 at Mon Oct  6 14:21:07 2025, MaxMem=   104857600 cpu:               0.0 elap:               0.1
 (Enter /home/zhouoh/g16/l716.exe)
 Dipole        = 0.00000000D+00 0.00000000D+00 0.00000000D+00
 ***** Axes restored to original set *****
 -------------------------------------------------------------------
 Center     Atomic                   Forces (Hartrees/Bohr)
 Number     Number              X              Y              Z
 -------------------------------------------------------------------
      1        6           0.003439233    0.004863782    0.008424275
      2        1           0.000233078    0.000208406    0.000502317
      3        1           0.000234160    0.000329967    0.000431703
      4        1           0.000118883    0.000290404    0.000501603
      5        6          -0.003439328   -0.004863712   -0.008424273
      6        1          -0.000118800   -0.000289352   -0.000502239
      7        1          -0.000234047   -0.000208833   -0.000501684
      8        1          -0.000233180   -0.000330661   -0.000431702
 -------------------------------------------------------------------
 Cartesian Forces:  Max     0.008424275 RMS     0.002993094
 Leave Link  716 at Mon Oct  6 14:21:07 2025, MaxMem=   104857600 cpu:               0.0 elap:               0.0
 (Enter /home/zhouoh/g16/l103.exe)

 GradGradGradGradGradGradGradGradGradGradGradGradGradGradGradGradGradGrad
 Berny optimization.
 FormGI is forming the generalized inverse of G from B-inverse, IUseBI=4.
 Internal  Forces:  Max     0.012075856 RMS     0.002343275
 Search for a local minimum.
 Step number   1 out of a maximum of   38 on scan point    15 out of    21
 All quantities printed in internal units (Hartrees-Bohrs-Radians)
 RMS Force = .54160D-03 SwitMx=.10000D-02 MixMth= 1
 Mixed Optimization -- RFO/linear search
 Second derivative matrix not updated -- first step.
 ITU=  0
     Eigenvalues ---    0.00122   0.05616   0.07890   0.07890   0.07890
     Eigenvalues ---    0.07896   0.16000   0.16000   0.16000   0.16000
     Eigenvalues ---    0.17091   0.36862   0.37230   0.37230   0.37230
     Eigenvalues ---    0.37230   0.372351000.000001000.000001000.00000
     Eigenvalues --- 1000.000001000.000001000.000001000.000001000.00000
     Eigenvalues --- 1000.000001000.000001000.00000
 RFO step:  Lambda=-1.40324926D-04 EMin= 1.22243009D-03
 Linear search not attempted -- first point.
 Iteration  1 RMS(Cart)=  0.01834175 RMS(Int)=  0.00034191
 Iteration  2 RMS(Cart)=  0.00022523 RMS(Int)=  0.00028329
 Iteration  3 RMS(Cart)=  0.00000028 RMS(Int)=  0.00028329
 Iteration  1 RMS(Cart)=  0.00000000 RMS(Int)=  0.00000000
 ITry= 1 IFail=0 DXMaxC= 3.40D-02 DCOld= 1.00D+10 DXMaxT= 2.26D-01 DXLimC= 3.00D+00 Rises=F
 ClnCor:  largest displacement from symmetrization is 2.21D-04 for atom     4.
 Variable       Old X    -DE/DX   Delta X   Delta X   Delta X     New X
                                 (Linear)    (Quad)   (Total)
    R1        2.03713   0.00003   0.00000  -0.00049  -0.00049   2.03664
    R2        2.03713   0.00003   0.00000  -0.00049  -0.00049   2.03664
    R3        2.03713   0.00003   0.00000  -0.00049  -0.00049   2.03664
    R4        5.55579  -0.01208   0.00000   0.00000  -0.00000   5.55579
    R5        2.03713   0.00003   0.00000  -0.00049  -0.00049   2.03664
    R6        2.03713   0.00003   0.00000  -0.00049  -0.00049   2.03664
    R7        2.03713   0.00003   0.00000  -0.00049  -0.00049   2.03664
    A1        2.07982   0.00034   0.00000   0.00610   0.00550   2.08532
    A2        2.07982   0.00034   0.00000   0.00611   0.00550   2.08532
    A3        1.66286  -0.00110   0.00000  -0.01938  -0.01952   1.64334
    A4        2.07982   0.00034   0.00000   0.00613   0.00550   2.08532
    A5        1.66286  -0.00110   0.00000  -0.01943  -0.01952   1.64334
    A6        1.66286  -0.00110   0.00000  -0.01949  -0.01952   1.64334
    A7        1.66286  -0.00110   0.00000  -0.01938  -0.01952   1.64334
    A8        1.66286  -0.00110   0.00000  -0.01949  -0.01952   1.64334
    A9        1.66286  -0.00110   0.00000  -0.01943  -0.01952   1.64334
   A10        2.07982   0.00034   0.00000   0.00611   0.00550   2.08532
   A11        2.07982   0.00034   0.00000   0.00610   0.00550   2.08532
   A12        2.07982   0.00034   0.00000   0.00613   0.00550   2.08532
    D1        1.00235   0.00000   0.00000   0.00163   0.00163   1.00399
    D2        3.09675   0.00000   0.00000   0.00163   0.00163   3.09838
    D3       -1.09204   0.00000   0.00000   0.00164   0.00163  -1.09041
    D4       -1.09204   0.00000   0.00000   0.00164   0.00163  -1.09041
    D5        1.00235   0.00000   0.00000   0.00164   0.00163   1.00399
    D6        3.09675   0.00000   0.00000   0.00165   0.00163   3.09838
    D7        3.09675   0.00000   0.00000   0.00163   0.00163   3.09838
    D8       -1.09204   0.00000   0.00000   0.00163   0.00163  -1.09041
    D9        1.00235   0.00000   0.00000   0.00164   0.00163   1.00399
         Item               Value     Threshold  Converged?
 Maximum Force            0.001096     0.000450     NO 
 RMS     Force            0.000542     0.000300     NO 
 Maximum Displacement     0.034006     0.001800     NO 
 RMS     Displacement     0.018427     0.001200     NO 
 Predicted change in Energy=-7.013883D-05
 GradGradGradGradGradGradGradGradGradGradGradGradGradGradGradGradGradGrad

 Leave Link  103 at Mon Oct  6 14:21:07 2025, MaxMem=   104857600 cpu:               0.0 elap:               0.0
 (Enter /home/zhouoh/g16/l202.exe)
                          Input orientation:                          
 ---------------------------------------------------------------------
 Center     Atomic      Atomic             Coordinates (Angstroms)
 Number     Number       Type             X           Y           Z
 ---------------------------------------------------------------------
      1          6           0       -2.149546   -0.412398   -0.571548
      2          1           0       -1.650876   -1.338392   -0.336185
      3          1           0       -1.687076    0.280033   -1.255795
      4          1           0       -3.188801   -0.289304   -0.314004
      5          6           0       -1.169529    0.973519    1.828953
      6          1           0       -0.130317    0.810210    1.594644
      7          1           0       -1.630256    1.912882    1.570380
      8          1           0       -1.669899    0.307933    2.513174
 ---------------------------------------------------------------------
                    Distance matrix (angstroms):
                    1          2          3          4          5
     1  C    0.000000
     2  H    1.077744   0.000000
     3  H    1.077744   1.861798   0.000000
     4  H    1.077744   1.861798   1.861798   0.000000
     5  C    2.940000   3.203817   3.203817   3.203817   0.000000
     6  H    3.203817   3.264458   3.290834   3.769111   1.077744
     7  H    3.203817   3.769111   3.264458   3.290834   1.077744
     8  H    3.203817   3.290834   3.769111   3.264458   1.077744
                    6          7          8
     6  H    0.000000
     7  H    1.861798   0.000000
     8  H    1.861798   1.861798   0.000000
 Stoichiometry    C2H6
 Framework group  D3[C3(C.C),X(H6)]
 Deg. of freedom     4
 Full point group                 D3      NOp   6
 RotChk:  IX=0 Diff= 3.11D-16
 Largest Abelian subgroup         C2      NOp   2
 Largest concise Abelian subgroup C2      NOp   2
                         Standard orientation:                         
 ---------------------------------------------------------------------
 Center     Atomic      Atomic             Coordinates (Angstroms)
 Number     Number       Type             X           Y           Z
 ---------------------------------------------------------------------
      1          6           0        0.000000    0.000000    1.470000
      2          1           0       -0.517218    0.942293    1.548114
      3          1           0        1.074659   -0.023222    1.548114
      4          1           0       -0.557440   -0.919071    1.548114
      5          6           0        0.000000    0.000000   -1.470000
      6          1           0        0.517218    0.942293   -1.548114
      7          1           0        0.557440   -0.919071   -1.548114
      8          1           0       -1.074659   -0.023222   -1.548114
 ---------------------------------------------------------------------
 Rotational constants (GHZ):          72.3330761           7.2354649           7.2354649
 Leave Link  202 at Mon Oct  6 14:21:07 2025, MaxMem=   104857600 cpu:               0.0 elap:               0.0
 (Enter /home/zhouoh/g16/l301.exe)
 Standard basis: STO-3G (5D, 7F)
 Ernie: Thresh=  0.10000D-02 Tol=  0.10000D-05 Strict=F.
 There are     8 symmetry adapted cartesian basis functions of A   symmetry.
 There are     8 symmetry adapted cartesian basis functions of B   symmetry.
 There are     8 symmetry adapted basis functions of A   symmetry.
 There are     8 symmetry adapted basis functions of B   symmetry.
    16 basis functions,    48 primitive gaussians,    16 cartesian basis functions
     9 alpha electrons        9 beta electrons
       nuclear repulsion energy        33.1973214157 Hartrees.
 IExCor=    0 DFT=F Ex=HF Corr=None ExCW=0 ScaHFX=  1.000000
 ScaDFX=  1.000000  1.000000  1.000000  1.000000 ScalE2=  1.000000  1.000000
 IRadAn=      5 IRanWt=     -1 IRanGd=            0 ICorTp=0 IEmpDi=  4
 NAtoms=    8 NActive=    8 NUniq=    2 SFac= 4.00D+00 NAtFMM=   60 NAOKFM=F Big=F
 Integral buffers will be    131072 words long.
 Raffenetti 1 integral format.
 Two-electron integral symmetry is turned on.
 Leave Link  301 at Mon Oct  6 14:21:07 2025, MaxMem=   104857600 cpu:               0.0 elap:               0.0
 (Enter /home/zhouoh/g16/l402.exe)
 External calculation of energy and first derivatives.
 Running external command "python ../GauUMA_client.py R"
         input file       "/home/zhouoh/scratch/Gau-2811633.EIn"
         output file      "/home/zhouoh/scratch/Gau-2811633.EOu"
         message file     "/home/zhouoh/scratch/Gau-2811633.EMs"
         fchk file        "/home/zhouoh/scratch/Gau-2811633.EFC"
         mat. el file     "/home/zhouoh/scratch/Gau-2811633.EUF"
Sent job to server.
Received result from server:
SCF Done:  E(UMA) =  -79.64573460412954     A.U.
 Recovered energy= -79.6457346041     dipole=      0.000000000000      0.000000000000      0.000000000000
 Energy=    -79.6457346     NIter=   0.
 Dipole moment=       0.000000       0.000000       0.000000
 Leave Link  402 at Mon Oct  6 14:21:07 2025, MaxMem=   104857600 cpu:               0.0 elap:               0.1
 (Enter /home/zhouoh/g16/l716.exe)
 Dipole        = 0.00000000D+00 0.00000000D+00 0.00000000D+00
 ***** Axes restored to original set *****
 -------------------------------------------------------------------
 Center     Atomic                   Forces (Hartrees/Bohr)
 Number     Number              X              Y              Z
 -------------------------------------------------------------------
      1        6           0.003771667    0.005333808    0.009238339
      2        1           0.000023781   -0.000000039    0.000043522
      3        1           0.000027584    0.000034945    0.000021783
      4        1          -0.000007962    0.000026471    0.000041179
      5        6          -0.003771673   -0.005333801   -0.009238339
      6        1           0.000007971   -0.000022451   -0.000043500
      7        1          -0.000027577   -0.000001299   -0.000041204
      8        1          -0.000023792   -0.000037632   -0.000021779
 -------------------------------------------------------------------
 Cartesian Forces:  Max     0.009238339 RMS     0.003266359
 Leave Link  716 at Mon Oct  6 14:21:07 2025, MaxMem=   104857600 cpu:               0.0 elap:               0.0
 (Enter /home/zhouoh/g16/l103.exe)

 GradGradGradGradGradGradGradGradGradGradGradGradGradGradGradGradGradGrad
 Berny optimization.
 Using GEDIIS/GDIIS optimizer.
 FormGI is forming the generalized inverse of G from B-inverse, IUseBI=4.
 Internal  Forces:  Max     0.011445020 RMS     0.002163319
 Search for a local minimum.
 Step number   2 out of a maximum of   38 on scan point    15 out of    21
 All quantities printed in internal units (Hartrees-Bohrs-Radians)
 RMS Force = .43086D-04 SwitMx=.10000D-02 MixMth= 2
 Mixed Optimization -- En-DIIS/RFO-DIIS
 Update second derivatives using D2CorX and points    1    2
 DE= -7.48D-05 DEPred=-7.01D-05 R= 1.07D+00
 TightC=F SS=  1.41D+00  RLast= 4.99D-02 DXNew= 3.7959D-01 1.4984D-01
 Trust test= 1.07D+00 RLast= 4.99D-02 DXMaxT set to 2.26D-01
 ITU=  1  0
 Use linear search instead of GDIIS.
     Eigenvalues ---    0.00122   0.05217   0.07975   0.07975   0.07975
     Eigenvalues ---    0.07985   0.16000   0.16000   0.16000   0.16000
     Eigenvalues ---    0.17077   0.36853   0.37230   0.37230   0.37230
     Eigenvalues ---    0.37230   0.372351000.000001000.000001000.00000
     Eigenvalues --- 1000.000001000.000001000.000001000.000001000.00000
     Eigenvalues --- 1000.000001000.000001000.00000
 RFO step:  Lambda=-3.97243909D-08 EMin= 1.22230448D-03
 Quartic linear search produced a step of  0.08591.
 Iteration  1 RMS(Cart)=  0.00182579 RMS(Int)=  0.00002694
 Iteration  2 RMS(Cart)=  0.00000193 RMS(Int)=  0.00002688
 Iteration  3 RMS(Cart)=  0.00000000 RMS(Int)=  0.00002688
 Iteration  1 RMS(Cart)=  0.00000002 RMS(Int)=  0.00000000
 ITry= 1 IFail=0 DXMaxC= 3.75D-03 DCOld= 1.00D+10 DXMaxT= 2.26D-01 DXLimC= 3.00D+00 Rises=F
 ClnCor:  largest displacement from symmetrization is 2.20D-04 for atom     7.
 Variable       Old X    -DE/DX   Delta X   Delta X   Delta X     New X
                                 (Linear)    (Quad)   (Total)
    R1        2.03664   0.00002  -0.00004   0.00005   0.00001   2.03665
    R2        2.03664   0.00002  -0.00004   0.00005   0.00001   2.03665
    R3        2.03664   0.00002  -0.00004   0.00006   0.00001   2.03665
    R4        5.55579  -0.01145  -0.00000   0.00000   0.00000   5.55579
    R5        2.03664   0.00002  -0.00004   0.00005   0.00001   2.03665
    R6        2.03664   0.00002  -0.00004   0.00006   0.00001   2.03665
    R7        2.03664   0.00002  -0.00004   0.00005   0.00001   2.03665
    A1        2.08532   0.00002   0.00047  -0.00001   0.00040   2.08572
    A2        2.08532   0.00002   0.00047   0.00000   0.00040   2.08572
    A3        1.64334  -0.00009  -0.00168   0.00005  -0.00164   1.64170
    A4        2.08532   0.00002   0.00047   0.00002   0.00040   2.08572
    A5        1.64334  -0.00009  -0.00168  -0.00000  -0.00164   1.64170
    A6        1.64334  -0.00009  -0.00168  -0.00006  -0.00164   1.64170
    A7        1.64334  -0.00009  -0.00168   0.00005  -0.00164   1.64170
    A8        1.64334  -0.00009  -0.00168  -0.00006  -0.00164   1.64170
    A9        1.64334  -0.00009  -0.00168  -0.00000  -0.00164   1.64170
   A10        2.08532   0.00002   0.00047   0.00000   0.00040   2.08572
   A11        2.08532   0.00002   0.00047  -0.00001   0.00040   2.08572
   A12        2.08532   0.00002   0.00047   0.00002   0.00040   2.08572
    D1        1.00399   0.00000   0.00014   0.00173   0.00187   1.00586
    D2        3.09838   0.00000   0.00014   0.00173   0.00187   3.10025
    D3       -1.09041   0.00000   0.00014   0.00174   0.00187  -1.08854
    D4       -1.09041   0.00000   0.00014   0.00174   0.00187  -1.08854
    D5        1.00399   0.00000   0.00014   0.00174   0.00187   1.00586
    D6        3.09838   0.00000   0.00014   0.00175   0.00187   3.10025
    D7        3.09838   0.00000   0.00014   0.00173   0.00187   3.10025
    D8       -1.09041   0.00000   0.00014   0.00173   0.00187  -1.08854
    D9        1.00399   0.00000   0.00014   0.00174   0.00187   1.00586
         Item               Value     Threshold  Converged?
 Maximum Force            0.000086     0.000450     YES
 RMS     Force            0.000043     0.000300     YES
 Maximum Displacement     0.003753     0.001800     NO 
 RMS     Displacement     0.001780     0.001200     NO 
 Predicted change in Energy=-4.683801D-07
 GradGradGradGradGradGradGradGradGradGradGradGradGradGradGradGradGradGrad

 Leave Link  103 at Mon Oct  6 14:21:07 2025, MaxMem=   104857600 cpu:               0.0 elap:               0.0
 (Enter /home/zhouoh/g16/l202.exe)
                          Input orientation:                          
 ---------------------------------------------------------------------
 Center     Atomic      Atomic             Coordinates (Angstroms)
 Number     Number       Type             X           Y           Z
 ---------------------------------------------------------------------
      1          6           0       -2.149546   -0.412398   -0.571548
      2          1           0       -1.651036   -1.337977   -0.334199
      3          1           0       -1.685597    0.280387   -1.254443
      4          1           0       -3.188357   -0.287578   -0.313022
      5          6           0       -1.169529    0.973519    1.828953
      6          1           0       -0.130759    0.810222    1.592658
      7          1           0       -1.631736    1.911890    1.569398
      8          1           0       -1.669741    0.306419    2.511823
 ---------------------------------------------------------------------
                    Distance matrix (angstroms):
                    1          2          3          4          5
     1  C    0.000000
     2  H    1.077750   0.000000
     3  H    1.077750   1.862027   0.000000
     4  H    1.077750   1.862027   1.862027   0.000000
     5  C    2.940000   3.202200   3.202200   3.202200   0.000000
     6  H    3.202200   3.261714   3.286979   3.766389   1.077750
     7  H    3.202200   3.766389   3.261714   3.286979   1.077750
     8  H    3.202200   3.286979   3.766389   3.261714   1.077750
                    6          7          8
     6  H    0.000000
     7  H    1.862027   0.000000
     8  H    1.862027   1.862027   0.000000
 Stoichiometry    C2H6
 Framework group  D3[C3(C.C),X(H6)]
 Deg. of freedom     4
 Full point group                 D3      NOp   6
 RotChk:  IX=0 Diff= 3.92D-16
 Largest Abelian subgroup         C2      NOp   2
 Largest concise Abelian subgroup C2      NOp   2
                         Standard orientation:                         
 ---------------------------------------------------------------------
 Center     Atomic      Atomic             Coordinates (Angstroms)
 Number     Number       Type             X           Y           Z
 ---------------------------------------------------------------------
      1          6           0        0.000000    0.000000    1.470000
      2          1           0       -0.518164    0.941924    1.546351
      3          1           0        1.074812   -0.022219    1.546351
      4          1           0       -0.556648   -0.919705    1.546351
      5          6           0       -0.000000    0.000000   -1.470000
      6          1           0        0.518164    0.941924   -1.546351
      7          1           0        0.556648   -0.919705   -1.546351
      8          1           0       -1.074812   -0.022219   -1.546351
 ---------------------------------------------------------------------
 Rotational constants (GHZ):          72.3152878           7.2387957           7.2387957
 Leave Link  202 at Mon Oct  6 14:21:07 2025, MaxMem=   104857600 cpu:               0.0 elap:               0.0
 (Enter /home/zhouoh/g16/l301.exe)
 Standard basis: STO-3G (5D, 7F)
 Ernie: Thresh=  0.10000D-02 Tol=  0.10000D-05 Strict=F.
 There are     8 symmetry adapted cartesian basis functions of A   symmetry.
 There are     8 symmetry adapted cartesian basis functions of B   symmetry.
 There are     8 symmetry adapted basis functions of A   symmetry.
 There are     8 symmetry adapted basis functions of B   symmetry.
    16 basis functions,    48 primitive gaussians,    16 cartesian basis functions
     9 alpha electrons        9 beta electrons
       nuclear repulsion energy        33.2013036550 Hartrees.
 IExCor=    0 DFT=F Ex=HF Corr=None ExCW=0 ScaHFX=  1.000000
 ScaDFX=  1.000000  1.000000  1.000000  1.000000 ScalE2=  1.000000  1.000000
 IRadAn=      5 IRanWt=     -1 IRanGd=            0 ICorTp=0 IEmpDi=  4
 NAtoms=    8 NActive=    8 NUniq=    2 SFac= 4.00D+00 NAtFMM=   60 NAOKFM=F Big=F
 Integral buffers will be    131072 words long.
 Raffenetti 1 integral format.
 Two-electron integral symmetry is turned on.
 Leave Link  301 at Mon Oct  6 14:21:07 2025, MaxMem=   104857600 cpu:               0.0 elap:               0.0
 (Enter /home/zhouoh/g16/l402.exe)
 External calculation of energy and first derivatives.
 Running external command "python ../GauUMA_client.py R"
         input file       "/home/zhouoh/scratch/Gau-2811633.EIn"
         output file      "/home/zhouoh/scratch/Gau-2811633.EOu"
         message file     "/home/zhouoh/scratch/Gau-2811633.EMs"
         fchk file        "/home/zhouoh/scratch/Gau-2811633.EFC"
         mat. el file     "/home/zhouoh/scratch/Gau-2811633.EUF"
Sent job to server.
Received result from server:
SCF Done:  E(UMA) =  -79.64573507726249     A.U.
 Recovered energy= -79.6457350773     dipole=      0.000000000000      0.000000000000      0.000000000000
 Energy=    -79.6457351     NIter=   0.
 Dipole moment=       0.000000       0.000000       0.000000
 Leave Link  402 at Mon Oct  6 14:21:08 2025, MaxMem=   104857600 cpu:               0.0 elap:               0.1
 (Enter /home/zhouoh/g16/l716.exe)
 Dipole        = 0.00000000D+00 0.00000000D+00 0.00000000D+00
 ***** Axes restored to original set *****
 -------------------------------------------------------------------
 Center     Atomic                   Forces (Hartrees/Bohr)
 Number     Number              X              Y              Z
 -------------------------------------------------------------------
      1        6           0.003795868    0.005368149    0.009297984
      2        1          -0.000000412   -0.000002632    0.000003197
      3        1           0.000003980    0.000000978   -0.000000678
      4        1          -0.000002257    0.000003383    0.000000486
      5        6          -0.003795978   -0.005368066   -0.009297984
      6        1           0.000002343    0.000001261   -0.000003195
      7        1          -0.000003940    0.000001006   -0.000000492
      8        1           0.000000398   -0.000004078    0.000000680
 -------------------------------------------------------------------
 Cartesian Forces:  Max     0.009297984 RMS     0.003287326
 Leave Link  716 at Mon Oct  6 14:21:08 2025, MaxMem=   104857600 cpu:               0.0 elap:               0.0
 (Enter /home/zhouoh/g16/l103.exe)

 GradGradGradGradGradGradGradGradGradGradGradGradGradGradGradGradGradGrad
 Berny optimization.
 Using GEDIIS/GDIIS optimizer.
 FormGI is forming the generalized inverse of G from B-inverse, IUseBI=4.
 Internal  Forces:  Max     0.011391337 RMS     0.002152761
 Search for a local minimum.
 Step number   3 out of a maximum of   38 on scan point    15 out of    21
 All quantities printed in internal units (Hartrees-Bohrs-Radians)
 RMS Force = .21474D-05 SwitMx=.10000D-02 MixMth= 2
 Mixed Optimization -- En-DIIS/RFO-DIIS
 Swapping is turned off.
 Update second derivatives using D2CorX and points    1    2    3
 DE= -4.73D-07 DEPred=-4.68D-07 R= 1.01D+00
 Trust test= 1.01D+00 RLast= 6.98D-03 DXMaxT set to 2.26D-01
 ITU=  0  1  0
     Eigenvalues ---    0.00114   0.05281   0.07982   0.07982   0.07982
     Eigenvalues ---    0.07993   0.16000   0.16000   0.16000   0.16000
     Eigenvalues ---    0.17057   0.36850   0.37230   0.37230   0.37230
     Eigenvalues ---    0.37230   0.372361000.000001000.000001000.00000
     Eigenvalues --- 1000.000001000.000001000.000001000.000001000.00000
     Eigenvalues --- 1000.000001000.000001000.00000
 En-DIIS/RFO-DIIS/Sim-DIIS IScMMF=       -3 using points:     3    2
 RFO step:  Lambda=-1.60080425D-07.
 NNeg= 0 NGDIIS= 2 SimSw=  2.50D-03 Rises=F DC= -4.73D-07 SmlDif=  1.00D-05
 NRisDI= 0 DoIntr=F SqrtH=F CThrHd= 10.0 CDAdj=  3.0
 RMS Error=  0.9597425337D-03 NUsed= 2 OKEnD=F EnDIS=F
 InvSVX:  RCond= 1.22D-05 Info=           0 Equed=N FErr=  2.96D-15 BErr=  2.04D-17
 DidBck=F Rises=F RFO-DIIS coefs:    1.60847   -0.60847
 Iteration  1 RMS(Cart)=  0.00080221 RMS(Int)=  0.00000130
 Iteration  2 RMS(Cart)=  0.00000034 RMS(Int)=  0.00000125
 Iteration  1 RMS(Cart)=  0.00000001 RMS(Int)=  0.00000000
 ITry= 1 IFail=0 DXMaxC= 1.64D-03 DCOld= 1.00D+10 DXMaxT= 2.26D-01 DXLimC= 3.00D+00 Rises=F
 ClnCor:  largest displacement from symmetrization is 1.97D-04 for atom     7.
 Variable       Old X    -DE/DX   Delta X   Delta X   Delta X     New X
                                 (Linear)    (Quad)   (Total)
    R1        2.03665   0.00000   0.00001  -0.00000   0.00001   2.03666
    R2        2.03665   0.00000   0.00001   0.00000   0.00001   2.03666
    R3        2.03665   0.00000   0.00001   0.00000   0.00001   2.03666
    R4        5.55579  -0.01139   0.00000   0.00000  -0.00000   5.55579
    R5        2.03665   0.00000   0.00001  -0.00000   0.00001   2.03666
    R6        2.03665   0.00000   0.00001   0.00000   0.00001   2.03666
    R7        2.03665   0.00000   0.00001   0.00000   0.00001   2.03666
    A1        2.08572   0.00000   0.00025  -0.00023   0.00002   2.08574
    A2        2.08572   0.00000   0.00025  -0.00022   0.00002   2.08574
    A3        1.64170  -0.00000  -0.00100   0.00094  -0.00006   1.64164
    A4        2.08572   0.00000   0.00025  -0.00020   0.00002   2.08574
    A5        1.64170  -0.00000  -0.00100   0.00089  -0.00006   1.64164
    A6        1.64170  -0.00000  -0.00100   0.00084  -0.00006   1.64164
    A7        1.64170  -0.00000  -0.00100   0.00094  -0.00006   1.64164
    A8        1.64170  -0.00000  -0.00100   0.00084  -0.00006   1.64164
    A9        1.64170  -0.00000  -0.00100   0.00089  -0.00006   1.64164
   A10        2.08572   0.00000   0.00025  -0.00022   0.00002   2.08574
   A11        2.08572   0.00000   0.00025  -0.00023   0.00002   2.08574
   A12        2.08572   0.00000   0.00025  -0.00020   0.00002   2.08574
    D1        1.00586   0.00000   0.00114   0.00055   0.00168   1.00754
    D2        3.10025   0.00000   0.00114   0.00055   0.00168   3.10194
    D3       -1.08854   0.00000   0.00114   0.00055   0.00168  -1.08685
    D4       -1.08854   0.00000   0.00114   0.00055   0.00168  -1.08685
    D5        1.00586   0.00000   0.00114   0.00055   0.00168   1.00754
    D6        3.10025   0.00000   0.00114   0.00056   0.00168   3.10194
    D7        3.10025   0.00000   0.00114   0.00055   0.00168   3.10194
    D8       -1.08854   0.00000   0.00114   0.00055   0.00168  -1.08685
    D9        1.00586   0.00000   0.00114   0.00055   0.00168   1.00754
         Item               Value     Threshold  Converged?
 Maximum Force            0.000003     0.000450     YES
 RMS     Force            0.000002     0.000300     YES
 Maximum Displacement     0.001548     0.001800     YES
 RMS     Displacement     0.000794     0.001200     YES
 Predicted change in Energy=-1.389490D-08
 Optimization completed.
    -- Stationary point found.
                           ----------------------------
                           !   Optimized Parameters   !
                           ! (Angstroms and Degrees)  !
 --------------------------                            --------------------------
 ! Name  Definition              Value          Derivative Info.                !
 --------------------------------------------------------------------------------
 ! R1    R(1,2)                  1.0777         -DE/DX =    0.0                 !
 ! R2    R(1,3)                  1.0777         -DE/DX =    0.0                 !
 ! R3    R(1,4)                  1.0777         -DE/DX =    0.0                 !
 ! R4    R(1,5)                  2.94           -DE/DX =   -0.0114              !
 ! R5    R(5,6)                  1.0777         -DE/DX =    0.0                 !
 ! R6    R(5,7)                  1.0777         -DE/DX =    0.0                 !
 ! R7    R(5,8)                  1.0777         -DE/DX =    0.0                 !
 ! A1    A(2,1,3)              119.5032         -DE/DX =    0.0                 !
 ! A2    A(2,1,4)              119.5032         -DE/DX =    0.0                 !
 ! A3    A(2,1,5)               94.0624         -DE/DX =    0.0                 !
 ! A4    A(3,1,4)              119.5032         -DE/DX =    0.0                 !
 ! A5    A(3,1,5)               94.0624         -DE/DX =    0.0                 !
 ! A6    A(4,1,5)               94.0624         -DE/DX =    0.0                 !
 ! A7    A(1,5,6)               94.0624         -DE/DX =    0.0                 !
 ! A8    A(1,5,7)               94.0624         -DE/DX =    0.0                 !
 ! A9    A(1,5,8)               94.0624         -DE/DX =    0.0                 !
 ! A10   A(6,5,7)              119.5032         -DE/DX =    0.0                 !
 ! A11   A(6,5,8)              119.5032         -DE/DX =    0.0                 !
 ! A12   A(7,5,8)              119.5032         -DE/DX =    0.0                 !
 ! D1    D(2,1,5,6)             57.6315         -DE/DX =    0.0                 !
 ! D2    D(2,1,5,7)            177.6315         -DE/DX =    0.0                 !
 ! D3    D(2,1,5,8)            -62.3685         -DE/DX =    0.0                 !
 ! D4    D(3,1,5,6)            -62.3685         -DE/DX =    0.0                 !
 ! D5    D(3,1,5,7)             57.6315         -DE/DX =    0.0                 !
 ! D6    D(3,1,5,8)            177.6315         -DE/DX =    0.0                 !
 ! D7    D(4,1,5,6)            177.6315         -DE/DX =    0.0                 !
 ! D8    D(4,1,5,7)            -62.3685         -DE/DX =    0.0                 !
 ! D9    D(4,1,5,8)             57.6315         -DE/DX =    0.0                 !
 --------------------------------------------------------------------------------
 Iteration  1 RMS(Cart)=  0.05050505 RMS(Int)=  0.00000001
 Iteration  2 RMS(Cart)=  0.00000001 RMS(Int)=  0.00000000
 Iteration  1 RMS(Cart)=  0.00000000 RMS(Int)=  0.00000000
 GradGradGradGradGradGradGradGradGradGradGradGradGradGradGradGradGradGrad

 Leave Link  103 at Mon Oct  6 14:21:08 2025, MaxMem=   104857600 cpu:               0.0 elap:               0.0
 (Enter /home/zhouoh/g16/l202.exe)
                          Input orientation:                          
 ---------------------------------------------------------------------
 Center     Atomic      Atomic             Coordinates (Angstroms)
 Number     Number       Type             X           Y           Z
 ---------------------------------------------------------------------
      1          6           0       -2.166213   -0.435968   -0.612373
      2          1           0       -1.668408   -1.361798   -0.374510
      3          1           0       -1.701491    0.256342   -1.295228
      4          1           0       -3.205026   -0.310328   -0.354238
      5          6           0       -1.152862    0.997089    1.869778
      6          1           0       -0.114089    0.834540    1.632969
      7          1           0       -1.615843    1.935189    1.610613
      8          1           0       -1.652369    0.329418    2.552609
 ---------------------------------------------------------------------
                    Distance matrix (angstroms):
                    1          2          3          4          5
     1  C    0.000000
     2  H    1.077752   0.000000
     3  H    1.077752   1.862040   0.000000
     4  H    1.077752   1.862040   1.862040   0.000000
     5  C    3.040000   3.296507   3.296507   3.296507   0.000000
     6  H    3.296507   3.357049   3.380606   3.848844   1.077752
     7  H    3.296507   3.848844   3.357049   3.380606   1.077752
     8  H    3.296507   3.380606   3.848844   3.357049   1.077752
                    6          7          8
     6  H    0.000000
     7  H    1.862040   0.000000
     8  H    1.862040   1.862040   0.000000
 Stoichiometry    C2H6
 Framework group  D3[C3(C.C),X(H6)]
 Deg. of freedom     4
 Full point group                 D3      NOp   6
 RotChk:  IX=0 Diff= 5.38D-13
 Largest Abelian subgroup         C2      NOp   2
 Largest concise Abelian subgroup C2      NOp   2
                         Standard orientation:                         
 ---------------------------------------------------------------------
 Center     Atomic      Atomic             Coordinates (Angstroms)
 Number     Number       Type             X           Y           Z
 ---------------------------------------------------------------------
      1          6           0       -0.000000    0.000000    1.520000
      2          1           0       -0.518961    0.941494    1.596285
      3          1           0        1.074838   -0.021313    1.596285
      4          1           0       -0.555877   -0.920180    1.596285
      5          6           0        0.000000    0.000000   -1.520000
      6          1           0        0.518961    0.941494   -1.596285
      7          1           0        0.555877   -0.920180   -1.596285
      8          1           0       -1.074838   -0.021313   -1.596285
 ---------------------------------------------------------------------
 Rotational constants (GHZ):          72.3142878           6.7970861           6.7970861
 Leave Link  202 at Mon Oct  6 14:21:08 2025, MaxMem=   104857600 cpu:               0.0 elap:               0.0
 (Enter /home/zhouoh/g16/l301.exe)
 Standard basis: STO-3G (5D, 7F)
 Ernie: Thresh=  0.10000D-02 Tol=  0.10000D-05 Strict=F.
 There are     8 symmetry adapted cartesian basis functions of A   symmetry.
 There are     8 symmetry adapted cartesian basis functions of B   symmetry.
 There are     8 symmetry adapted basis functions of A   symmetry.
 There are     8 symmetry adapted basis functions of B   symmetry.
    16 basis functions,    48 primitive gaussians,    16 cartesian basis functions
     9 alpha electrons        9 beta electrons
       nuclear repulsion energy        32.7816755479 Hartrees.
 IExCor=    0 DFT=F Ex=HF Corr=None ExCW=0 ScaHFX=  1.000000
 ScaDFX=  1.000000  1.000000  1.000000  1.000000 ScalE2=  1.000000  1.000000
 IRadAn=      5 IRanWt=     -1 IRanGd=            0 ICorTp=0 IEmpDi=  4
 NAtoms=    8 NActive=    8 NUniq=    2 SFac= 4.00D+00 NAtFMM=   60 NAOKFM=F Big=F
 Integral buffers will be    131072 words long.
 Raffenetti 1 integral format.
 Two-electron integral symmetry is turned on.
 Leave Link  301 at Mon Oct  6 14:21:08 2025, MaxMem=   104857600 cpu:               0.0 elap:               0.0
 (Enter /home/zhouoh/g16/l402.exe)
 External calculation of energy and first derivatives.
 Running external command "python ../GauUMA_client.py R"
         input file       "/home/zhouoh/scratch/Gau-2811633.EIn"
         output file      "/home/zhouoh/scratch/Gau-2811633.EOu"
         message file     "/home/zhouoh/scratch/Gau-2811633.EMs"
         fchk file        "/home/zhouoh/scratch/Gau-2811633.EFC"
         mat. el file     "/home/zhouoh/scratch/Gau-2811633.EUF"
Sent job to server.
Received result from server:
SCF Done:  E(UMA) =  -79.64382274400774     A.U.
 Recovered energy= -79.6438227440     dipole=      0.000000000000      0.000000000000      0.000000000000
 Energy=    -79.6438227     NIter=   0.
 Dipole moment=       0.000000       0.000000       0.000000
 Leave Link  402 at Mon Oct  6 14:21:08 2025, MaxMem=   104857600 cpu:               0.0 elap:               0.1
 (Enter /home/zhouoh/g16/l716.exe)
 Dipole        = 0.00000000D+00 0.00000000D+00 0.00000000D+00
 ***** Axes restored to original set *****
 -------------------------------------------------------------------
 Center     Atomic                   Forces (Hartrees/Bohr)
 Number     Number              X              Y              Z
 -------------------------------------------------------------------
      1        6           0.002565548    0.003628117    0.006284178
      2        1           0.000164083    0.000159895    0.000362830
      3        1           0.000166179    0.000232784    0.000319888
      4        1           0.000096058    0.000210235    0.000361532
      5        6          -0.002565529   -0.003628128   -0.006284176
      6        1          -0.000096063   -0.000208078   -0.000362781
      7        1          -0.000166119   -0.000160611   -0.000361581
      8        1          -0.000164160   -0.000234212   -0.000319889
 -------------------------------------------------------------------
 Cartesian Forces:  Max     0.006284178 RMS     0.002232124
 Leave Link  716 at Mon Oct  6 14:21:08 2025, MaxMem=   104857600 cpu:               0.0 elap:               0.0
 (Enter /home/zhouoh/g16/l103.exe)

 GradGradGradGradGradGradGradGradGradGradGradGradGradGradGradGradGradGrad
 Berny optimization.
 FormGI is forming the generalized inverse of G from B-inverse, IUseBI=4.
 Internal  Forces:  Max     0.008975452 RMS     0.001741090
 Search for a local minimum.
 Step number   1 out of a maximum of   38 on scan point    16 out of    21
 All quantities printed in internal units (Hartrees-Bohrs-Radians)
 RMS Force = .40002D-03 SwitMx=.10000D-02 MixMth= 1
 Mixed Optimization -- RFO/linear search
 Second derivative matrix not updated -- first step.
 ITU=  0
     Eigenvalues ---    0.00114   0.05281   0.07982   0.07982   0.07982
     Eigenvalues ---    0.07993   0.16000   0.16000   0.16000   0.16000
     Eigenvalues ---    0.17057   0.36850   0.37230   0.37230   0.37230
     Eigenvalues ---    0.37230   0.372361000.000001000.000001000.00000
     Eigenvalues --- 1000.000001000.000001000.000001000.000001000.00000
     Eigenvalues --- 1000.000001000.000001000.00000
 RFO step:  Lambda=-8.49733488D-05 EMin= 1.13914938D-03
 Linear search not attempted -- first point.
 Iteration  1 RMS(Cart)=  0.01740838 RMS(Int)=  0.00026087
 Iteration  2 RMS(Cart)=  0.00017674 RMS(Int)=  0.00020196
 Iteration  3 RMS(Cart)=  0.00000011 RMS(Int)=  0.00020196
 Iteration  1 RMS(Cart)=  0.00000000 RMS(Int)=  0.00000000
 ITry= 1 IFail=0 DXMaxC= 3.66D-02 DCOld= 1.00D+10 DXMaxT= 2.26D-01 DXLimC= 3.00D+00 Rises=F
 ClnCor:  largest displacement from symmetrization is 2.00D-05 for atom     7.
 Variable       Old X    -DE/DX   Delta X   Delta X   Delta X     New X
                                 (Linear)    (Quad)   (Total)
    R1        2.03666   0.00002   0.00000  -0.00032  -0.00032   2.03633
    R2        2.03666   0.00002   0.00000  -0.00032  -0.00032   2.03633
    R3        2.03666   0.00002   0.00000  -0.00033  -0.00032   2.03633
    R4        5.74477  -0.00898   0.00000   0.00000  -0.00000   5.74477
    R5        2.03666   0.00002   0.00000  -0.00032  -0.00032   2.03633
    R6        2.03666   0.00002   0.00000  -0.00033  -0.00032   2.03633
    R7        2.03666   0.00002   0.00000  -0.00032  -0.00032   2.03633
    A1        2.08574   0.00020   0.00000   0.00394   0.00351   2.08925
    A2        2.08574   0.00020   0.00000   0.00394   0.00351   2.08925
    A3        1.64164  -0.00082   0.00000  -0.01619  -0.01627   1.62537
    A4        2.08574   0.00020   0.00000   0.00394   0.00351   2.08925
    A5        1.64164  -0.00082   0.00000  -0.01618  -0.01627   1.62537
    A6        1.64164  -0.00082   0.00000  -0.01618  -0.01627   1.62537
    A7        1.64164  -0.00082   0.00000  -0.01619  -0.01627   1.62537
    A8        1.64164  -0.00082   0.00000  -0.01618  -0.01627   1.62537
    A9        1.64164  -0.00082   0.00000  -0.01618  -0.01627   1.62537
   A10        2.08574   0.00020   0.00000   0.00394   0.00351   2.08925
   A11        2.08574   0.00020   0.00000   0.00394   0.00351   2.08925
   A12        2.08574   0.00020   0.00000   0.00394   0.00351   2.08925
    D1        1.00754   0.00000   0.00000   0.01783   0.01783   1.02537
    D2        3.10194   0.00000   0.00000   0.01783   0.01783   3.11977
    D3       -1.08685   0.00000   0.00000   0.01783   0.01783  -1.06902
    D4       -1.08685   0.00000   0.00000   0.01783   0.01783  -1.06902
    D5        1.00754   0.00000   0.00000   0.01783   0.01783   1.02537
    D6        3.10194   0.00000   0.00000   0.01783   0.01783   3.11977
    D7        3.10194   0.00000   0.00000   0.01783   0.01783   3.11977
    D8       -1.08685   0.00000   0.00000   0.01783   0.01783  -1.06902
    D9        1.00754   0.00000   0.00000   0.01783   0.01783   1.02537
         Item               Value     Threshold  Converged?
 Maximum Force            0.000824     0.000450     NO 
 RMS     Force            0.000400     0.000300     NO 
 Maximum Displacement     0.036648     0.001800     NO 
 RMS     Displacement     0.017480     0.001200     NO 
 Predicted change in Energy=-4.257115D-05
 GradGradGradGradGradGradGradGradGradGradGradGradGradGradGradGradGradGrad

 Leave Link  103 at Mon Oct  6 14:21:08 2025, MaxMem=   104857600 cpu:               0.0 elap:               0.0
 (Enter /home/zhouoh/g16/l202.exe)
                          Input orientation:                          
 ---------------------------------------------------------------------
 Center     Atomic      Atomic             Coordinates (Angstroms)
 Number     Number       Type             X           Y           Z
 ---------------------------------------------------------------------
      1          6           0       -2.166213   -0.435968   -0.612373
      2          1           0       -1.669887   -1.357197   -0.355121
      3          1           0       -1.687336    0.259777   -1.281549
      4          1           0       -3.200195   -0.293606   -0.344423
      5          6           0       -1.152862    0.997089    1.869778
      6          1           0       -0.118902    0.834397    1.613575
      7          1           0       -1.630006    1.925077    1.600792
      8          1           0       -1.650900    0.314915    2.538941
 ---------------------------------------------------------------------
                    Distance matrix (angstroms):
                    1          2          3          4          5
     1  C    0.000000
     2  H    1.077582   0.000000
     3  H    1.077582   1.863647   0.000000
     4  H    1.077582   1.863647   1.863647   0.000000
     5  C    3.040000   3.280267   3.280267   3.280267   0.000000
     6  H    3.280267   3.329325   3.342442   3.821062   1.077582
     7  H    3.280267   3.821062   3.329325   3.342442   1.077582
     8  H    3.280267   3.342442   3.821062   3.329325   1.077582
                    6          7          8
     6  H    0.000000
     7  H    1.863647   0.000000
     8  H    1.863647   1.863647   0.000000
 Stoichiometry    C2H6
 Framework group  D3[C3(C.C),X(H6)]
 Deg. of freedom     4
 Full point group                 D3      NOp   6
 RotChk:  IX=0 Diff= 6.88D-16
 Largest Abelian subgroup         C2      NOp   2
 Largest concise Abelian subgroup C2      NOp   2
                         Standard orientation:                         
 ---------------------------------------------------------------------
 Center     Atomic      Atomic             Coordinates (Angstroms)
 Number     Number       Type             X           Y           Z
 ---------------------------------------------------------------------
      1          6           0        0.000000   -0.000000    1.520000
      2          1           0       -0.527789    0.937638    1.578778
      3          1           0        1.075913   -0.011740    1.578778
      4          1           0       -0.548124   -0.925898    1.578778
      5          6           0       -0.000000    0.000000   -1.520000
      6          1           0        0.527789    0.937638   -1.578778
      7          1           0        0.548124   -0.925898   -1.578778
      8          1           0       -1.075913   -0.011740   -1.578778
 ---------------------------------------------------------------------
 Rotational constants (GHZ):          72.1895842           6.8273960           6.8273960
 Leave Link  202 at Mon Oct  6 14:21:08 2025, MaxMem=   104857600 cpu:               0.0 elap:               0.0
 (Enter /home/zhouoh/g16/l301.exe)
 Standard basis: STO-3G (5D, 7F)
 Ernie: Thresh=  0.10000D-02 Tol=  0.10000D-05 Strict=F.
 There are     8 symmetry adapted cartesian basis functions of A   symmetry.
 There are     8 symmetry adapted cartesian basis functions of B   symmetry.
 There are     8 symmetry adapted basis functions of A   symmetry.
 There are     8 symmetry adapted basis functions of B   symmetry.
    16 basis functions,    48 primitive gaussians,    16 cartesian basis functions
     9 alpha electrons        9 beta electrons
       nuclear repulsion energy        32.8239157261 Hartrees.
 IExCor=    0 DFT=F Ex=HF Corr=None ExCW=0 ScaHFX=  1.000000
 ScaDFX=  1.000000  1.000000  1.000000  1.000000 ScalE2=  1.000000  1.000000
 IRadAn=      5 IRanWt=     -1 IRanGd=            0 ICorTp=0 IEmpDi=  4
 NAtoms=    8 NActive=    8 NUniq=    2 SFac= 4.00D+00 NAtFMM=   60 NAOKFM=F Big=F
 Integral buffers will be    131072 words long.
 Raffenetti 1 integral format.
 Two-electron integral symmetry is turned on.
 Leave Link  301 at Mon Oct  6 14:21:08 2025, MaxMem=   104857600 cpu:               0.0 elap:               0.0
 (Enter /home/zhouoh/g16/l402.exe)
 External calculation of energy and first derivatives.
 Running external command "python ../GauUMA_client.py R"
         input file       "/home/zhouoh/scratch/Gau-2811633.EIn"
         output file      "/home/zhouoh/scratch/Gau-2811633.EOu"
         message file     "/home/zhouoh/scratch/Gau-2811633.EMs"
         fchk file        "/home/zhouoh/scratch/Gau-2811633.EFC"
         mat. el file     "/home/zhouoh/scratch/Gau-2811633.EUF"
Sent job to server.
Received result from server:
SCF Done:  E(UMA) =  -79.64386733240659     A.U.
 Recovered energy= -79.6438673324     dipole=      0.000000000000      0.000000000000      0.000000000000
 Energy=    -79.6438673     NIter=   0.
 Dipole moment=       0.000000       0.000000       0.000000
 Leave Link  402 at Mon Oct  6 14:21:08 2025, MaxMem=   104857600 cpu:               0.0 elap:               0.1
 (Enter /home/zhouoh/g16/l716.exe)
 Dipole        = 0.00000000D+00 0.00000000D+00 0.00000000D+00
 ***** Axes restored to original set *****
 -------------------------------------------------------------------
 Center     Atomic                   Forces (Hartrees/Bohr)
 Number     Number              X              Y              Z
 -------------------------------------------------------------------
      1        6           0.002842934    0.004020395    0.006963594
      2        1           0.000015153   -0.000005698    0.000024156
      3        1           0.000017349    0.000022208    0.000007143
      4        1          -0.000010429    0.000014721    0.000022797
      5        6          -0.002842919   -0.004020400   -0.006963592
      6        1           0.000010423   -0.000012420   -0.000024140
      7        1          -0.000017325    0.000004937   -0.000022817
      8        1          -0.000015186   -0.000023741   -0.000007141
 -------------------------------------------------------------------
 Cartesian Forces:  Max     0.006963594 RMS     0.002462045
 Leave Link  716 at Mon Oct  6 14:21:08 2025, MaxMem=   104857600 cpu:               0.0 elap:               0.0
 (Enter /home/zhouoh/g16/l103.exe)

 GradGradGradGradGradGradGradGradGradGradGradGradGradGradGradGradGradGrad
 Berny optimization.
 Using GEDIIS/GDIIS optimizer.
 FormGI is forming the generalized inverse of G from B-inverse, IUseBI=4.
 Internal  Forces:  Max     0.008594876 RMS     0.001624440
 Search for a local minimum.
 Step number   2 out of a maximum of   38 on scan point    16 out of    21
 All quantities printed in internal units (Hartrees-Bohrs-Radians)
 RMS Force = .23310D-04 SwitMx=.10000D-02 MixMth= 2
 Mixed Optimization -- En-DIIS/RFO-DIIS
 Update second derivatives using D2CorX and points    1    2
 DE= -4.46D-05 DEPred=-4.26D-05 R= 1.05D+00
 TightC=F SS=  1.41D+00  RLast= 6.73D-02 DXNew= 3.7959D-01 2.0178D-01
 Trust test= 1.05D+00 RLast= 6.73D-02 DXMaxT set to 2.26D-01
 ITU=  1  0
 Use linear search instead of GDIIS.
     Eigenvalues ---    0.00114   0.05016   0.08037   0.08037   0.08037
     Eigenvalues ---    0.08052   0.16000   0.16000   0.16000   0.16000
     Eigenvalues ---    0.17044   0.36841   0.37230   0.37230   0.37230
     Eigenvalues ---    0.37230   0.372361000.000001000.000001000.00000
     Eigenvalues --- 1000.000001000.000001000.000001000.000001000.00000
     Eigenvalues --- 1000.000001000.000001000.00000
 RFO step:  Lambda=-1.92156009D-08 EMin= 1.13875639D-03
 Quartic linear search produced a step of  0.06026.
 Iteration  1 RMS(Cart)=  0.00140141 RMS(Int)=  0.00001314
 Iteration  2 RMS(Cart)=  0.00000106 RMS(Int)=  0.00001310
 Iteration  3 RMS(Cart)=  0.00000000 RMS(Int)=  0.00001310
 Iteration  1 RMS(Cart)=  0.00000001 RMS(Int)=  0.00000000
 ITry= 1 IFail=0 DXMaxC= 2.96D-03 DCOld= 1.00D+10 DXMaxT= 2.26D-01 DXLimC= 3.00D+00 Rises=F
 ClnCor:  largest displacement from symmetrization is 1.39D-04 for atom     7.
 Variable       Old X    -DE/DX   Delta X   Delta X   Delta X     New X
                                 (Linear)    (Quad)   (Total)
    R1        2.03633   0.00002  -0.00002   0.00005   0.00003   2.03636
    R2        2.03633   0.00002  -0.00002   0.00005   0.00003   2.03636
    R3        2.03633   0.00002  -0.00002   0.00005   0.00003   2.03636
    R4        5.74477  -0.00859  -0.00000   0.00000   0.00000   5.74477
    R5        2.03633   0.00002  -0.00002   0.00005   0.00003   2.03636
    R6        2.03633   0.00002  -0.00002   0.00005   0.00003   2.03636
    R7        2.03633   0.00002  -0.00002   0.00005   0.00003   2.03636
    A1        2.08925   0.00001   0.00021  -0.00001   0.00018   2.08943
    A2        2.08925   0.00001   0.00021   0.00000   0.00018   2.08943
    A3        1.62537  -0.00005  -0.00098   0.00003  -0.00095   1.62442
    A4        2.08925   0.00001   0.00021   0.00001   0.00018   2.08943
    A5        1.62537  -0.00005  -0.00098  -0.00000  -0.00095   1.62442
    A6        1.62537  -0.00005  -0.00098  -0.00003  -0.00095   1.62442
    A7        1.62537  -0.00005  -0.00098   0.00003  -0.00095   1.62442
    A8        1.62537  -0.00005  -0.00098  -0.00003  -0.00095   1.62442
    A9        1.62537  -0.00005  -0.00098  -0.00000  -0.00095   1.62442
   A10        2.08925   0.00001   0.00021   0.00000   0.00018   2.08943
   A11        2.08925   0.00001   0.00021  -0.00001   0.00018   2.08943
   A12        2.08925   0.00001   0.00021   0.00001   0.00018   2.08943
    D1        1.02537   0.00000   0.00107   0.00115   0.00222   1.02760
    D2        3.11977   0.00000   0.00107   0.00115   0.00222   3.12199
    D3       -1.06902   0.00000   0.00107   0.00116   0.00222  -1.06680
    D4       -1.06902   0.00000   0.00107   0.00116   0.00222  -1.06680
    D5        1.02537   0.00000   0.00107   0.00116   0.00222   1.02760
    D6        3.11977   0.00000   0.00107   0.00116   0.00222   3.12199
    D7        3.11977   0.00000   0.00107   0.00115   0.00222   3.12199
    D8       -1.06902   0.00000   0.00107   0.00115   0.00222  -1.06680
    D9        1.02537   0.00000   0.00107   0.00116   0.00222   1.02760
         Item               Value     Threshold  Converged?
 Maximum Force            0.000045     0.000450     YES
 RMS     Force            0.000023     0.000300     YES
 Maximum Displacement     0.002895     0.001800     NO 
 RMS     Displacement     0.001379     0.001200     NO 
 Predicted change in Energy=-1.458379D-07
 GradGradGradGradGradGradGradGradGradGradGradGradGradGradGradGradGradGrad

 Leave Link  103 at Mon Oct  6 14:21:08 2025, MaxMem=   104857600 cpu:               0.0 elap:               0.0
 (Enter /home/zhouoh/g16/l202.exe)
                          Input orientation:                          
 ---------------------------------------------------------------------
 Center     Atomic      Atomic             Coordinates (Angstroms)
 Number     Number       Type             X           Y           Z
 ---------------------------------------------------------------------
      1          6           0       -2.166213   -0.435968   -0.612373
      2          1           0       -1.670484   -1.357128   -0.353663
      3          1           0       -1.685980    0.259624   -1.280760
      4          1           0       -3.199930   -0.292075   -0.344162
      5          6           0       -1.152862    0.997089    1.869778
      6          1           0       -0.119164    0.834936    1.612117
      7          1           0       -1.631363    1.924319    1.600530
      8          1           0       -1.650305    0.313687    2.538154
 ---------------------------------------------------------------------
                    Distance matrix (angstroms):
                    1          2          3          4          5
     1  C    0.000000
     2  H    1.077596   0.000000
     3  H    1.077596   1.863769   0.000000
     4  H    1.077596   1.863769   1.863769   0.000000
     5  C    3.040000   3.279323   3.279323   3.279323   0.000000
     6  H    3.279323   3.328067   3.339856   3.819463   1.077596
     7  H    3.279323   3.819463   3.328067   3.339856   1.077596
     8  H    3.279323   3.339856   3.819463   3.328067   1.077596
                    6          7          8
     6  H    0.000000
     7  H    1.863769   0.000000
     8  H    1.863769   1.863769   0.000000
 Stoichiometry    C2H6
 Framework group  D3[C3(C.C),X(H6)]
 Deg. of freedom     4
 Full point group                 D3      NOp   6
 RotChk:  IX=0 Diff= 4.33D-16
 Largest Abelian subgroup         C2      NOp   2
 Largest concise Abelian subgroup C2      NOp   2
                         Standard orientation:                         
 ---------------------------------------------------------------------
 Center     Atomic      Atomic             Coordinates (Angstroms)
 Number     Number       Type             X           Y           Z
 ---------------------------------------------------------------------
      1          6           0       -0.000000    0.000000    1.520000
      2          1           0       -0.528866    0.937112    1.577754
      3          1           0        1.075996   -0.010544    1.577754
      4          1           0       -0.547130   -0.926568    1.577754
      5          6           0        0.000000    0.000000   -1.520000
      6          1           0        0.528866    0.937112   -1.577754
      7          1           0        0.547130   -0.926568   -1.577754
      8          1           0       -1.075996   -0.010544   -1.577754
 ---------------------------------------------------------------------
 Rotational constants (GHZ):          72.1801762           6.8291566           6.8291566
 Leave Link  202 at Mon Oct  6 14:21:08 2025, MaxMem=   104857600 cpu:               0.0 elap:               0.0
 (Enter /home/zhouoh/g16/l301.exe)
 Standard basis: STO-3G (5D, 7F)
 Ernie: Thresh=  0.10000D-02 Tol=  0.10000D-05 Strict=F.
 There are     8 symmetry adapted cartesian basis functions of A   symmetry.
 There are     8 symmetry adapted cartesian basis functions of B   symmetry.
 There are     8 symmetry adapted basis functions of A   symmetry.
 There are     8 symmetry adapted basis functions of B   symmetry.
    16 basis functions,    48 primitive gaussians,    16 cartesian basis functions
     9 alpha electrons        9 beta electrons
       nuclear repulsion energy        32.8259578257 Hartrees.
 IExCor=    0 DFT=F Ex=HF Corr=None ExCW=0 ScaHFX=  1.000000
 ScaDFX=  1.000000  1.000000  1.000000  1.000000 ScalE2=  1.000000  1.000000
 IRadAn=      5 IRanWt=     -1 IRanGd=            0 ICorTp=0 IEmpDi=  4
 NAtoms=    8 NActive=    8 NUniq=    2 SFac= 4.00D+00 NAtFMM=   60 NAOKFM=F Big=F
 Integral buffers will be    131072 words long.
 Raffenetti 1 integral format.
 Two-electron integral symmetry is turned on.
 Leave Link  301 at Mon Oct  6 14:21:08 2025, MaxMem=   104857600 cpu:               0.0 elap:               0.0
 (Enter /home/zhouoh/g16/l402.exe)
 External calculation of energy and first derivatives.
 Running external command "python ../GauUMA_client.py R"
         input file       "/home/zhouoh/scratch/Gau-2811633.EIn"
         output file      "/home/zhouoh/scratch/Gau-2811633.EOu"
         message file     "/home/zhouoh/scratch/Gau-2811633.EMs"
         fchk file        "/home/zhouoh/scratch/Gau-2811633.EFC"
         mat. el file     "/home/zhouoh/scratch/Gau-2811633.EUF"
Sent job to server.
Received result from server:
SCF Done:  E(UMA) =  -79.64386747259412     A.U.
 Recovered energy= -79.6438674726     dipole=      0.000000000000      0.000000000000      0.000000000000
 Energy=    -79.6438675     NIter=   0.
 Dipole moment=       0.000000       0.000000       0.000000
 Leave Link  402 at Mon Oct  6 14:21:08 2025, MaxMem=   104857600 cpu:               0.0 elap:               0.1
 (Enter /home/zhouoh/g16/l716.exe)
 Dipole        = 0.00000000D+00 0.00000000D+00 0.00000000D+00
 ***** Axes restored to original set *****
 -------------------------------------------------------------------
 Center     Atomic                   Forces (Hartrees/Bohr)
 Number     Number              X              Y              Z
 -------------------------------------------------------------------
      1        6           0.002857489    0.004040992    0.006999256
      2        1          -0.000000608   -0.000001347    0.000001057
      3        1           0.000001698   -0.000000040   -0.000000632
      4        1          -0.000001065    0.000001425   -0.000000343
      5        6          -0.002857491   -0.004040991   -0.006999254
      6        1           0.000001069    0.000001017   -0.000001055
      7        1          -0.000001697    0.000000535    0.000000339
      8        1           0.000000601   -0.000001591    0.000000634
 -------------------------------------------------------------------
 Cartesian Forces:  Max     0.006999256 RMS     0.002474612
 Leave Link  716 at Mon Oct  6 14:21:08 2025, MaxMem=   104857600 cpu:               0.0 elap:               0.0
 (Enter /home/zhouoh/g16/l103.exe)

 GradGradGradGradGradGradGradGradGradGradGradGradGradGradGradGradGradGrad
 Berny optimization.
 Using GEDIIS/GDIIS optimizer.
 FormGI is forming the generalized inverse of G from B-inverse, IUseBI=4.
 Internal  Forces:  Max     0.008572400 RMS     0.001620032
 Search for a local minimum.
 Step number   3 out of a maximum of   38 on scan point    16 out of    21
 All quantities printed in internal units (Hartrees-Bohrs-Radians)
 RMS Force = .77300D-06 SwitMx=.10000D-02 MixMth= 2
 Mixed Optimization -- En-DIIS/RFO-DIIS
 Swapping is turned off.
 Update second derivatives using D2CorX and points    1    2    3
 DE= -1.40D-07 DEPred=-1.46D-07 R= 9.61D-01
 Trust test= 9.61D-01 RLast= 7.08D-03 DXMaxT set to 2.26D-01
 ITU=  0  1  0
     Eigenvalues ---    0.00096   0.05546   0.08040   0.08040   0.08040
     Eigenvalues ---    0.08058   0.16000   0.16000   0.16000   0.16000
     Eigenvalues ---    0.17043   0.36915   0.37230   0.37230   0.37230
     Eigenvalues ---    0.37230   0.372381000.000001000.000001000.00000
     Eigenvalues --- 1000.000001000.000001000.000001000.000001000.00000
     Eigenvalues --- 1000.000001000.000001000.00000
 En-DIIS/RFO-DIIS/Sim-DIIS IScMMF=       -3 using points:     3    2
 RFO step:  Lambda=-7.36704132D-08.
 NNeg= 0 NGDIIS= 2 SimSw=  2.50D-03 Rises=F DC= -1.40D-07 SmlDif=  1.00D-05
 NRisDI= 0 DoIntr=F SqrtH=F CThrHd= 10.0 CDAdj=  3.0
 RMS Error=  0.5727384612D-03 NUsed= 2 OKEnD=F EnDIS=F
 InvSVX:  RCond= 1.25D-05 Info=           0 Equed=N FErr=  1.96D-15 BErr=  1.19D-17
 DidBck=F Rises=F RFO-DIIS coefs:    1.41063   -0.41063
 Iteration  1 RMS(Cart)=  0.00047946 RMS(Int)=  0.00000032
 Iteration  2 RMS(Cart)=  0.00000012 RMS(Int)=  0.00000029
 Iteration  1 RMS(Cart)=  0.00000000 RMS(Int)=  0.00000000
 ITry= 1 IFail=0 DXMaxC= 9.80D-04 DCOld= 1.00D+10 DXMaxT= 2.26D-01 DXLimC= 3.00D+00 Rises=F
 ClnCor:  largest displacement from symmetrization is 1.02D-04 for atom     4.
 Variable       Old X    -DE/DX   Delta X   Delta X   Delta X     New X
                                 (Linear)    (Quad)   (Total)
    R1        2.03636   0.00000   0.00001  -0.00001   0.00000   2.03636
    R2        2.03636   0.00000   0.00001  -0.00001   0.00000   2.03636
    R3        2.03636   0.00000   0.00001  -0.00001   0.00000   2.03636
    R4        5.74477  -0.00857   0.00000   0.00000   0.00000   5.74477
    R5        2.03636   0.00000   0.00001  -0.00001   0.00000   2.03636
    R6        2.03636   0.00000   0.00001  -0.00001   0.00000   2.03636
    R7        2.03636   0.00000   0.00001  -0.00001   0.00000   2.03636
    A1        2.08943   0.00000   0.00007  -0.00007   0.00001   2.08944
    A2        2.08943   0.00000   0.00007  -0.00006   0.00001   2.08944
    A3        1.62442  -0.00000  -0.00039   0.00035  -0.00004   1.62437
    A4        2.08943   0.00000   0.00007  -0.00005   0.00001   2.08944
    A5        1.62442  -0.00000  -0.00039   0.00032  -0.00004   1.62437
    A6        1.62442  -0.00000  -0.00039   0.00030  -0.00004   1.62437
    A7        1.62442  -0.00000  -0.00039   0.00035  -0.00004   1.62437
    A8        1.62442  -0.00000  -0.00039   0.00030  -0.00004   1.62437
    A9        1.62442  -0.00000  -0.00039   0.00032  -0.00004   1.62437
   A10        2.08943   0.00000   0.00007  -0.00006   0.00001   2.08944
   A11        2.08943   0.00000   0.00007  -0.00007   0.00001   2.08944
   A12        2.08943   0.00000   0.00007  -0.00005   0.00001   2.08944
    D1        1.02760   0.00000   0.00091   0.00009   0.00101   1.02860
    D2        3.12199   0.00000   0.00091   0.00009   0.00101   3.12300
    D3       -1.06680   0.00000   0.00091   0.00010   0.00101  -1.06579
    D4       -1.06680   0.00000   0.00091   0.00010   0.00101  -1.06579
    D5        1.02760   0.00000   0.00091   0.00010   0.00101   1.02860
    D6        3.12199   0.00000   0.00091   0.00010   0.00101   3.12300
    D7        3.12199   0.00000   0.00091   0.00009   0.00101   3.12300
    D8       -1.06680   0.00000   0.00091   0.00009   0.00101  -1.06579
    D9        1.02760   0.00000   0.00091   0.00010   0.00101   1.02860
         Item               Value     Threshold  Converged?
 Maximum Force            0.000001     0.000450     YES
 RMS     Force            0.000001     0.000300     YES
 Maximum Displacement     0.000930     0.001800     YES
 RMS     Displacement     0.000475     0.001200     YES
 Predicted change in Energy=-3.919777D-09
 Optimization completed.
    -- Stationary point found.
                           ----------------------------
                           !   Optimized Parameters   !
                           ! (Angstroms and Degrees)  !
 --------------------------                            --------------------------
 ! Name  Definition              Value          Derivative Info.                !
 --------------------------------------------------------------------------------
 ! R1    R(1,2)                  1.0776         -DE/DX =    0.0                 !
 ! R2    R(1,3)                  1.0776         -DE/DX =    0.0                 !
 ! R3    R(1,4)                  1.0776         -DE/DX =    0.0                 !
 ! R4    R(1,5)                  3.04           -DE/DX =   -0.0086              !
 ! R5    R(5,6)                  1.0776         -DE/DX =    0.0                 !
 ! R6    R(5,7)                  1.0776         -DE/DX =    0.0                 !
 ! R7    R(5,8)                  1.0776         -DE/DX =    0.0                 !
 ! A1    A(2,1,3)              119.7153         -DE/DX =    0.0                 !
 ! A2    A(2,1,4)              119.7153         -DE/DX =    0.0                 !
 ! A3    A(2,1,5)               93.0723         -DE/DX =    0.0                 !
 ! A4    A(3,1,4)              119.7153         -DE/DX =    0.0                 !
 ! A5    A(3,1,5)               93.0723         -DE/DX =    0.0                 !
 ! A6    A(4,1,5)               93.0723         -DE/DX =    0.0                 !
 ! A7    A(1,5,6)               93.0723         -DE/DX =    0.0                 !
 ! A8    A(1,5,7)               93.0723         -DE/DX =    0.0                 !
 ! A9    A(1,5,8)               93.0723         -DE/DX =    0.0                 !
 ! A10   A(6,5,7)              119.7153         -DE/DX =    0.0                 !
 ! A11   A(6,5,8)              119.7153         -DE/DX =    0.0                 !
 ! A12   A(7,5,8)              119.7153         -DE/DX =    0.0                 !
 ! D1    D(2,1,5,6)             58.8771         -DE/DX =    0.0                 !
 ! D2    D(2,1,5,7)            178.8771         -DE/DX =    0.0                 !
 ! D3    D(2,1,5,8)            -61.1229         -DE/DX =    0.0                 !
 ! D4    D(3,1,5,6)            -61.1229         -DE/DX =    0.0                 !
 ! D5    D(3,1,5,7)             58.8771         -DE/DX =    0.0                 !
 ! D6    D(3,1,5,8)            178.8771         -DE/DX =    0.0                 !
 ! D7    D(4,1,5,6)            178.8771         -DE/DX =    0.0                 !
 ! D8    D(4,1,5,7)            -61.1229         -DE/DX =    0.0                 !
 ! D9    D(4,1,5,8)             58.8771         -DE/DX =    0.0                 !
 --------------------------------------------------------------------------------
 Iteration  1 RMS(Cart)=  0.05050506 RMS(Int)=  0.00000002
 Iteration  2 RMS(Cart)=  0.00000002 RMS(Int)=  0.00000000
 Iteration  1 RMS(Cart)=  0.00000000 RMS(Int)=  0.00000000
 GradGradGradGradGradGradGradGradGradGradGradGradGradGradGradGradGradGrad

 Leave Link  103 at Mon Oct  6 14:21:08 2025, MaxMem=   104857600 cpu:               0.0 elap:               0.0
 (Enter /home/zhouoh/g16/l202.exe)
                          Input orientation:                          
 ---------------------------------------------------------------------
 Center     Atomic      Atomic             Coordinates (Angstroms)
 Number     Number       Type             X           Y           Z
 ---------------------------------------------------------------------
      1          6           0       -2.182880   -0.459538   -0.653197
      2          1           0       -1.687573   -1.380839   -0.394177
      3          1           0       -1.702185    0.235769   -1.321552
      4          1           0       -3.216590   -0.315152   -0.385216
      5          6           0       -1.136195    1.020659    1.910602
      6          1           0       -0.102504    0.858950    1.652630
      7          1           0       -1.615158    1.947719    1.641584
      8          1           0       -1.633216    0.336916    2.578946
 ---------------------------------------------------------------------
                    Distance matrix (angstroms):
                    1          2          3          4          5
     1  C    0.000000
     2  H    1.077598   0.000000
     3  H    1.077598   1.863776   0.000000
     4  H    1.077598   1.863776   1.863776   0.000000
     5  C    3.140000   3.373902   3.373902   3.373902   0.000000
     6  H    3.373902   3.423232   3.434107   3.902418   1.077598
     7  H    3.373902   3.902418   3.423232   3.434107   1.077598
     8  H    3.373902   3.434107   3.902418   3.423232   1.077598
                    6          7          8
     6  H    0.000000
     7  H    1.863776   0.000000
     8  H    1.863776   1.863776   0.000000
 Stoichiometry    C2H6
 Framework group  D3[C3(C.C),X(H6)]
 Deg. of freedom     4
 Full point group                 D3      NOp   6
 RotChk:  IX=0 Diff= 7.15D-13
 Largest Abelian subgroup         C2      NOp   2
 Largest concise Abelian subgroup C2      NOp   2
                         Standard orientation:                         
 ---------------------------------------------------------------------
 Center     Atomic      Atomic             Coordinates (Angstroms)
 Number     Number       Type             X           Y           Z
 ---------------------------------------------------------------------
      1          6           0        0.000000   -0.000000    1.570000
      2          1           0       -0.529339    0.936849    1.627707
      3          1           0        1.076005   -0.010003    1.627707
      4          1           0       -0.546666   -0.926846    1.627707
      5          6           0        0.000000   -0.000000   -1.570000
      6          1           0        0.529339    0.936849   -1.627707
      7          1           0        0.546666   -0.926846   -1.627707
      8          1           0       -1.076005   -0.010003   -1.627707
 ---------------------------------------------------------------------
 Rotational constants (GHZ):          72.1796317           6.4232687           6.4232687
 Leave Link  202 at Mon Oct  6 14:21:08 2025, MaxMem=   104857600 cpu:               0.0 elap:               0.0
 (Enter /home/zhouoh/g16/l301.exe)
 Standard basis: STO-3G (5D, 7F)
 Ernie: Thresh=  0.10000D-02 Tol=  0.10000D-05 Strict=F.
 There are     8 symmetry adapted cartesian basis functions of A   symmetry.
 There are     8 symmetry adapted cartesian basis functions of B   symmetry.
 There are     8 symmetry adapted basis functions of A   symmetry.
 There are     8 symmetry adapted basis functions of B   symmetry.
    16 basis functions,    48 primitive gaussians,    16 cartesian basis functions
     9 alpha electrons        9 beta electrons
       nuclear repulsion energy        32.4283635063 Hartrees.
 IExCor=    0 DFT=F Ex=HF Corr=None ExCW=0 ScaHFX=  1.000000
 ScaDFX=  1.000000  1.000000  1.000000  1.000000 ScalE2=  1.000000  1.000000
 IRadAn=      5 IRanWt=     -1 IRanGd=            0 ICorTp=0 IEmpDi=  4
 NAtoms=    8 NActive=    8 NUniq=    2 SFac= 4.00D+00 NAtFMM=   60 NAOKFM=F Big=F
 Integral buffers will be    131072 words long.
 Raffenetti 1 integral format.
 Two-electron integral symmetry is turned on.
 Leave Link  301 at Mon Oct  6 14:21:08 2025, MaxMem=   104857600 cpu:               0.0 elap:               0.0
 (Enter /home/zhouoh/g16/l402.exe)
 External calculation of energy and first derivatives.
 Running external command "python ../GauUMA_client.py R"
         input file       "/home/zhouoh/scratch/Gau-2811633.EIn"
         output file      "/home/zhouoh/scratch/Gau-2811633.EOu"
         message file     "/home/zhouoh/scratch/Gau-2811633.EMs"
         fchk file        "/home/zhouoh/scratch/Gau-2811633.EFC"
         mat. el file     "/home/zhouoh/scratch/Gau-2811633.EUF"
Sent job to server.
Received result from server:
SCF Done:  E(UMA) =  -79.64241065245943     A.U.
 Recovered energy= -79.6424106525     dipole=      0.000000000000      0.000000000000      0.000000000000
 Energy=    -79.6424107     NIter=   0.
 Dipole moment=       0.000000       0.000000       0.000000
 Leave Link  402 at Mon Oct  6 14:21:08 2025, MaxMem=   104857600 cpu:               0.0 elap:               0.1
 (Enter /home/zhouoh/g16/l716.exe)
 Dipole        = 0.00000000D+00 0.00000000D+00 0.00000000D+00
 ***** Axes restored to original set *****
 -------------------------------------------------------------------
 Center     Atomic                   Forces (Hartrees/Bohr)
 Number     Number              X              Y              Z
 -------------------------------------------------------------------
      1        6           0.002006192    0.002837090    0.004914046
      2        1           0.000114820    0.000119786    0.000258591
      3        1           0.000116387    0.000162940    0.000233024
      4        1           0.000074661    0.000149842    0.000257607
      5        6          -0.002006173   -0.002837100   -0.004914046
      6        1          -0.000074666   -0.000148232   -0.000258565
      7        1          -0.000116344   -0.000120314   -0.000257636
      8        1          -0.000114876   -0.000164013   -0.000233023
 -------------------------------------------------------------------
 Cartesian Forces:  Max     0.004914046 RMS     0.001744155
 Leave Link  716 at Mon Oct  6 14:21:08 2025, MaxMem=   104857600 cpu:               0.0 elap:               0.0
 (Enter /home/zhouoh/g16/l103.exe)

 GradGradGradGradGradGradGradGradGradGradGradGradGradGradGradGradGradGrad
 Berny optimization.
 FormGI is forming the generalized inverse of G from B-inverse, IUseBI=4.
 Internal  Forces:  Max     0.006936058 RMS     0.001341337
 Search for a local minimum.
 Step number   1 out of a maximum of   38 on scan point    17 out of    21
 All quantities printed in internal units (Hartrees-Bohrs-Radians)
 RMS Force = .28985D-03 SwitMx=.10000D-02 MixMth= 1
 Mixed Optimization -- RFO/linear search
 Second derivative matrix not updated -- first step.
 ITU=  0
     Eigenvalues ---    0.00096   0.05546   0.08040   0.08040   0.08040
     Eigenvalues ---    0.08058   0.16000   0.16000   0.16000   0.16000
     Eigenvalues ---    0.17042   0.36915   0.37230   0.37230   0.37230
     Eigenvalues ---    0.37230   0.372381000.000001000.000001000.00000
     Eigenvalues --- 1000.000001000.000001000.000001000.000001000.00000
     Eigenvalues --- 1000.000001000.000001000.00000
 RFO step:  Lambda=-4.77609235D-05 EMin= 9.59905702D-04
 Linear search not attempted -- first point.
 Iteration  1 RMS(Cart)=  0.01775135 RMS(Int)=  0.00021026
 Iteration  2 RMS(Cart)=  0.00017033 RMS(Int)=  0.00012618
 Iteration  3 RMS(Cart)=  0.00000003 RMS(Int)=  0.00012618
 Iteration  1 RMS(Cart)=  0.00000000 RMS(Int)=  0.00000000
 ITry= 1 IFail=0 DXMaxC= 3.69D-02 DCOld= 1.00D+10 DXMaxT= 2.26D-01 DXLimC= 3.00D+00 Rises=F
 ClnCor:  largest displacement from symmetrization is 9.82D-05 for atom     7.
 Variable       Old X    -DE/DX   Delta X   Delta X   Delta X     New X
                                 (Linear)    (Quad)   (Total)
    R1        2.03636   0.00001   0.00000  -0.00020  -0.00020   2.03617
    R2        2.03636   0.00001   0.00000  -0.00020  -0.00020   2.03617
    R3        2.03636   0.00001   0.00000  -0.00020  -0.00020   2.03617
    R4        5.93374  -0.00694   0.00000   0.00000   0.00000   5.93374
    R5        2.03636   0.00001   0.00000  -0.00020  -0.00020   2.03617
    R6        2.03636   0.00001   0.00000  -0.00020  -0.00020   2.03617
    R7        2.03636   0.00001   0.00000  -0.00020  -0.00020   2.03617
    A1        2.08944   0.00011   0.00000   0.00235   0.00208   2.09151
    A2        2.08944   0.00011   0.00000   0.00234   0.00208   2.09151
    A3        1.62437  -0.00060   0.00000  -0.01271  -0.01275   1.61163
    A4        2.08944   0.00011   0.00000   0.00234   0.00208   2.09151
    A5        1.62437  -0.00060   0.00000  -0.01268  -0.01275   1.61163
    A6        1.62437  -0.00060   0.00000  -0.01266  -0.01275   1.61163
    A7        1.62437  -0.00060   0.00000  -0.01271  -0.01275   1.61163
    A8        1.62437  -0.00060   0.00000  -0.01266  -0.01275   1.61163
    A9        1.62437  -0.00060   0.00000  -0.01268  -0.01275   1.61163
   A10        2.08944   0.00011   0.00000   0.00234   0.00208   2.09151
   A11        2.08944   0.00011   0.00000   0.00235   0.00208   2.09151
   A12        2.08944   0.00011   0.00000   0.00234   0.00208   2.09151
    D1        1.02860   0.00000   0.00000   0.02788   0.02788   1.05648
    D2        3.12300   0.00000   0.00000   0.02788   0.02788  -3.13231
    D3       -1.06579   0.00000   0.00000   0.02788   0.02788  -1.03791
    D4       -1.06579   0.00000   0.00000   0.02788   0.02788  -1.03791
    D5        1.02860   0.00000   0.00000   0.02788   0.02788   1.05648
    D6        3.12300   0.00000   0.00000   0.02787   0.02788  -3.13231
    D7        3.12300   0.00000   0.00000   0.02788   0.02788  -3.13231
    D8       -1.06579   0.00000   0.00000   0.02788   0.02788  -1.03791
    D9        1.02860   0.00000   0.00000   0.02788   0.02788   1.05648
         Item               Value     Threshold  Converged?
 Maximum Force            0.000605     0.000450     NO 
 RMS     Force            0.000290     0.000300     YES
 Maximum Displacement     0.036957     0.001800     NO 
 RMS     Displacement     0.017794     0.001200     NO 
 Predicted change in Energy=-2.402382D-05
 GradGradGradGradGradGradGradGradGradGradGradGradGradGradGradGradGradGrad

 Leave Link  103 at Mon Oct  6 14:21:08 2025, MaxMem=   104857600 cpu:               0.0 elap:               0.0
 (Enter /home/zhouoh/g16/l202.exe)
                          Input orientation:                          
 ---------------------------------------------------------------------
 Center     Atomic      Atomic             Coordinates (Angstroms)
 Number     Number       Type             X           Y           Z
 ---------------------------------------------------------------------
      1          6           0       -2.182880   -0.459538   -0.653198
      2          1           0       -1.694982   -1.379171   -0.375307
      3          1           0       -1.685094    0.233953   -1.310672
      4          1           0       -3.212547   -0.295596   -0.381349
      5          6           0       -1.136195    1.020659    1.910602
      6          1           0       -0.106519    0.865374    1.633752
      7          1           0       -1.632262    1.937414    1.637708
      8          1           0       -1.625822    0.321389    2.568083
 ---------------------------------------------------------------------
                    Distance matrix (angstroms):
                    1          2          3          4          5
     1  C    0.000000
     2  H    1.077494   0.000000
     3  H    1.077494   1.864719   0.000000
     4  H    1.077494   1.864719   1.864719   0.000000
     5  C    3.140000   3.361072   3.361072   3.361072   0.000000
     6  H    3.361072   3.405512   3.400033   3.880193   1.077494
     7  H    3.361072   3.880193   3.405512   3.400033   1.077494
     8  H    3.361072   3.400033   3.880193   3.405512   1.077494
                    6          7          8
     6  H    0.000000
     7  H    1.864719   0.000000
     8  H    1.864719   1.864719   0.000000
 Stoichiometry    C2H6
 Framework group  D3[C3(C.C),X(H6)]
 Deg. of freedom     4
 Full point group                 D3      NOp   6
 RotChk:  IX=0 Diff= 1.41D+00
 Largest Abelian subgroup         C2      NOp   2
 Largest concise Abelian subgroup C2      NOp   2
                         Standard orientation:                         
 ---------------------------------------------------------------------
 Center     Atomic      Atomic             Coordinates (Angstroms)
 Number     Number       Type             X           Y           Z
 ---------------------------------------------------------------------
      1          6           0        0.000000   -0.000000    1.570000
      2          1           0        0.533963    0.934849    1.613983
      3          1           0        0.542622   -0.929850    1.613983
      4          1           0       -1.076584   -0.004999    1.613983
      5          6           0        0.000000   -0.000000   -1.570000
      6          1           0        1.076584   -0.004999   -1.613983
      7          1           0       -0.542622   -0.929850   -1.613983
      8          1           0       -0.533963    0.934849   -1.613983
 ---------------------------------------------------------------------
 Rotational constants (GHZ):          72.1066335           6.4450152           6.4450152
 Leave Link  202 at Mon Oct  6 14:21:08 2025, MaxMem=   104857600 cpu:               0.0 elap:               0.0
 (Enter /home/zhouoh/g16/l301.exe)
 Standard basis: STO-3G (5D, 7F)
 Ernie: Thresh=  0.10000D-02 Tol=  0.10000D-05 Strict=F.
 There are     8 symmetry adapted cartesian basis functions of A   symmetry.
 There are     8 symmetry adapted cartesian basis functions of B   symmetry.
 There are     8 symmetry adapted basis functions of A   symmetry.
 There are     8 symmetry adapted basis functions of B   symmetry.
    16 basis functions,    48 primitive gaussians,    16 cartesian basis functions
     9 alpha electrons        9 beta electrons
       nuclear repulsion energy        32.4601321784 Hartrees.
 IExCor=    0 DFT=F Ex=HF Corr=None ExCW=0 ScaHFX=  1.000000
 ScaDFX=  1.000000  1.000000  1.000000  1.000000 ScalE2=  1.000000  1.000000
 IRadAn=      5 IRanWt=     -1 IRanGd=            0 ICorTp=0 IEmpDi=  4
 NAtoms=    8 NActive=    8 NUniq=    2 SFac= 4.00D+00 NAtFMM=   60 NAOKFM=F Big=F
 Integral buffers will be    131072 words long.
 Raffenetti 1 integral format.
 Two-electron integral symmetry is turned on.
 Leave Link  301 at Mon Oct  6 14:21:08 2025, MaxMem=   104857600 cpu:               0.0 elap:               0.0
 (Enter /home/zhouoh/g16/l402.exe)
 External calculation of energy and first derivatives.
 Running external command "python ../GauUMA_client.py R"
         input file       "/home/zhouoh/scratch/Gau-2811633.EIn"
         output file      "/home/zhouoh/scratch/Gau-2811633.EOu"
         message file     "/home/zhouoh/scratch/Gau-2811633.EMs"
         fchk file        "/home/zhouoh/scratch/Gau-2811633.EFC"
         mat. el file     "/home/zhouoh/scratch/Gau-2811633.EUF"
Sent job to server.
Received result from server:
SCF Done:  E(UMA) =  -79.64243545689196     A.U.
 Recovered energy= -79.6424354569     dipole=      0.000000000000      0.000000000000      0.000000000000
 Energy=    -79.6424355     NIter=   0.
 Dipole moment=       0.000000       0.000000       0.000000
 Leave Link  402 at Mon Oct  6 14:21:08 2025, MaxMem=   104857600 cpu:               0.0 elap:               0.1
 (Enter /home/zhouoh/g16/l716.exe)
 Dipole        = 0.00000000D+00 0.00000000D+00 0.00000000D+00
 ***** Axes restored to original set *****
 -------------------------------------------------------------------
 Center     Atomic                   Forces (Hartrees/Bohr)
 Number     Number              X              Y              Z
 -------------------------------------------------------------------
      1        6           0.002229296    0.003152755    0.005460808
      2        1           0.000010798   -0.000006863    0.000013978
      3        1           0.000011098    0.000015397    0.000001123
      4        1          -0.000009977    0.000008186    0.000013834
      5        6          -0.002229300   -0.003152773   -0.005460795
      6        1           0.000009977   -0.000007914   -0.000013993
      7        1          -0.000011074    0.000006727   -0.000013906
      8        1          -0.000010821   -0.000015515   -0.000001051
 -------------------------------------------------------------------
 Cartesian Forces:  Max     0.005460808 RMS     0.001930698
 Leave Link  716 at Mon Oct  6 14:21:08 2025, MaxMem=   104857600 cpu:               0.0 elap:               0.0
 (Enter /home/zhouoh/g16/l103.exe)

 GradGradGradGradGradGradGradGradGradGradGradGradGradGradGradGradGradGrad
 Berny optimization.
 Using GEDIIS/GDIIS optimizer.
 FormGI is forming the generalized inverse of G from B-inverse, IUseBI=4.
 Internal  Forces:  Max     0.006723534 RMS     0.001270699
 Search for a local minimum.
 Step number   2 out of a maximum of   38 on scan point    17 out of    21
 All quantities printed in internal units (Hartrees-Bohrs-Radians)
 RMS Force = .13601D-04 SwitMx=.10000D-02 MixMth= 2
 Mixed Optimization -- En-DIIS/RFO-DIIS
 Update second derivatives using D2CorX and points    1    2
 DE= -2.48D-05 DEPred=-2.40D-05 R= 1.03D+00
 TightC=F SS=  1.41D+00  RLast= 8.94D-02 DXNew= 3.7959D-01 2.6827D-01
 Trust test= 1.03D+00 RLast= 8.94D-02 DXMaxT set to 2.68D-01
 ITU=  1  0
 Use linear search instead of GDIIS.
     Eigenvalues ---    0.00097   0.05325   0.08073   0.08073   0.08073
     Eigenvalues ---    0.08095   0.16000   0.16000   0.16000   0.16000
     Eigenvalues ---    0.17026   0.36905   0.37230   0.37230   0.37230
     Eigenvalues ---    0.37230   0.372381000.000001000.000001000.00000
     Eigenvalues --- 1000.000001000.000001000.000001000.000001000.00000
     Eigenvalues --- 1000.000001000.000001000.00000
 RFO step:  Lambda= 0.00000000D+00 EMin= 9.66555509D-04
 Quartic linear search produced a step of  0.04261.
 Iteration  1 RMS(Cart)=  0.00079558 RMS(Int)=  0.00000568
 Iteration  2 RMS(Cart)=  0.00000034 RMS(Int)=  0.00000567
 Iteration  1 RMS(Cart)=  0.00000005 RMS(Int)=  0.00000000
 ITry= 1 IFail=0 DXMaxC= 1.67D-03 DCOld= 1.00D+10 DXMaxT= 2.68D-01 DXLimC= 3.00D+00 Rises=F
 ClnCor:  largest displacement from symmetrization is 7.27D-06 for atom     7.
 Variable       Old X    -DE/DX   Delta X   Delta X   Delta X     New X
                                 (Linear)    (Quad)   (Total)
    R1        2.03617   0.00001  -0.00001   0.00004   0.00003   2.03620
    R2        2.03617   0.00001  -0.00001   0.00004   0.00003   2.03620
    R3        2.03617   0.00001  -0.00001   0.00004   0.00003   2.03620
    R4        5.93374  -0.00672   0.00000   0.00000  -0.00000   5.93374
    R5        2.03617   0.00001  -0.00001   0.00004   0.00003   2.03620
    R6        2.03617   0.00001  -0.00001   0.00004   0.00003   2.03620
    R7        2.03617   0.00001  -0.00001   0.00004   0.00003   2.03620
    A1        2.09151   0.00000   0.00009  -0.00000   0.00008   2.09159
    A2        2.09151   0.00000   0.00009   0.00000   0.00008   2.09159
    A3        1.61163  -0.00002  -0.00054   0.00000  -0.00054   1.61108
    A4        2.09151   0.00000   0.00009   0.00000   0.00008   2.09159
    A5        1.61163  -0.00002  -0.00054  -0.00000  -0.00054   1.61108
    A6        1.61163  -0.00002  -0.00054  -0.00000  -0.00054   1.61108
    A7        1.61163  -0.00002  -0.00054   0.00000  -0.00054   1.61108
    A8        1.61163  -0.00002  -0.00054  -0.00000  -0.00054   1.61108
    A9        1.61163  -0.00002  -0.00054   0.00000  -0.00054   1.61108
   A10        2.09151   0.00000   0.00009   0.00000   0.00008   2.09159
   A11        2.09151   0.00000   0.00009  -0.00000   0.00008   2.09159
   A12        2.09151   0.00000   0.00009   0.00000   0.00008   2.09159
    D1        1.05648   0.00000   0.00119   0.00010   0.00129   1.05777
    D2       -3.13231   0.00000   0.00119   0.00010   0.00129  -3.13102
    D3       -1.03791   0.00000   0.00119   0.00010   0.00129  -1.03662
    D4       -1.03791   0.00000   0.00119   0.00010   0.00129  -1.03662
    D5        1.05648   0.00000   0.00119   0.00010   0.00129   1.05777
    D6       -3.13231   0.00000   0.00119   0.00010   0.00129  -3.13102
    D7       -3.13231   0.00000   0.00119   0.00010   0.00129  -3.13102
    D8       -1.03791   0.00000   0.00119   0.00010   0.00129  -1.03662
    D9        1.05648   0.00000   0.00119   0.00010   0.00129   1.05777
         Item               Value     Threshold  Converged?
 Maximum Force            0.000025     0.000450     YES
 RMS     Force            0.000014     0.000300     YES
 Maximum Displacement     0.001668     0.001800     YES
 RMS     Displacement     0.000794     0.001200     YES
 Predicted change in Energy=-4.387526D-08
 Optimization completed.
    -- Stationary point found.
                           ----------------------------
                           !   Optimized Parameters   !
                           ! (Angstroms and Degrees)  !
 --------------------------                            --------------------------
 ! Name  Definition              Value          Derivative Info.                !
 --------------------------------------------------------------------------------
 ! R1    R(1,2)                  1.0775         -DE/DX =    0.0                 !
 ! R2    R(1,3)                  1.0775         -DE/DX =    0.0                 !
 ! R3    R(1,4)                  1.0775         -DE/DX =    0.0                 !
 ! R4    R(1,5)                  3.14           -DE/DX =   -0.0067              !
 ! R5    R(5,6)                  1.0775         -DE/DX =    0.0                 !
 ! R6    R(5,7)                  1.0775         -DE/DX =    0.0                 !
 ! R7    R(5,8)                  1.0775         -DE/DX =    0.0                 !
 ! A1    A(2,1,3)              119.8348         -DE/DX =    0.0                 !
 ! A2    A(2,1,4)              119.8348         -DE/DX =    0.0                 !
 ! A3    A(2,1,5)               92.3394         -DE/DX =    0.0                 !
 ! A4    A(3,1,4)              119.8348         -DE/DX =    0.0                 !
 ! A5    A(3,1,5)               92.3394         -DE/DX =    0.0                 !
 ! A6    A(4,1,5)               92.3394         -DE/DX =    0.0                 !
 ! A7    A(1,5,6)               92.3394         -DE/DX =    0.0                 !
 ! A8    A(1,5,7)               92.3394         -DE/DX =    0.0                 !
 ! A9    A(1,5,8)               92.3394         -DE/DX =    0.0                 !
 ! A10   A(6,5,7)              119.8348         -DE/DX =    0.0                 !
 ! A11   A(6,5,8)              119.8348         -DE/DX =    0.0                 !
 ! A12   A(7,5,8)              119.8348         -DE/DX =    0.0                 !
 ! D1    D(2,1,5,6)             60.5321         -DE/DX =    0.0                 !
 ! D2    D(2,1,5,7)           -179.4679         -DE/DX =    0.0                 !
 ! D3    D(2,1,5,8)            -59.4679         -DE/DX =    0.0                 !
 ! D4    D(3,1,5,6)            -59.4679         -DE/DX =    0.0                 !
 ! D5    D(3,1,5,7)             60.5321         -DE/DX =    0.0                 !
 ! D6    D(3,1,5,8)           -179.4679         -DE/DX =    0.0                 !
 ! D7    D(4,1,5,6)           -179.4679         -DE/DX =    0.0                 !
 ! D8    D(4,1,5,7)            -59.4679         -DE/DX =    0.0                 !
 ! D9    D(4,1,5,8)             60.5321         -DE/DX =    0.0                 !
 --------------------------------------------------------------------------------
 Iteration  1 RMS(Cart)=  0.05050501 RMS(Int)=  0.00000001
 Iteration  2 RMS(Cart)=  0.00000001 RMS(Int)=  0.00000000
 Iteration  1 RMS(Cart)=  0.00000005 RMS(Int)=  0.00000000
 GradGradGradGradGradGradGradGradGradGradGradGradGradGradGradGradGradGrad

 Leave Link  103 at Mon Oct  6 14:21:08 2025, MaxMem=   104857600 cpu:               0.0 elap:               0.0
 (Enter /home/zhouoh/g16/l202.exe)
                          Input orientation:                          
 ---------------------------------------------------------------------
 Center     Atomic      Atomic             Coordinates (Angstroms)
 Number     Number       Type             X           Y           Z
 ---------------------------------------------------------------------
      1          6           0       -2.199547   -0.483108   -0.694022
      2          1           0       -1.712004   -1.402696   -0.415297
      3          1           0       -1.700982    0.210282   -1.351041
      4          1           0       -3.229054   -0.318283   -0.422033
      5          6           0       -1.119528    1.044229    1.951427
      6          1           0       -0.090011    0.889263    1.673742
      7          1           0       -1.616374    1.960539    1.678392
      8          1           0       -1.608801    0.344257    2.608452
 ---------------------------------------------------------------------
                    Distance matrix (angstroms):
                    1          2          3          4          5
     1  C    0.000000
     2  H    1.077511   0.000000
     3  H    1.077511   1.864789   0.000000
     4  H    1.077511   1.864789   1.864789   0.000000
     5  C    3.240000   3.455409   3.455409   3.455409   0.000000
     6  H    3.455409   3.499717   3.493644   3.962831   1.077511
     7  H    3.455409   3.962831   3.499717   3.493644   1.077511
     8  H    3.455409   3.493644   3.962831   3.499717   1.077511
                    6          7          8
     6  H    0.000000
     7  H    1.864789   0.000000
     8  H    1.864789   1.864789   0.000000
 Stoichiometry    C2H6
 Framework group  D3[C3(C.C),X(H6)]
 Deg. of freedom     4
 Full point group                 D3      NOp   6
 RotChk:  IX=0 Diff= 3.69D-13
 Largest Abelian subgroup         C2      NOp   2
 Largest concise Abelian subgroup C2      NOp   2
                         Standard orientation:                         
 ---------------------------------------------------------------------
 Center     Atomic      Atomic             Coordinates (Angstroms)
 Number     Number       Type             X           Y           Z
 ---------------------------------------------------------------------
      1          6           0       -0.000000    0.000000    1.620000
      2          1           0        0.533380    0.935228    1.663398
      3          1           0        0.543241   -0.929535    1.663398
      4          1           0       -1.076621   -0.005693    1.663398
      5          6           0        0.000000    0.000000   -1.620000
      6          1           0        1.076621   -0.005693   -1.663398
      7          1           0       -0.543241   -0.929535   -1.663398
      8          1           0       -0.533380    0.935228   -1.663398
 ---------------------------------------------------------------------
 Rotational constants (GHZ):          72.1012542           6.0726966           6.0726966
 Leave Link  202 at Mon Oct  6 14:21:08 2025, MaxMem=   104857600 cpu:               0.0 elap:               0.0
 (Enter /home/zhouoh/g16/l301.exe)
 Standard basis: STO-3G (5D, 7F)
 Ernie: Thresh=  0.10000D-02 Tol=  0.10000D-05 Strict=F.
 There are     8 symmetry adapted cartesian basis functions of A   symmetry.
 There are     8 symmetry adapted cartesian basis functions of B   symmetry.
 There are     8 symmetry adapted basis functions of A   symmetry.
 There are     8 symmetry adapted basis functions of B   symmetry.
    16 basis functions,    48 primitive gaussians,    16 cartesian basis functions
     9 alpha electrons        9 beta electrons
       nuclear repulsion energy        32.0842142226 Hartrees.
 IExCor=    0 DFT=F Ex=HF Corr=None ExCW=0 ScaHFX=  1.000000
 ScaDFX=  1.000000  1.000000  1.000000  1.000000 ScalE2=  1.000000  1.000000
 IRadAn=      5 IRanWt=     -1 IRanGd=            0 ICorTp=0 IEmpDi=  4
 NAtoms=    8 NActive=    8 NUniq=    2 SFac= 4.00D+00 NAtFMM=   60 NAOKFM=F Big=F
 Integral buffers will be    131072 words long.
 Raffenetti 1 integral format.
 Two-electron integral symmetry is turned on.
 Leave Link  301 at Mon Oct  6 14:21:08 2025, MaxMem=   104857600 cpu:               0.0 elap:               0.0
 (Enter /home/zhouoh/g16/l402.exe)
 External calculation of energy and first derivatives.
 Running external command "python ../GauUMA_client.py R"
         input file       "/home/zhouoh/scratch/Gau-2811633.EIn"
         output file      "/home/zhouoh/scratch/Gau-2811633.EOu"
         message file     "/home/zhouoh/scratch/Gau-2811633.EMs"
         fchk file        "/home/zhouoh/scratch/Gau-2811633.EFC"
         mat. el file     "/home/zhouoh/scratch/Gau-2811633.EUF"
Sent job to server.
Received result from server:
SCF Done:  E(UMA) =  -79.64127730630727     A.U.
 Recovered energy= -79.6412773063     dipole=      0.000000000000      0.000000000000      0.000000000000
 Energy=    -79.6412773     NIter=   0.
 Dipole moment=       0.000000       0.000000       0.000000
 Leave Link  402 at Mon Oct  6 14:21:09 2025, MaxMem=   104857600 cpu:               0.0 elap:               0.1
 (Enter /home/zhouoh/g16/l716.exe)
 Dipole        = 0.00000000D+00 0.00000000D+00 0.00000000D+00
 ***** Axes restored to original set *****
 -------------------------------------------------------------------
 Center     Atomic                   Forces (Hartrees/Bohr)
 Number     Number              X              Y              Z
 -------------------------------------------------------------------
      1        6           0.001649696    0.002333091    0.004041078
      2        1           0.000081245    0.000086729    0.000183299
      3        1           0.000081694    0.000115030    0.000166726
      4        1           0.000054758    0.000105972    0.000182981
      5        6          -0.001649691   -0.002333092   -0.004041073
      6        1          -0.000054755   -0.000105512   -0.000183250
      7        1          -0.000081665   -0.000086861   -0.000182999
      8        1          -0.000081282   -0.000115358   -0.000166761
 -------------------------------------------------------------------
 Cartesian Forces:  Max     0.004041078 RMS     0.001432894
 Leave Link  716 at Mon Oct  6 14:21:09 2025, MaxMem=   104857600 cpu:               0.0 elap:               0.0
 (Enter /home/zhouoh/g16/l103.exe)

 GradGradGradGradGradGradGradGradGradGradGradGradGradGradGradGradGradGrad
 Berny optimization.
 FormGI is forming the generalized inverse of G from B-inverse, IUseBI=4.
 Internal  Forces:  Max     0.005602084 RMS     0.001078124
 Search for a local minimum.
 Step number   1 out of a maximum of   38 on scan point    18 out of    21
 All quantities printed in internal units (Hartrees-Bohrs-Radians)
 RMS Force = .20750D-03 SwitMx=.10000D-02 MixMth= 1
 Mixed Optimization -- RFO/linear search
 Second derivative matrix not updated -- first step.
 ITU=  0
     Eigenvalues ---    0.00097   0.05325   0.08074   0.08074   0.08074
     Eigenvalues ---    0.08097   0.16000   0.16000   0.16000   0.16000
     Eigenvalues ---    0.17026   0.36905   0.37230   0.37230   0.37230
     Eigenvalues ---    0.37230   0.372381000.000001000.000001000.00000
     Eigenvalues --- 1000.000001000.000001000.000001000.000001000.00000
     Eigenvalues --- 1000.000001000.000001000.00000
 RFO step:  Lambda=-2.52592412D-05 EMin= 9.66579839D-04
 Linear search not attempted -- first point.
 Iteration  1 RMS(Cart)=  0.01291692 RMS(Int)=  0.00011375
 Iteration  2 RMS(Cart)=  0.00008962 RMS(Int)=  0.00007102
 Iteration  3 RMS(Cart)=  0.00000001 RMS(Int)=  0.00007102
 Iteration  1 RMS(Cart)=  0.00000000 RMS(Int)=  0.00000000
 ITry= 1 IFail=0 DXMaxC= 2.66D-02 DCOld= 1.00D+10 DXMaxT= 2.68D-01 DXLimC= 3.00D+00 Rises=F
 ClnCor:  largest displacement from symmetrization is 1.04D-04 for atom     4.
 Variable       Old X    -DE/DX   Delta X   Delta X   Delta X     New X
                                 (Linear)    (Quad)   (Total)
    R1        2.03620   0.00001   0.00000  -0.00011  -0.00011   2.03609
    R2        2.03620   0.00001   0.00000  -0.00011  -0.00011   2.03609
    R3        2.03620   0.00001   0.00000  -0.00011  -0.00011   2.03609
    R4        6.12271  -0.00560   0.00000   0.00000  -0.00000   6.12271
    R5        2.03620   0.00001   0.00000  -0.00011  -0.00011   2.03609
    R6        2.03620   0.00001   0.00000  -0.00011  -0.00011   2.03609
    R7        2.03620   0.00001   0.00000  -0.00011  -0.00011   2.03609
    A1        2.09159   0.00006   0.00000   0.00133   0.00117   2.09276
    A2        2.09159   0.00006   0.00000   0.00132   0.00117   2.09276
    A3        1.61108  -0.00044   0.00000  -0.00950  -0.00951   1.60157
    A4        2.09159   0.00006   0.00000   0.00131   0.00117   2.09276
    A5        1.61108  -0.00044   0.00000  -0.00947  -0.00951   1.60157
    A6        1.61108  -0.00044   0.00000  -0.00945  -0.00951   1.60157
    A7        1.61108  -0.00044   0.00000  -0.00950  -0.00951   1.60157
    A8        1.61108  -0.00044   0.00000  -0.00945  -0.00951   1.60157
    A9        1.61108  -0.00044   0.00000  -0.00947  -0.00951   1.60157
   A10        2.09159   0.00006   0.00000   0.00132   0.00117   2.09276
   A11        2.09159   0.00006   0.00000   0.00133   0.00117   2.09276
   A12        2.09159   0.00006   0.00000   0.00131   0.00117   2.09276
    D1        1.05777   0.00000   0.00000   0.01983   0.01983   1.07760
    D2       -3.13102   0.00000   0.00000   0.01983   0.01983  -3.11119
    D3       -1.03662   0.00000   0.00000   0.01982   0.01983  -1.01679
    D4       -1.03662   0.00000   0.00000   0.01982   0.01983  -1.01679
    D5        1.05777   0.00000   0.00000   0.01982   0.01983   1.07760
    D6       -3.13102   0.00000   0.00000   0.01982   0.01983  -3.11119
    D7       -3.13102   0.00000   0.00000   0.01983   0.01983  -3.11119
    D8       -1.03662   0.00000   0.00000   0.01983   0.01983  -1.01679
    D9        1.05777   0.00000   0.00000   0.01982   0.01983   1.07760
         Item               Value     Threshold  Converged?
 Maximum Force            0.000436     0.000450     YES
 RMS     Force            0.000207     0.000300     YES
 Maximum Displacement     0.026660     0.001800     NO 
 RMS     Displacement     0.012946     0.001200     NO 
 Predicted change in Energy=-1.265609D-05
 GradGradGradGradGradGradGradGradGradGradGradGradGradGradGradGradGradGrad

 Leave Link  103 at Mon Oct  6 14:21:09 2025, MaxMem=   104857600 cpu:               0.0 elap:               0.0
 (Enter /home/zhouoh/g16/l202.exe)
                          Input orientation:                          
 ---------------------------------------------------------------------
 Center     Atomic      Atomic             Coordinates (Angstroms)
 Number     Number       Type             X           Y           Z
 ---------------------------------------------------------------------
      1          6           0       -2.199547   -0.483108   -0.694022
      2          1           0       -1.717219   -1.401105   -0.401539
      3          1           0       -1.688761    0.209071   -1.342784
      4          1           0       -3.225815   -0.304175   -0.418953
      5          6           0       -1.119528    1.044229    1.951427
      6          1           0       -0.093230    0.893646    1.659978
      7          1           0       -1.628605    1.952801    1.675305
      8          1           0       -1.603596    0.333125    2.600207
 ---------------------------------------------------------------------
                    Distance matrix (angstroms):
                    1          2          3          4          5
     1  C    0.000000
     2  H    1.077453   0.000000
     3  H    1.077453   1.865320   0.000000
     4  H    1.077453   1.865320   1.865320   0.000000
     5  C    3.240000   3.445771   3.445771   3.445771   0.000000
     6  H    3.445771   3.486126   3.468564   3.945861   1.077453
     7  H    3.445771   3.945861   3.486126   3.468564   1.077453
     8  H    3.445771   3.468564   3.945861   3.486126   1.077453
                    6          7          8
     6  H    0.000000
     7  H    1.865320   0.000000
     8  H    1.865320   1.865320   0.000000
 Stoichiometry    C2H6
 Framework group  D3[C3(C.C),X(H6)]
 Deg. of freedom     4
 Full point group                 D3      NOp   6
 RotChk:  IX=0 Diff= 1.35D-15
 Largest Abelian subgroup         C2      NOp   2
 Largest concise Abelian subgroup C2      NOp   2
                         Standard orientation:                         
 ---------------------------------------------------------------------
 Center     Atomic      Atomic             Coordinates (Angstroms)
 Number     Number       Type             X           Y           Z
 ---------------------------------------------------------------------
      1          6           0       -0.000000   -0.000000    1.620000
      2          1           0        0.524232    0.940738    1.653153
      3          1           0        0.552587   -0.924367    1.653153
      4          1           0       -1.076819   -0.016371    1.653153
      5          6           0        0.000000   -0.000000   -1.620000
      6          1           0        1.076819   -0.016371   -1.653153
      7          1           0       -0.552587   -0.924367   -1.653153
      8          1           0       -0.524232    0.940738   -1.653153
 ---------------------------------------------------------------------
 Rotational constants (GHZ):          72.0601602           6.0875797           6.0875797
 Leave Link  202 at Mon Oct  6 14:21:09 2025, MaxMem=   104857600 cpu:               0.0 elap:               0.0
 (Enter /home/zhouoh/g16/l301.exe)
 Standard basis: STO-3G (5D, 7F)
 Ernie: Thresh=  0.10000D-02 Tol=  0.10000D-05 Strict=F.
 There are     8 symmetry adapted cartesian basis functions of A   symmetry.
 There are     8 symmetry adapted cartesian basis functions of B   symmetry.
 There are     8 symmetry adapted basis functions of A   symmetry.
 There are     8 symmetry adapted basis functions of B   symmetry.
    16 basis functions,    48 primitive gaussians,    16 cartesian basis functions
     9 alpha electrons        9 beta electrons
       nuclear repulsion energy        32.1068641612 Hartrees.
 IExCor=    0 DFT=F Ex=HF Corr=None ExCW=0 ScaHFX=  1.000000
 ScaDFX=  1.000000  1.000000  1.000000  1.000000 ScalE2=  1.000000  1.000000
 IRadAn=      5 IRanWt=     -1 IRanGd=            0 ICorTp=0 IEmpDi=  4
 NAtoms=    8 NActive=    8 NUniq=    2 SFac= 4.00D+00 NAtFMM=   60 NAOKFM=F Big=F
 Integral buffers will be    131072 words long.
 Raffenetti 1 integral format.
 Two-electron integral symmetry is turned on.
 Leave Link  301 at Mon Oct  6 14:21:09 2025, MaxMem=   104857600 cpu:               0.0 elap:               0.0
 (Enter /home/zhouoh/g16/l402.exe)
 External calculation of energy and first derivatives.
 Running external command "python ../GauUMA_client.py R"
         input file       "/home/zhouoh/scratch/Gau-2811633.EIn"
         output file      "/home/zhouoh/scratch/Gau-2811633.EOu"
         message file     "/home/zhouoh/scratch/Gau-2811633.EMs"
         fchk file        "/home/zhouoh/scratch/Gau-2811633.EFC"
         mat. el file     "/home/zhouoh/scratch/Gau-2811633.EUF"
Sent job to server.
Received result from server:
SCF Done:  E(UMA) =  -79.64129042260382     A.U.
 Recovered energy= -79.6412904226     dipole=      0.000000000000      0.000000000000      0.000000000000
 Energy=    -79.6412904     NIter=   0.
 Dipole moment=       0.000000       0.000000       0.000000
 Leave Link  402 at Mon Oct  6 14:21:09 2025, MaxMem=   104857600 cpu:               0.0 elap:               0.1
 (Enter /home/zhouoh/g16/l716.exe)
 Dipole        = 0.00000000D+00 0.00000000D+00 0.00000000D+00
 ***** Axes restored to original set *****
 -------------------------------------------------------------------
 Center     Atomic                   Forces (Hartrees/Bohr)
 Number     Number              X              Y              Z
 -------------------------------------------------------------------
      1        6           0.001821860    0.002576294    0.004462467
      2        1           0.000008100   -0.000005050    0.000009660
      3        1           0.000007602    0.000011324    0.000000401
      4        1          -0.000007544    0.000005399    0.000010007
      5        6          -0.001821863   -0.002576423   -0.004462387
      6        1           0.000007544   -0.000005985   -0.000009670
      7        1          -0.000007581    0.000005315   -0.000010016
      8        1          -0.000008117   -0.000010875   -0.000000460
 -------------------------------------------------------------------
 Cartesian Forces:  Max     0.004462467 RMS     0.001577726
 Leave Link  716 at Mon Oct  6 14:21:09 2025, MaxMem=   104857600 cpu:               0.0 elap:               0.0
 (Enter /home/zhouoh/g16/l103.exe)

 GradGradGradGradGradGradGradGradGradGradGradGradGradGradGradGradGradGrad
 Berny optimization.
 Using GEDIIS/GDIIS optimizer.
 FormGI is forming the generalized inverse of G from B-inverse, IUseBI=4.
 Internal  Forces:  Max     0.005489958 RMS     0.001037547
 Search for a local minimum.
 Step number   2 out of a maximum of   38 on scan point    18 out of    21
 All quantities printed in internal units (Hartrees-Bohrs-Radians)
 RMS Force = .95587D-05 SwitMx=.10000D-02 MixMth= 2
 Mixed Optimization -- En-DIIS/RFO-DIIS
 Update second derivatives using D2CorX and points    1    2
 DE= -1.31D-05 DEPred=-1.27D-05 R= 1.04D+00
 TightC=F SS=  1.41D+00  RLast= 6.39D-02 DXNew= 4.5117D-01 1.9184D-01
 Trust test= 1.04D+00 RLast= 6.39D-02 DXMaxT set to 2.68D-01
 ITU=  1  0
 Use linear search instead of GDIIS.
     Eigenvalues ---    0.00097   0.05112   0.08092   0.08092   0.08092
     Eigenvalues ---    0.08118   0.16000   0.16000   0.16000   0.16000
     Eigenvalues ---    0.17010   0.36896   0.37230   0.37230   0.37230
     Eigenvalues ---    0.37230   0.372381000.000001000.000001000.00000
     Eigenvalues --- 1000.000001000.000001000.000001000.000001000.00000
     Eigenvalues --- 1000.000001000.000001000.00000
 RFO step:  Lambda= 0.00000000D+00 EMin= 9.72505609D-04
 Quartic linear search produced a step of  0.03799.
 Iteration  1 RMS(Cart)=  0.00040499 RMS(Int)=  0.00000283
 Iteration  2 RMS(Cart)=  0.00000009 RMS(Int)=  0.00000283
 Iteration  1 RMS(Cart)=  0.00000001 RMS(Int)=  0.00000000
 ITry= 1 IFail=0 DXMaxC= 8.66D-04 DCOld= 1.00D+10 DXMaxT= 2.68D-01 DXLimC= 3.00D+00 Rises=F
 ClnCor:  largest displacement from symmetrization is 4.08D-05 for atom     4.
 Variable       Old X    -DE/DX   Delta X   Delta X   Delta X     New X
                                 (Linear)    (Quad)   (Total)
    R1        2.03609   0.00001  -0.00000   0.00003   0.00002   2.03612
    R2        2.03609   0.00001  -0.00000   0.00003   0.00002   2.03612
    R3        2.03609   0.00001  -0.00000   0.00003   0.00002   2.03612
    R4        6.12271  -0.00549  -0.00000   0.00000   0.00000   6.12271
    R5        2.03609   0.00001  -0.00000   0.00003   0.00002   2.03612
    R6        2.03609   0.00001  -0.00000   0.00003   0.00002   2.03612
    R7        2.03609   0.00001  -0.00000   0.00003   0.00002   2.03612
    A1        2.09276   0.00000   0.00004   0.00000   0.00004   2.09280
    A2        2.09276   0.00000   0.00004   0.00000   0.00004   2.09280
    A3        1.60157  -0.00002  -0.00036  -0.00001  -0.00037   1.60120
    A4        2.09276   0.00000   0.00004  -0.00000   0.00004   2.09280
    A5        1.60157  -0.00002  -0.00036  -0.00000  -0.00037   1.60120
    A6        1.60157  -0.00002  -0.00036   0.00001  -0.00037   1.60120
    A7        1.60157  -0.00002  -0.00036  -0.00001  -0.00037   1.60120
    A8        1.60157  -0.00002  -0.00036   0.00001  -0.00037   1.60120
    A9        1.60157  -0.00002  -0.00036  -0.00000  -0.00037   1.60120
   A10        2.09276   0.00000   0.00004   0.00000   0.00004   2.09280
   A11        2.09276   0.00000   0.00004   0.00000   0.00004   2.09280
   A12        2.09276   0.00000   0.00004  -0.00000   0.00004   2.09280
    D1        1.07760  -0.00000   0.00075  -0.00029   0.00046   1.07806
    D2       -3.11119  -0.00000   0.00075  -0.00029   0.00046  -3.11073
    D3       -1.01679  -0.00000   0.00075  -0.00029   0.00046  -1.01633
    D4       -1.01679  -0.00000   0.00075  -0.00029   0.00046  -1.01633
    D5        1.07760  -0.00000   0.00075  -0.00029   0.00046   1.07806
    D6       -3.11119  -0.00000   0.00075  -0.00030   0.00046  -3.11073
    D7       -3.11119  -0.00000   0.00075  -0.00029   0.00046  -3.11073
    D8       -1.01679  -0.00000   0.00075  -0.00029   0.00046  -1.01633
    D9        1.07760  -0.00000   0.00075  -0.00029   0.00046   1.07806
         Item               Value     Threshold  Converged?
 Maximum Force            0.000017     0.000450     YES
 RMS     Force            0.000010     0.000300     YES
 Maximum Displacement     0.000866     0.001800     YES
 RMS     Displacement     0.000413     0.001200     YES
 Predicted change in Energy=-1.879440D-08
 Optimization completed.
    -- Stationary point found.
                           ----------------------------
                           !   Optimized Parameters   !
                           ! (Angstroms and Degrees)  !
 --------------------------                            --------------------------
 ! Name  Definition              Value          Derivative Info.                !
 --------------------------------------------------------------------------------
 ! R1    R(1,2)                  1.0775         -DE/DX =    0.0                 !
 ! R2    R(1,3)                  1.0775         -DE/DX =    0.0                 !
 ! R3    R(1,4)                  1.0775         -DE/DX =    0.0                 !
 ! R4    R(1,5)                  3.24           -DE/DX =   -0.0055              !
 ! R5    R(5,6)                  1.0775         -DE/DX =    0.0                 !
 ! R6    R(5,7)                  1.0775         -DE/DX =    0.0                 !
 ! R7    R(5,8)                  1.0775         -DE/DX =    0.0                 !
 ! A1    A(2,1,3)              119.9061         -DE/DX =    0.0                 !
 ! A2    A(2,1,4)              119.9061         -DE/DX =    0.0                 !
 ! A3    A(2,1,5)               91.7633         -DE/DX =    0.0                 !
 ! A4    A(3,1,4)              119.9061         -DE/DX =    0.0                 !
 ! A5    A(3,1,5)               91.7633         -DE/DX =    0.0                 !
 ! A6    A(4,1,5)               91.7633         -DE/DX =    0.0                 !
 ! A7    A(1,5,6)               91.7633         -DE/DX =    0.0                 !
 ! A8    A(1,5,7)               91.7633         -DE/DX =    0.0                 !
 ! A9    A(1,5,8)               91.7633         -DE/DX =    0.0                 !
 ! A10   A(6,5,7)              119.9061         -DE/DX =    0.0                 !
 ! A11   A(6,5,8)              119.9061         -DE/DX =    0.0                 !
 ! A12   A(7,5,8)              119.9061         -DE/DX =    0.0                 !
 ! D1    D(2,1,5,6)             61.742          -DE/DX =    0.0                 !
 ! D2    D(2,1,5,7)           -178.258          -DE/DX =    0.0                 !
 ! D3    D(2,1,5,8)            -58.258          -DE/DX =    0.0                 !
 ! D4    D(3,1,5,6)            -58.258          -DE/DX =    0.0                 !
 ! D5    D(3,1,5,7)             61.742          -DE/DX =    0.0                 !
 ! D6    D(3,1,5,8)           -178.258          -DE/DX =    0.0                 !
 ! D7    D(4,1,5,6)           -178.258          -DE/DX =    0.0                 !
 ! D8    D(4,1,5,7)            -58.258          -DE/DX =    0.0                 !
 ! D9    D(4,1,5,8)             61.742          -DE/DX =    0.0                 !
 --------------------------------------------------------------------------------
 Iteration  1 RMS(Cart)=  0.05050506 RMS(Int)=  0.00000000
 Iteration  2 RMS(Cart)=  0.00000000 RMS(Int)=  0.00000000
 Iteration  1 RMS(Cart)=  0.00000000 RMS(Int)=  0.00000000
 GradGradGradGradGradGradGradGradGradGradGradGradGradGradGradGradGradGrad

 Leave Link  103 at Mon Oct  6 14:21:09 2025, MaxMem=   104857600 cpu:               0.0 elap:               0.0
 (Enter /home/zhouoh/g16/l202.exe)
                          Input orientation:                          
 ---------------------------------------------------------------------
 Center     Atomic      Atomic             Coordinates (Angstroms)
 Number     Number       Type             X           Y           Z
 ---------------------------------------------------------------------
      1          6           0       -2.216214   -0.506678   -0.734847
      2          1           0       -1.733945   -1.424575   -0.441906
      3          1           0       -1.705081    0.185561   -1.383293
      4          1           0       -3.242368   -0.327337   -0.459569
      5          6           0       -1.102861    1.067799    1.992252
      6          1           0       -0.076676    0.917238    1.700345
      7          1           0       -1.612285    1.976128    1.715921
      8          1           0       -1.586870    0.356348    2.640717
 ---------------------------------------------------------------------
                    Distance matrix (angstroms):
                    1          2          3          4          5
     1  C    0.000000
     2  H    1.077466   0.000000
     3  H    1.077466   1.865364   0.000000
     4  H    1.077466   1.865364   1.865364   0.000000
     5  C    3.340000   3.540525   3.540525   3.540525   0.000000
     6  H    3.540525   3.580484   3.563128   4.029367   1.077466
     7  H    3.540525   4.029367   3.580484   3.563128   1.077466
     8  H    3.540525   3.563128   4.029367   3.580484   1.077466
                    6          7          8
     6  H    0.000000
     7  H    1.865364   0.000000
     8  H    1.865364   1.865364   0.000000
 Stoichiometry    C2H6
 Framework group  D3[C3(C.C),X(H6)]
 Deg. of freedom     4
 Full point group                 D3      NOp   6
 RotChk:  IX=0 Diff= 9.14D-16
 Largest Abelian subgroup         C2      NOp   2
 Largest concise Abelian subgroup C2      NOp   2
                         Standard orientation:                         
 ---------------------------------------------------------------------
 Center     Atomic      Atomic             Coordinates (Angstroms)
 Number     Number       Type             X           Y           Z
 ---------------------------------------------------------------------
      1          6           0        0.000000    0.000000    1.670000
      2          1           0        0.524027    0.940881    1.702752
      3          1           0        0.552813   -0.924261    1.702752
      4          1           0       -1.076840   -0.016619    1.702752
      5          6           0       -0.000000    0.000000   -1.670000
      6          1           0        1.076840   -0.016619   -1.702752
      7          1           0       -0.552813   -0.924261   -1.702752
      8          1           0       -0.524027    0.940881   -1.702752
 ---------------------------------------------------------------------
 Rotational constants (GHZ):          72.0567738           5.7447236           5.7447236
 Leave Link  202 at Mon Oct  6 14:21:09 2025, MaxMem=   104857600 cpu:               0.0 elap:               0.0
 (Enter /home/zhouoh/g16/l301.exe)
 Standard basis: STO-3G (5D, 7F)
 Ernie: Thresh=  0.10000D-02 Tol=  0.10000D-05 Strict=F.
 There are     8 symmetry adapted cartesian basis functions of A   symmetry.
 There are     8 symmetry adapted cartesian basis functions of B   symmetry.
 There are     8 symmetry adapted basis functions of A   symmetry.
 There are     8 symmetry adapted basis functions of B   symmetry.
    16 basis functions,    48 primitive gaussians,    16 cartesian basis functions
     9 alpha electrons        9 beta electrons
       nuclear repulsion energy        31.7501232147 Hartrees.
 IExCor=    0 DFT=F Ex=HF Corr=None ExCW=0 ScaHFX=  1.000000
 ScaDFX=  1.000000  1.000000  1.000000  1.000000 ScalE2=  1.000000  1.000000
 IRadAn=      5 IRanWt=     -1 IRanGd=            0 ICorTp=0 IEmpDi=  4
 NAtoms=    8 NActive=    8 NUniq=    2 SFac= 4.00D+00 NAtFMM=   60 NAOKFM=F Big=F
 Integral buffers will be    131072 words long.
 Raffenetti 1 integral format.
 Two-electron integral symmetry is turned on.
 Leave Link  301 at Mon Oct  6 14:21:09 2025, MaxMem=   104857600 cpu:               0.0 elap:               0.0
 (Enter /home/zhouoh/g16/l402.exe)
 External calculation of energy and first derivatives.
 Running external command "python ../GauUMA_client.py R"
         input file       "/home/zhouoh/scratch/Gau-2811633.EIn"
         output file      "/home/zhouoh/scratch/Gau-2811633.EOu"
         message file     "/home/zhouoh/scratch/Gau-2811633.EMs"
         fchk file        "/home/zhouoh/scratch/Gau-2811633.EFC"
         mat. el file     "/home/zhouoh/scratch/Gau-2811633.EUF"
Sent job to server.
Received result from server:
SCF Done:  E(UMA) =  -79.6403323371595     A.U.
 Recovered energy= -79.6403323372     dipole=      0.000000000000      0.000000000000      0.000000000000
 Energy=    -79.6403323     NIter=   0.
 Dipole moment=       0.000000       0.000000       0.000000
 Leave Link  402 at Mon Oct  6 14:21:09 2025, MaxMem=   104857600 cpu:               0.0 elap:               0.1
 (Enter /home/zhouoh/g16/l716.exe)
 Dipole        = 0.00000000D+00 0.00000000D+00 0.00000000D+00
 ***** Axes restored to original set *****
 -------------------------------------------------------------------
 Center     Atomic                   Forces (Hartrees/Bohr)
 Number     Number              X              Y              Z
 -------------------------------------------------------------------
      1        6           0.001408527    0.001991892    0.003450095
      2        1           0.000058103    0.000060906    0.000129944
      3        1           0.000058015    0.000082151    0.000117725
      4        1           0.000038058    0.000074990    0.000130000
      5        6          -0.001408522   -0.001991890   -0.003450091
      6        1          -0.000038061   -0.000075112   -0.000129931
      7        1          -0.000057995   -0.000060873   -0.000130021
      8        1          -0.000058125   -0.000082064   -0.000117720
 -------------------------------------------------------------------
 Cartesian Forces:  Max     0.003450095 RMS     0.001222246
 Leave Link  716 at Mon Oct  6 14:21:09 2025, MaxMem=   104857600 cpu:               0.0 elap:               0.0
 (Enter /home/zhouoh/g16/l103.exe)

 GradGradGradGradGradGradGradGradGradGradGradGradGradGradGradGradGradGrad
 Berny optimization.
 FormGI is forming the generalized inverse of G from B-inverse, IUseBI=4.
 Internal  Forces:  Max     0.004688032 RMS     0.000897731
 Search for a local minimum.
 Step number   1 out of a maximum of   38 on scan point    19 out of    21
 All quantities printed in internal units (Hartrees-Bohrs-Radians)
 RMS Force = .14759D-03 SwitMx=.10000D-02 MixMth= 1
 Mixed Optimization -- RFO/linear search
 Second derivative matrix not updated -- first step.
 ITU=  0
     Eigenvalues ---    0.00097   0.05113   0.08093   0.08093   0.08093
     Eigenvalues ---    0.08119   0.16000   0.16000   0.16000   0.16000
     Eigenvalues ---    0.17009   0.36896   0.37230   0.37230   0.37230
     Eigenvalues ---    0.37230   0.372381000.000001000.000001000.00000
     Eigenvalues --- 1000.000001000.000001000.000001000.000001000.00000
     Eigenvalues --- 1000.000001000.000001000.00000
 RFO step:  Lambda=-1.31911049D-05 EMin= 9.72532155D-04
 Linear search not attempted -- first point.
 Iteration  1 RMS(Cart)=  0.00931079 RMS(Int)=  0.00006040
 Iteration  2 RMS(Cart)=  0.00004637 RMS(Int)=  0.00003902
 Iteration  3 RMS(Cart)=  0.00000000 RMS(Int)=  0.00003902
 Iteration  1 RMS(Cart)=  0.00000000 RMS(Int)=  0.00000000
 ITry= 1 IFail=0 DXMaxC= 1.90D-02 DCOld= 1.00D+10 DXMaxT= 2.68D-01 DXLimC= 3.00D+00 Rises=F
 ClnCor:  largest displacement from symmetrization is 7.81D-05 for atom     4.
 Variable       Old X    -DE/DX   Delta X   Delta X   Delta X     New X
                                 (Linear)    (Quad)   (Total)
    R1        2.03612   0.00001   0.00000  -0.00005  -0.00005   2.03607
    R2        2.03612   0.00001   0.00000  -0.00005  -0.00005   2.03607
    R3        2.03612   0.00001   0.00000  -0.00005  -0.00005   2.03607
    R4        6.31169  -0.00469   0.00000   0.00000  -0.00000   6.31169
    R5        2.03612   0.00001   0.00000  -0.00005  -0.00005   2.03607
    R6        2.03612   0.00001   0.00000  -0.00005  -0.00005   2.03607
    R7        2.03612   0.00001   0.00000  -0.00005  -0.00005   2.03607
    A1        2.09280   0.00003   0.00000   0.00074   0.00065   2.09345
    A2        2.09280   0.00003   0.00000   0.00074   0.00065   2.09345
    A3        1.60120  -0.00031   0.00000  -0.00702  -0.00703   1.59417
    A4        2.09280   0.00003   0.00000   0.00073   0.00065   2.09345
    A5        1.60120  -0.00031   0.00000  -0.00700  -0.00703   1.59417
    A6        1.60120  -0.00031   0.00000  -0.00698  -0.00703   1.59417
    A7        1.60120  -0.00031   0.00000  -0.00702  -0.00703   1.59417
    A8        1.60120  -0.00031   0.00000  -0.00698  -0.00703   1.59417
    A9        1.60120  -0.00031   0.00000  -0.00700  -0.00703   1.59417
   A10        2.09280   0.00003   0.00000   0.00074   0.00065   2.09345
   A11        2.09280   0.00003   0.00000   0.00074   0.00065   2.09345
   A12        2.09280   0.00003   0.00000   0.00073   0.00065   2.09345
    D1        1.07806  -0.00000   0.00000   0.01395   0.01395   1.09201
    D2       -3.11073  -0.00000   0.00000   0.01395   0.01395  -3.09678
    D3       -1.01633  -0.00000   0.00000   0.01394   0.01395  -1.00239
    D4       -1.01633  -0.00000   0.00000   0.01394   0.01395  -1.00239
    D5        1.07806  -0.00000   0.00000   0.01394   0.01395   1.09201
    D6       -3.11073  -0.00000   0.00000   0.01394   0.01395  -3.09678
    D7       -3.11073  -0.00000   0.00000   0.01395   0.01395  -3.09678
    D8       -1.01633  -0.00000   0.00000   0.01395   0.01395  -1.00239
    D9        1.07806  -0.00000   0.00000   0.01394   0.01395   1.09201
         Item               Value     Threshold  Converged?
 Maximum Force            0.000311     0.000450     YES
 RMS     Force            0.000148     0.000300     YES
 Maximum Displacement     0.019046     0.001800     NO 
 RMS     Displacement     0.009329     0.001200     NO 
 Predicted change in Energy=-6.601317D-06
 GradGradGradGradGradGradGradGradGradGradGradGradGradGradGradGradGradGrad

 Leave Link  103 at Mon Oct  6 14:21:09 2025, MaxMem=   104857600 cpu:               0.0 elap:               0.0
 (Enter /home/zhouoh/g16/l202.exe)
                          Input orientation:                          
 ---------------------------------------------------------------------
 Center     Atomic      Atomic             Coordinates (Angstroms)
 Number     Number       Type             X           Y           Z
 ---------------------------------------------------------------------
      1          6           0       -2.216214   -0.506678   -0.734847
      2          1           0       -1.737543   -1.423199   -0.431961
      3          1           0       -1.696411    0.184811   -1.377129
      4          1           0       -3.239871   -0.317258   -0.457136
      5          6           0       -1.102861    1.067799    1.992252
      6          1           0       -0.079159    0.920169    1.690396
      7          1           0       -1.620962    1.970427    1.713484
      8          1           0       -1.583280    0.348414    2.634561
 ---------------------------------------------------------------------
                    Distance matrix (angstroms):
                    1          2          3          4          5
     1  C    0.000000
     2  H    1.077440   0.000000
     3  H    1.077440   1.865671   0.000000
     4  H    1.077440   1.865671   1.865671   0.000000
     5  C    3.340000   3.533369   3.533369   3.533369   0.000000
     6  H    3.533369   3.570155   3.544851   4.016618   1.077440
     7  H    3.533369   4.016618   3.570155   3.544851   1.077440
     8  H    3.533369   3.544851   4.016618   3.570155   1.077440
                    6          7          8
     6  H    0.000000
     7  H    1.865671   0.000000
     8  H    1.865671   1.865671   0.000000
 Stoichiometry    C2H6
 Framework group  D3[C3(C.C),X(H6)]
 Deg. of freedom     4
 Full point group                 D3      NOp   6
 RotChk:  IX=0 Diff= 5.97D-16
 Largest Abelian subgroup         C2      NOp   2
 Largest concise Abelian subgroup C2      NOp   2
                         Standard orientation:                         
 ---------------------------------------------------------------------
 Center     Atomic      Atomic             Coordinates (Angstroms)
 Number     Number       Type             X           Y           Z
 ---------------------------------------------------------------------
      1          6           0       -0.000000    0.000000    1.670000
      2          1           0        0.517539    0.944667    1.695183
      3          1           0        0.559336   -0.920536    1.695183
      4          1           0       -1.076876   -0.024132    1.695183
      5          6           0        0.000000    0.000000   -1.670000
      6          1           0        1.076876   -0.024132   -1.695183
      7          1           0       -0.559336   -0.920536   -1.695183
      8          1           0       -0.517539    0.944667   -1.695183
 ---------------------------------------------------------------------
 Rotational constants (GHZ):          72.0330411           5.7548223           5.7548223
 Leave Link  202 at Mon Oct  6 14:21:09 2025, MaxMem=   104857600 cpu:               0.0 elap:               0.0
 (Enter /home/zhouoh/g16/l301.exe)
 Standard basis: STO-3G (5D, 7F)
 Ernie: Thresh=  0.10000D-02 Tol=  0.10000D-05 Strict=F.
 There are     8 symmetry adapted cartesian basis functions of A   symmetry.
 There are     8 symmetry adapted cartesian basis functions of B   symmetry.
 There are     8 symmetry adapted basis functions of A   symmetry.
 There are     8 symmetry adapted basis functions of B   symmetry.
    16 basis functions,    48 primitive gaussians,    16 cartesian basis functions
     9 alpha electrons        9 beta electrons
       nuclear repulsion energy        31.7660001654 Hartrees.
 IExCor=    0 DFT=F Ex=HF Corr=None ExCW=0 ScaHFX=  1.000000
 ScaDFX=  1.000000  1.000000  1.000000  1.000000 ScalE2=  1.000000  1.000000
 IRadAn=      5 IRanWt=     -1 IRanGd=            0 ICorTp=0 IEmpDi=  4
 NAtoms=    8 NActive=    8 NUniq=    2 SFac= 4.00D+00 NAtFMM=   60 NAOKFM=F Big=F
 Integral buffers will be    131072 words long.
 Raffenetti 1 integral format.
 Two-electron integral symmetry is turned on.
 Leave Link  301 at Mon Oct  6 14:21:09 2025, MaxMem=   104857600 cpu:               0.0 elap:               0.0
 (Enter /home/zhouoh/g16/l402.exe)
 External calculation of energy and first derivatives.
 Running external command "python ../GauUMA_client.py R"
         input file       "/home/zhouoh/scratch/Gau-2811633.EIn"
         output file      "/home/zhouoh/scratch/Gau-2811633.EOu"
         message file     "/home/zhouoh/scratch/Gau-2811633.EMs"
         fchk file        "/home/zhouoh/scratch/Gau-2811633.EFC"
         mat. el file     "/home/zhouoh/scratch/Gau-2811633.EUF"
Sent job to server.
Received result from server:
SCF Done:  E(UMA) =  -79.64033905739963     A.U.
 Recovered energy= -79.6403390574     dipole=      0.000000000000      0.000000000000      0.000000000000
 Energy=    -79.6403391     NIter=   0.
 Dipole moment=       0.000000       0.000000       0.000000
 Leave Link  402 at Mon Oct  6 14:21:09 2025, MaxMem=   104857600 cpu:               0.0 elap:               0.1
 (Enter /home/zhouoh/g16/l716.exe)
 Dipole        = 0.00000000D+00 0.00000000D+00 0.00000000D+00
 ***** Axes restored to original set *****
 -------------------------------------------------------------------
 Center     Atomic                   Forces (Hartrees/Bohr)
 Number     Number              X              Y              Z
 -------------------------------------------------------------------
      1        6           0.001539138    0.002176611    0.003769898
      2        1           0.000004479   -0.000002738    0.000004664
      3        1           0.000003566    0.000005966    0.000000014
      4        1          -0.000004073    0.000002392    0.000005194
      5        6          -0.001539135   -0.002176487   -0.003769964
      6        1           0.000004072   -0.000003313   -0.000004664
      7        1          -0.000003560    0.000002973   -0.000005178
      8        1          -0.000004488   -0.000005404    0.000000038
 -------------------------------------------------------------------
 Cartesian Forces:  Max     0.003769964 RMS     0.001332880
 Leave Link  716 at Mon Oct  6 14:21:09 2025, MaxMem=   104857600 cpu:               0.0 elap:               0.0
 (Enter /home/zhouoh/g16/l103.exe)

 GradGradGradGradGradGradGradGradGradGradGradGradGradGradGradGradGradGrad
 Berny optimization.
 Using GEDIIS/GDIIS optimizer.
 FormGI is forming the generalized inverse of G from B-inverse, IUseBI=4.
 Internal  Forces:  Max     0.004629252 RMS     0.000874859
 Search for a local minimum.
 Step number   2 out of a maximum of   38 on scan point    19 out of    21
 All quantities printed in internal units (Hartrees-Bohrs-Radians)
 RMS Force = .47702D-05 SwitMx=.10000D-02 MixMth= 2
 Mixed Optimization -- En-DIIS/RFO-DIIS
 Update second derivatives using D2CorX and points    1    2
 DE= -6.72D-06 DEPred=-6.60D-06 R= 1.02D+00
 TightC=F SS=  1.41D+00  RLast= 4.53D-02 DXNew= 4.5117D-01 1.3581D-01
 Trust test= 1.02D+00 RLast= 4.53D-02 DXMaxT set to 2.68D-01
 ITU=  1  0
 Use linear search instead of GDIIS.
     Eigenvalues ---    0.00098   0.04958   0.08103   0.08103   0.08103
     Eigenvalues ---    0.08131   0.16000   0.16000   0.16000   0.16000
     Eigenvalues ---    0.16996   0.36888   0.37230   0.37230   0.37230
     Eigenvalues ---    0.37230   0.372381000.000001000.000001000.00000
     Eigenvalues --- 1000.000001000.000001000.000001000.000001000.00000
     Eigenvalues --- 1000.000001000.000001000.00000
 RFO step:  Lambda= 0.00000000D+00 EMin= 9.80633386D-04
 Quartic linear search produced a step of  0.02351.
 Iteration  1 RMS(Cart)=  0.00015722 RMS(Int)=  0.00000095
 Iteration  2 RMS(Cart)=  0.00000001 RMS(Int)=  0.00000095
 Iteration  1 RMS(Cart)=  0.00000001 RMS(Int)=  0.00000000
 ITry= 1 IFail=0 DXMaxC= 2.86D-04 DCOld= 1.00D+10 DXMaxT= 2.68D-01 DXLimC= 3.00D+00 Rises=F
 ClnCor:  largest displacement from symmetrization is 4.57D-05 for atom     4.
 Variable       Old X    -DE/DX   Delta X   Delta X   Delta X     New X
                                 (Linear)    (Quad)   (Total)
    R1        2.03607   0.00001  -0.00000   0.00001   0.00001   2.03608
    R2        2.03607   0.00001  -0.00000   0.00001   0.00001   2.03608
    R3        2.03607   0.00001  -0.00000   0.00001   0.00001   2.03608
    R4        6.31169  -0.00463  -0.00000   0.00000  -0.00000   6.31169
    R5        2.03607   0.00001  -0.00000   0.00001   0.00001   2.03608
    R6        2.03607   0.00001  -0.00000   0.00001   0.00001   2.03608
    R7        2.03607   0.00001  -0.00000   0.00001   0.00001   2.03608
    A1        2.09345   0.00000   0.00002   0.00000   0.00001   2.09346
    A2        2.09345   0.00000   0.00002   0.00000   0.00001   2.09346
    A3        1.59417  -0.00001  -0.00017  -0.00001  -0.00018   1.59399
    A4        2.09345   0.00000   0.00002  -0.00000   0.00001   2.09346
    A5        1.59417  -0.00001  -0.00017  -0.00000  -0.00018   1.59399
    A6        1.59417  -0.00001  -0.00017   0.00001  -0.00018   1.59399
    A7        1.59417  -0.00001  -0.00017  -0.00001  -0.00018   1.59399
    A8        1.59417  -0.00001  -0.00017   0.00001  -0.00018   1.59399
    A9        1.59417  -0.00001  -0.00017  -0.00000  -0.00018   1.59399
   A10        2.09345   0.00000   0.00002   0.00000   0.00001   2.09346
   A11        2.09345   0.00000   0.00002   0.00000   0.00001   2.09346
   A12        2.09345   0.00000   0.00002  -0.00000   0.00001   2.09346
    D1        1.09201  -0.00000   0.00033  -0.00036  -0.00003   1.09198
    D2       -3.09678  -0.00000   0.00033  -0.00036  -0.00003  -3.09681
    D3       -1.00239  -0.00000   0.00033  -0.00036  -0.00003  -1.00242
    D4       -1.00239  -0.00000   0.00033  -0.00036  -0.00003  -1.00242
    D5        1.09201  -0.00000   0.00033  -0.00036  -0.00003   1.09198
    D6       -3.09678  -0.00000   0.00033  -0.00036  -0.00003  -3.09681
    D7       -3.09678  -0.00000   0.00033  -0.00036  -0.00003  -3.09681
    D8       -1.00239  -0.00000   0.00033  -0.00036  -0.00003  -1.00242
    D9        1.09201  -0.00000   0.00033  -0.00036  -0.00003   1.09198
         Item               Value     Threshold  Converged?
 Maximum Force            0.000008     0.000450     YES
 RMS     Force            0.000005     0.000300     YES
 Maximum Displacement     0.000315     0.001800     YES
 RMS     Displacement     0.000167     0.001200     YES
 Predicted change in Energy=-4.427532D-09
 Optimization completed.
    -- Stationary point found.
                           ----------------------------
                           !   Optimized Parameters   !
                           ! (Angstroms and Degrees)  !
 --------------------------                            --------------------------
 ! Name  Definition              Value          Derivative Info.                !
 --------------------------------------------------------------------------------
 ! R1    R(1,2)                  1.0774         -DE/DX =    0.0                 !
 ! R2    R(1,3)                  1.0774         -DE/DX =    0.0                 !
 ! R3    R(1,4)                  1.0774         -DE/DX =    0.0                 !
 ! R4    R(1,5)                  3.34           -DE/DX =   -0.0046              !
 ! R5    R(5,6)                  1.0774         -DE/DX =    0.0                 !
 ! R6    R(5,7)                  1.0774         -DE/DX =    0.0                 !
 ! R7    R(5,8)                  1.0774         -DE/DX =    0.0                 !
 ! A1    A(2,1,3)              119.9458         -DE/DX =    0.0                 !
 ! A2    A(2,1,4)              119.9458         -DE/DX =    0.0                 !
 ! A3    A(2,1,5)               91.3393         -DE/DX =    0.0                 !
 ! A4    A(3,1,4)              119.9458         -DE/DX =    0.0                 !
 ! A5    A(3,1,5)               91.3393         -DE/DX =    0.0                 !
 ! A6    A(4,1,5)               91.3393         -DE/DX =    0.0                 !
 ! A7    A(1,5,6)               91.3393         -DE/DX =    0.0                 !
 ! A8    A(1,5,7)               91.3393         -DE/DX =    0.0                 !
 ! A9    A(1,5,8)               91.3393         -DE/DX =    0.0                 !
 ! A10   A(6,5,7)              119.9458         -DE/DX =    0.0                 !
 ! A11   A(6,5,8)              119.9458         -DE/DX =    0.0                 !
 ! A12   A(7,5,8)              119.9458         -DE/DX =    0.0                 !
 ! D1    D(2,1,5,6)             62.5674         -DE/DX =    0.0                 !
 ! D2    D(2,1,5,7)           -177.4326         -DE/DX =    0.0                 !
 ! D3    D(2,1,5,8)            -57.4326         -DE/DX =    0.0                 !
 ! D4    D(3,1,5,6)            -57.4326         -DE/DX =    0.0                 !
 ! D5    D(3,1,5,7)             62.5674         -DE/DX =    0.0                 !
 ! D6    D(3,1,5,8)           -177.4326         -DE/DX =    0.0                 !
 ! D7    D(4,1,5,6)           -177.4326         -DE/DX =    0.0                 !
 ! D8    D(4,1,5,7)            -57.4326         -DE/DX =    0.0                 !
 ! D9    D(4,1,5,8)             62.5674         -DE/DX =    0.0                 !
 --------------------------------------------------------------------------------
 Iteration  1 RMS(Cart)=  0.05050506 RMS(Int)=  0.00000008
 Iteration  2 RMS(Cart)=  0.00000015 RMS(Int)=  0.00000000
 Iteration  1 RMS(Cart)=  0.00000000 RMS(Int)=  0.00000000
 GradGradGradGradGradGradGradGradGradGradGradGradGradGradGradGradGradGrad

 Leave Link  103 at Mon Oct  6 14:21:09 2025, MaxMem=   104857600 cpu:               0.0 elap:               0.0
 (Enter /home/zhouoh/g16/l202.exe)
                          Input orientation:                          
 ---------------------------------------------------------------------
 Center     Atomic      Atomic             Coordinates (Angstroms)
 Number     Number       Type             X           Y           Z
 ---------------------------------------------------------------------
      1          6           0       -2.232881   -0.530248   -0.775672
      2          1           0       -1.754128   -1.446685   -0.472634
      3          1           0       -1.713021    0.161347   -1.417805
      4          1           0       -3.256486   -0.340750   -0.497795
      5          6           0       -1.086195    1.091369    2.033077
      6          1           0       -0.062545    0.943634    1.731070
      7          1           0       -1.604352    1.993922    1.754142
      8          1           0       -1.566695    0.371895    2.675237
 ---------------------------------------------------------------------
                    Distance matrix (angstroms):
                    1          2          3          4          5
     1  C    0.000000
     2  H    1.077448   0.000000
     3  H    1.077448   1.865692   0.000000
     4  H    1.077448   1.865692   1.865692   0.000000
     5  C    3.440000   3.628559   3.628559   3.628559   0.000000
     6  H    3.628559   3.664886   3.640255   4.101066   1.077448
     7  H    3.628559   4.101066   3.664886   3.640255   1.077448
     8  H    3.628559   3.640255   4.101066   3.664886   1.077448
                    6          7          8
     6  H    0.000000
     7  H    1.865692   0.000000
     8  H    1.865692   1.865692   0.000000
 Stoichiometry    C2H6
 Framework group  D3[C3(C.C),X(H6)]
 Deg. of freedom     4
 Full point group                 D3      NOp   6
 RotChk:  IX=0 Diff= 1.70D-11
 Largest Abelian subgroup         C2      NOp   2
 Largest concise Abelian subgroup C2      NOp   2
                         Standard orientation:                         
 ---------------------------------------------------------------------
 Center     Atomic      Atomic             Coordinates (Angstroms)
 Number     Number       Type             X           Y           Z
 ---------------------------------------------------------------------
      1          6           0       -0.000000   -0.000000    1.720000
      2          1           0        0.517558    0.944670    1.744992
      3          1           0        0.559329   -0.920554    1.744992
      4          1           0       -1.076888   -0.024116    1.744992
      5          6           0        0.000000   -0.000000   -1.720000
      6          1           0        1.076888   -0.024116   -1.744992
      7          1           0       -0.559329   -0.920554   -1.744992
      8          1           0       -0.517558    0.944670   -1.744992
 ---------------------------------------------------------------------
 Rotational constants (GHZ):          72.0314666           5.4387095           5.4387095
 Leave Link  202 at Mon Oct  6 14:21:09 2025, MaxMem=   104857600 cpu:               0.0 elap:               0.0
 (Enter /home/zhouoh/g16/l301.exe)
 Standard basis: STO-3G (5D, 7F)
 Ernie: Thresh=  0.10000D-02 Tol=  0.10000D-05 Strict=F.
 There are     8 symmetry adapted cartesian basis functions of A   symmetry.
 There are     8 symmetry adapted cartesian basis functions of B   symmetry.
 There are     8 symmetry adapted basis functions of A   symmetry.
 There are     8 symmetry adapted basis functions of B   symmetry.
    16 basis functions,    48 primitive gaussians,    16 cartesian basis functions
     9 alpha electrons        9 beta electrons
       nuclear repulsion energy        31.4272465709 Hartrees.
 IExCor=    0 DFT=F Ex=HF Corr=None ExCW=0 ScaHFX=  1.000000
 ScaDFX=  1.000000  1.000000  1.000000  1.000000 ScalE2=  1.000000  1.000000
 IRadAn=      5 IRanWt=     -1 IRanGd=            0 ICorTp=0 IEmpDi=  4
 NAtoms=    8 NActive=    8 NUniq=    2 SFac= 4.00D+00 NAtFMM=   60 NAOKFM=F Big=F
 Integral buffers will be    131072 words long.
 Raffenetti 1 integral format.
 Two-electron integral symmetry is turned on.
 Leave Link  301 at Mon Oct  6 14:21:09 2025, MaxMem=   104857600 cpu:               0.0 elap:               0.0
 (Enter /home/zhouoh/g16/l402.exe)
 External calculation of energy and first derivatives.
 Running external command "python ../GauUMA_client.py R"
         input file       "/home/zhouoh/scratch/Gau-2811633.EIn"
         output file      "/home/zhouoh/scratch/Gau-2811633.EOu"
         message file     "/home/zhouoh/scratch/Gau-2811633.EMs"
         fchk file        "/home/zhouoh/scratch/Gau-2811633.EFC"
         mat. el file     "/home/zhouoh/scratch/Gau-2811633.EUF"
Sent job to server.
Received result from server:
SCF Done:  E(UMA) =  -79.63952513731486     A.U.
 Recovered energy= -79.6395251373     dipole=      0.000000000000      0.000000000000      0.000000000000
 Energy=    -79.6395251     NIter=   0.
 Dipole moment=       0.000000       0.000000       0.000000
 Leave Link  402 at Mon Oct  6 14:21:09 2025, MaxMem=   104857600 cpu:               0.0 elap:               0.1
 (Enter /home/zhouoh/g16/l716.exe)
 Dipole        = 0.00000000D+00 0.00000000D+00 0.00000000D+00
 ***** Axes restored to original set *****
 -------------------------------------------------------------------
 Center     Atomic                   Forces (Hartrees/Bohr)
 Number     Number              X              Y              Z
 -------------------------------------------------------------------
      1        6           0.001225216    0.001732678    0.003001119
      2        1           0.000042494    0.000042191    0.000093380
      3        1           0.000042194    0.000059986    0.000083231
      4        1           0.000025619    0.000053807    0.000093563
      5        6          -0.001225214   -0.001732685   -0.003001108
      6        1          -0.000025620   -0.000054144   -0.000093370
      7        1          -0.000042175   -0.000042078   -0.000093580
      8        1          -0.000042514   -0.000059757   -0.000083233
 -------------------------------------------------------------------
 Cartesian Forces:  Max     0.003001119 RMS     0.001062503
 Leave Link  716 at Mon Oct  6 14:21:09 2025, MaxMem=   104857600 cpu:               0.0 elap:               0.0
 (Enter /home/zhouoh/g16/l103.exe)

 GradGradGradGradGradGradGradGradGradGradGradGradGradGradGradGradGradGrad
 Berny optimization.
 FormGI is forming the generalized inverse of G from B-inverse, IUseBI=4.
 Internal  Forces:  Max     0.004006497 RMS     0.000764258
 Search for a local minimum.
 Step number   1 out of a maximum of   38 on scan point    20 out of    21
 All quantities printed in internal units (Hartrees-Bohrs-Radians)
 RMS Force = .10585D-03 SwitMx=.10000D-02 MixMth= 1
 Mixed Optimization -- RFO/linear search
 Second derivative matrix not updated -- first step.
 ITU=  0
     Eigenvalues ---    0.00098   0.04958   0.08104   0.08104   0.08104
     Eigenvalues ---    0.08132   0.16000   0.16000   0.16000   0.16000
     Eigenvalues ---    0.16996   0.36888   0.37230   0.37230   0.37230
     Eigenvalues ---    0.37230   0.372381000.000001000.000001000.00000
     Eigenvalues --- 1000.000001000.000001000.000001000.000001000.00000
     Eigenvalues --- 1000.000001000.000001000.00000
 RFO step:  Lambda=-6.92346385D-06 EMin= 9.80649185D-04
 Linear search not attempted -- first point.
 Iteration  1 RMS(Cart)=  0.00666055 RMS(Int)=  0.00003165
 Iteration  2 RMS(Cart)=  0.00002367 RMS(Int)=  0.00002111
 Iteration  3 RMS(Cart)=  0.00000000 RMS(Int)=  0.00002111
 Iteration  1 RMS(Cart)=  0.00000000 RMS(Int)=  0.00000000
 ITry= 1 IFail=0 DXMaxC= 1.35D-02 DCOld= 1.00D+10 DXMaxT= 2.68D-01 DXLimC= 3.00D+00 Rises=F
 ClnCor:  largest displacement from symmetrization is 6.20D-05 for atom     7.
 Variable       Old X    -DE/DX   Delta X   Delta X   Delta X     New X
                                 (Linear)    (Quad)   (Total)
    R1        2.03608   0.00001   0.00000  -0.00002  -0.00002   2.03606
    R2        2.03608   0.00001   0.00000  -0.00002  -0.00002   2.03606
    R3        2.03608   0.00001   0.00000  -0.00002  -0.00002   2.03606
    R4        6.50066  -0.00401   0.00000   0.00000  -0.00000   6.50066
    R5        2.03608   0.00001   0.00000  -0.00002  -0.00002   2.03606
    R6        2.03608   0.00001   0.00000  -0.00002  -0.00002   2.03606
    R7        2.03608   0.00001   0.00000  -0.00002  -0.00002   2.03606
    A1        2.09346   0.00002   0.00000   0.00042   0.00037   2.09383
    A2        2.09346   0.00002   0.00000   0.00041   0.00037   2.09383
    A3        1.59399  -0.00022   0.00000  -0.00516  -0.00516   1.58883
    A4        2.09346   0.00002   0.00000   0.00041   0.00037   2.09383
    A5        1.59399  -0.00022   0.00000  -0.00514  -0.00516   1.58883
    A6        1.59399  -0.00022   0.00000  -0.00513  -0.00516   1.58883
    A7        1.59399  -0.00022   0.00000  -0.00516  -0.00516   1.58883
    A8        1.59399  -0.00022   0.00000  -0.00513  -0.00516   1.58883
    A9        1.59399  -0.00022   0.00000  -0.00514  -0.00516   1.58883
   A10        2.09346   0.00002   0.00000   0.00041   0.00037   2.09383
   A11        2.09346   0.00002   0.00000   0.00042   0.00037   2.09383
   A12        2.09346   0.00002   0.00000   0.00041   0.00037   2.09383
    D1        1.09198  -0.00000   0.00000   0.00970   0.00970   1.10168
    D2       -3.09681  -0.00000   0.00000   0.00970   0.00970  -3.08711
    D3       -1.00242  -0.00000   0.00000   0.00970   0.00970  -0.99272
    D4       -1.00242  -0.00000   0.00000   0.00970   0.00970  -0.99272
    D5        1.09198  -0.00000   0.00000   0.00970   0.00970   1.10168
    D6       -3.09681  -0.00000   0.00000   0.00969   0.00970  -3.08711
    D7       -3.09681  -0.00000   0.00000   0.00970   0.00970  -3.08711
    D8       -1.00242  -0.00000   0.00000   0.00970   0.00970  -0.99272
    D9        1.09198  -0.00000   0.00000   0.00970   0.00970   1.10168
         Item               Value     Threshold  Converged?
 Maximum Force            0.000224     0.000450     YES
 RMS     Force            0.000106     0.000300     YES
 Maximum Displacement     0.013504     0.001800     NO 
 RMS     Displacement     0.006674     0.001200     NO 
 Predicted change in Energy=-3.459521D-06
 GradGradGradGradGradGradGradGradGradGradGradGradGradGradGradGradGradGrad

 Leave Link  103 at Mon Oct  6 14:21:09 2025, MaxMem=   104857600 cpu:               0.0 elap:               0.0
 (Enter /home/zhouoh/g16/l202.exe)
                          Input orientation:                          
 ---------------------------------------------------------------------
 Center     Atomic      Atomic             Coordinates (Angstroms)
 Number     Number       Type             X           Y           Z
 ---------------------------------------------------------------------
      1          6           0       -2.232881   -0.530248   -0.775672
      2          1           0       -1.756554   -1.445548   -0.465492
      3          1           0       -1.706916    0.160932   -1.413250
      4          1           0       -3.254606   -0.333610   -0.495876
      5          6           0       -1.086195    1.091369    2.033077
      6          1           0       -0.064415    0.945541    1.723924
      7          1           0       -1.610462    1.989777    1.752221
      8          1           0       -1.564273    0.366270    2.670687
 ---------------------------------------------------------------------
                    Distance matrix (angstroms):
                    1          2          3          4          5
     1  C    0.000000
     2  H    1.077439   0.000000
     3  H    1.077439   1.865875   0.000000
     4  H    1.077439   1.865875   1.865875   0.000000
     5  C    3.440000   3.623282   3.623282   3.623282   0.000000
     6  H    3.623282   3.657073   3.627020   4.091583   1.077439
     7  H    3.623282   4.091583   3.657073   3.627020   1.077439
     8  H    3.623282   3.627020   4.091583   3.657073   1.077439
                    6          7          8
     6  H    0.000000
     7  H    1.865875   0.000000
     8  H    1.865875   1.865875   0.000000
 Stoichiometry    C2H6
 Framework group  D3[C3(C.C),X(H6)]
 Deg. of freedom     4
 Full point group                 D3      NOp   6
 RotChk:  IX=0 Diff= 7.80D-16
 Largest Abelian subgroup         C2      NOp   2
 Largest concise Abelian subgroup C2      NOp   2
                         Standard orientation:                         
 ---------------------------------------------------------------------
 Center     Atomic      Atomic             Coordinates (Angstroms)
 Number     Number       Type             X           Y           Z
 ---------------------------------------------------------------------
      1          6           0       -0.000000    0.000000    1.720000
      2          1           0        0.513022    0.947262    1.739433
      3          1           0        0.563842   -0.917921    1.739433
      4          1           0       -1.076864   -0.029341    1.739433
      5          6           0        0.000000    0.000000   -1.720000
      6          1           0        1.076864   -0.029341   -1.739433
      7          1           0       -0.563842   -0.917921   -1.739433
      8          1           0       -0.513022    0.947262   -1.739433
 ---------------------------------------------------------------------
 Rotational constants (GHZ):          72.0173181           5.4455335           5.4455335
 Leave Link  202 at Mon Oct  6 14:21:09 2025, MaxMem=   104857600 cpu:               0.0 elap:               0.0
 (Enter /home/zhouoh/g16/l301.exe)
 Standard basis: STO-3G (5D, 7F)
 Ernie: Thresh=  0.10000D-02 Tol=  0.10000D-05 Strict=F.
 There are     8 symmetry adapted cartesian basis functions of A   symmetry.
 There are     8 symmetry adapted cartesian basis functions of B   symmetry.
 There are     8 symmetry adapted basis functions of A   symmetry.
 There are     8 symmetry adapted basis functions of B   symmetry.
    16 basis functions,    48 primitive gaussians,    16 cartesian basis functions
     9 alpha electrons        9 beta electrons
       nuclear repulsion energy        31.4382842520 Hartrees.
 IExCor=    0 DFT=F Ex=HF Corr=None ExCW=0 ScaHFX=  1.000000
 ScaDFX=  1.000000  1.000000  1.000000  1.000000 ScalE2=  1.000000  1.000000
 IRadAn=      5 IRanWt=     -1 IRanGd=            0 ICorTp=0 IEmpDi=  4
 NAtoms=    8 NActive=    8 NUniq=    2 SFac= 4.00D+00 NAtFMM=   60 NAOKFM=F Big=F
 Integral buffers will be    131072 words long.
 Raffenetti 1 integral format.
 Two-electron integral symmetry is turned on.
 Leave Link  301 at Mon Oct  6 14:21:09 2025, MaxMem=   104857600 cpu:               0.0 elap:               0.0
 (Enter /home/zhouoh/g16/l402.exe)
 External calculation of energy and first derivatives.
 Running external command "python ../GauUMA_client.py R"
         input file       "/home/zhouoh/scratch/Gau-2811633.EIn"
         output file      "/home/zhouoh/scratch/Gau-2811633.EOu"
         message file     "/home/zhouoh/scratch/Gau-2811633.EMs"
         fchk file        "/home/zhouoh/scratch/Gau-2811633.EFC"
         mat. el file     "/home/zhouoh/scratch/Gau-2811633.EUF"
Sent job to server.
Received result from server:
SCF Done:  E(UMA) =  -79.63952866828848     A.U.
 Recovered energy= -79.6395286683     dipole=      0.000000000000      0.000000000000      0.000000000000
 Energy=    -79.6395287     NIter=   0.
 Dipole moment=       0.000000       0.000000       0.000000
 Leave Link  402 at Mon Oct  6 14:21:09 2025, MaxMem=   104857600 cpu:               0.0 elap:               0.1
 (Enter /home/zhouoh/g16/l716.exe)
 Dipole        = 0.00000000D+00 0.00000000D+00 0.00000000D+00
 ***** Axes restored to original set *****
 -------------------------------------------------------------------
 Center     Atomic                   Forces (Hartrees/Bohr)
 Number     Number              X              Y              Z
 -------------------------------------------------------------------
      1        6           0.001323179    0.001871193    0.003241024
      2        1           0.000002470   -0.000001308    0.000002128
      3        1           0.000001521    0.000003171   -0.000000067
      4        1          -0.000002056    0.000000886    0.000002711
      5        6          -0.001323177   -0.001871188   -0.003241024
      6        1           0.000002053   -0.000001910   -0.000002120
      7        1          -0.000001516    0.000001645   -0.000002717
      8        1          -0.000002474   -0.000002491    0.000000066
 -------------------------------------------------------------------
 Cartesian Forces:  Max     0.003241024 RMS     0.001145878
 Leave Link  716 at Mon Oct  6 14:21:09 2025, MaxMem=   104857600 cpu:               0.0 elap:               0.0
 (Enter /home/zhouoh/g16/l103.exe)

 GradGradGradGradGradGradGradGradGradGradGradGradGradGradGradGradGradGrad
 Berny optimization.
 Using GEDIIS/GDIIS optimizer.
 FormGI is forming the generalized inverse of G from B-inverse, IUseBI=4.
 Internal  Forces:  Max     0.003975271 RMS     0.000751259
 Search for a local minimum.
 Step number   2 out of a maximum of   38 on scan point    20 out of    21
 All quantities printed in internal units (Hartrees-Bohrs-Radians)
 RMS Force = .23431D-05 SwitMx=.10000D-02 MixMth= 2
 Mixed Optimization -- En-DIIS/RFO-DIIS
 Update second derivatives using D2CorX and points    1    2
 DE= -3.53D-06 DEPred=-3.46D-06 R= 1.02D+00
 TightC=F SS=  1.41D+00  RLast= 3.17D-02 DXNew= 4.5117D-01 9.5203D-02
 Trust test= 1.02D+00 RLast= 3.17D-02 DXMaxT set to 2.68D-01
 ITU=  1  0
 Use linear search instead of GDIIS.
     Eigenvalues ---    0.00099   0.04838   0.08109   0.08109   0.08109
     Eigenvalues ---    0.08139   0.16000   0.16000   0.16000   0.16000
     Eigenvalues ---    0.16984   0.36881   0.37230   0.37230   0.37230
     Eigenvalues ---    0.37230   0.372381000.000001000.000001000.00000
     Eigenvalues --- 1000.000001000.000001000.000001000.000001000.00000
     Eigenvalues --- 1000.000001000.000001000.00000
 RFO step:  Lambda= 0.00000000D+00 EMin= 9.91183456D-04
 Quartic linear search produced a step of  0.01241.
 Iteration  1 RMS(Cart)=  0.00014852 RMS(Int)=  0.00000027
 Iteration  2 RMS(Cart)=  0.00000001 RMS(Int)=  0.00000027
 Iteration  1 RMS(Cart)=  0.00000001 RMS(Int)=  0.00000000
 ITry= 1 IFail=0 DXMaxC= 3.28D-04 DCOld= 1.00D+10 DXMaxT= 2.68D-01 DXLimC= 3.00D+00 Rises=F
 ClnCor:  largest displacement from symmetrization is 5.02D-05 for atom     4.
 Variable       Old X    -DE/DX   Delta X   Delta X   Delta X     New X
                                 (Linear)    (Quad)   (Total)
    R1        2.03606   0.00000  -0.00000   0.00001   0.00001   2.03607
    R2        2.03606   0.00000  -0.00000   0.00001   0.00001   2.03607
    R3        2.03606   0.00000  -0.00000   0.00001   0.00001   2.03607
    R4        6.50066  -0.00398  -0.00000   0.00000   0.00000   6.50066
    R5        2.03606   0.00000  -0.00000   0.00001   0.00001   2.03607
    R6        2.03606   0.00000  -0.00000   0.00001   0.00001   2.03607
    R7        2.03606   0.00000  -0.00000   0.00001   0.00001   2.03607
    A1        2.09383   0.00000   0.00000   0.00000   0.00000   2.09384
    A2        2.09383   0.00000   0.00000  -0.00000   0.00000   2.09384
    A3        1.58883  -0.00000  -0.00006  -0.00001  -0.00008   1.58876
    A4        2.09383   0.00000   0.00000  -0.00000   0.00000   2.09384
    A5        1.58883  -0.00000  -0.00006  -0.00000  -0.00008   1.58876
    A6        1.58883  -0.00000  -0.00006   0.00001  -0.00008   1.58876
    A7        1.58883  -0.00000  -0.00006  -0.00001  -0.00008   1.58876
    A8        1.58883  -0.00000  -0.00006   0.00001  -0.00008   1.58876
    A9        1.58883  -0.00000  -0.00006  -0.00000  -0.00008   1.58876
   A10        2.09383   0.00000   0.00000  -0.00000   0.00000   2.09384
   A11        2.09383   0.00000   0.00000   0.00000   0.00000   2.09384
   A12        2.09383   0.00000   0.00000  -0.00000   0.00000   2.09384
    D1        1.10168  -0.00000   0.00012  -0.00041  -0.00029   1.10139
    D2       -3.08711  -0.00000   0.00012  -0.00041  -0.00029  -3.08740
    D3       -0.99272  -0.00000   0.00012  -0.00041  -0.00029  -0.99300
    D4       -0.99272  -0.00000   0.00012  -0.00041  -0.00029  -0.99300
    D5        1.10168  -0.00000   0.00012  -0.00041  -0.00029   1.10139
    D6       -3.08711  -0.00000   0.00012  -0.00041  -0.00029  -3.08740
    D7       -3.08711  -0.00000   0.00012  -0.00041  -0.00029  -3.08740
    D8       -0.99272  -0.00000   0.00012  -0.00041  -0.00029  -0.99300
    D9        1.10168  -0.00000   0.00012  -0.00041  -0.00029   1.10139
         Item               Value     Threshold  Converged?
 Maximum Force            0.000004     0.000450     YES
 RMS     Force            0.000002     0.000300     YES
 Maximum Displacement     0.000328     0.001800     YES
 RMS     Displacement     0.000153     0.001200     YES
 Predicted change in Energy=-1.246967D-09
 Optimization completed.
    -- Stationary point found.
                           ----------------------------
                           !   Optimized Parameters   !
                           ! (Angstroms and Degrees)  !
 --------------------------                            --------------------------
 ! Name  Definition              Value          Derivative Info.                !
 --------------------------------------------------------------------------------
 ! R1    R(1,2)                  1.0774         -DE/DX =    0.0                 !
 ! R2    R(1,3)                  1.0774         -DE/DX =    0.0                 !
 ! R3    R(1,4)                  1.0774         -DE/DX =    0.0                 !
 ! R4    R(1,5)                  3.44           -DE/DX =   -0.004               !
 ! R5    R(5,6)                  1.0774         -DE/DX =    0.0                 !
 ! R6    R(5,7)                  1.0774         -DE/DX =    0.0                 !
 ! R7    R(5,8)                  1.0774         -DE/DX =    0.0                 !
 ! A1    A(2,1,3)              119.9677         -DE/DX =    0.0                 !
 ! A2    A(2,1,4)              119.9677         -DE/DX =    0.0                 !
 ! A3    A(2,1,5)               91.0335         -DE/DX =    0.0                 !
 ! A4    A(3,1,4)              119.9677         -DE/DX =    0.0                 !
 ! A5    A(3,1,5)               91.0335         -DE/DX =    0.0                 !
 ! A6    A(4,1,5)               91.0335         -DE/DX =    0.0                 !
 ! A7    A(1,5,6)               91.0335         -DE/DX =    0.0                 !
 ! A8    A(1,5,7)               91.0335         -DE/DX =    0.0                 !
 ! A9    A(1,5,8)               91.0335         -DE/DX =    0.0                 !
 ! A10   A(6,5,7)              119.9677         -DE/DX =    0.0                 !
 ! A11   A(6,5,8)              119.9677         -DE/DX =    0.0                 !
 ! A12   A(7,5,8)              119.9677         -DE/DX =    0.0                 !
 ! D1    D(2,1,5,6)             63.1214         -DE/DX =    0.0                 !
 ! D2    D(2,1,5,7)           -176.8786         -DE/DX =    0.0                 !
 ! D3    D(2,1,5,8)            -56.8786         -DE/DX =    0.0                 !
 ! D4    D(3,1,5,6)            -56.8786         -DE/DX =    0.0                 !
 ! D5    D(3,1,5,7)             63.1214         -DE/DX =    0.0                 !
 ! D6    D(3,1,5,8)           -176.8786         -DE/DX =    0.0                 !
 ! D7    D(4,1,5,6)           -176.8786         -DE/DX =    0.0                 !
 ! D8    D(4,1,5,7)            -56.8786         -DE/DX =    0.0                 !
 ! D9    D(4,1,5,8)             63.1214         -DE/DX =    0.0                 !
 --------------------------------------------------------------------------------
 Iteration  1 RMS(Cart)=  0.05050507 RMS(Int)=  0.00000000
 Iteration  2 RMS(Cart)=  0.00000000 RMS(Int)=  0.00000000
 Iteration  1 RMS(Cart)=  0.00000000 RMS(Int)=  0.00000000
 GradGradGradGradGradGradGradGradGradGradGradGradGradGradGradGradGradGrad

 Leave Link  103 at Mon Oct  6 14:21:09 2025, MaxMem=   104857600 cpu:               0.0 elap:               0.0
 (Enter /home/zhouoh/g16/l202.exe)
                          Input orientation:                          
 ---------------------------------------------------------------------
 Center     Atomic      Atomic             Coordinates (Angstroms)
 Number     Number       Type             X           Y           Z
 ---------------------------------------------------------------------
      1          6           0       -2.249548   -0.553818   -0.816497
      2          1           0       -1.773064   -1.469043   -0.506323
      3          1           0       -1.723677    0.137496   -1.454013
      4          1           0       -3.271254   -0.357272   -0.536554
      5          6           0       -1.069528    1.114939    2.073902
      6          1           0       -0.047767    0.968937    1.764756
      7          1           0       -1.593701    2.013361    1.792899
      8          1           0       -1.547764    0.389884    2.711450
 ---------------------------------------------------------------------
                    Distance matrix (angstroms):
                    1          2          3          4          5
     1  C    0.000000
     2  H    1.077443   0.000000
     3  H    1.077443   1.865884   0.000000
     4  H    1.077443   1.865884   1.865884   0.000000
     5  C    3.540000   3.718802   3.718802   3.718802   0.000000
     6  H    3.718802   3.752092   3.722961   4.176808   1.077443
     7  H    3.718802   4.176808   3.752092   3.722961   1.077443
     8  H    3.718802   3.722961   4.176808   3.752092   1.077443
                    6          7          8
     6  H    0.000000
     7  H    1.865884   0.000000
     8  H    1.865884   1.865884   0.000000
 Stoichiometry    C2H6
 Framework group  D3[C3(C.C),X(H6)]
 Deg. of freedom     4
 Full point group                 D3      NOp   6
 RotChk:  IX=0 Diff= 2.43D-15
 Largest Abelian subgroup         C2      NOp   2
 Largest concise Abelian subgroup C2      NOp   2
                         Standard orientation:                         
 ---------------------------------------------------------------------
 Center     Atomic      Atomic             Coordinates (Angstroms)
 Number     Number       Type             X           Y           Z
 ---------------------------------------------------------------------
      1          6           0       -0.000000   -0.000000    1.770000
      2          1           0        0.513160    0.947193    1.789351
      3          1           0        0.563713   -0.918006    1.789351
      4          1           0       -1.076873   -0.029187    1.789351
      5          6           0        0.000000   -0.000000   -1.770000
      6          1           0        1.076873   -0.029187   -1.789351
      7          1           0       -0.563713   -0.918006   -1.789351
      8          1           0       -0.513160    0.947193   -1.789351
 ---------------------------------------------------------------------
 Rotational constants (GHZ):          72.0166046           5.1538076           5.1538076
 Leave Link  202 at Mon Oct  6 14:21:09 2025, MaxMem=   104857600 cpu:               0.0 elap:               0.0
 (Enter /home/zhouoh/g16/l301.exe)
 Standard basis: STO-3G (5D, 7F)
 Ernie: Thresh=  0.10000D-02 Tol=  0.10000D-05 Strict=F.
 There are     8 symmetry adapted cartesian basis functions of A   symmetry.
 There are     8 symmetry adapted cartesian basis functions of B   symmetry.
 There are     8 symmetry adapted basis functions of A   symmetry.
 There are     8 symmetry adapted basis functions of B   symmetry.
    16 basis functions,    48 primitive gaussians,    16 cartesian basis functions
     9 alpha electrons        9 beta electrons
       nuclear repulsion energy        31.1165365426 Hartrees.
 IExCor=    0 DFT=F Ex=HF Corr=None ExCW=0 ScaHFX=  1.000000
 ScaDFX=  1.000000  1.000000  1.000000  1.000000 ScalE2=  1.000000  1.000000
 IRadAn=      5 IRanWt=     -1 IRanGd=            0 ICorTp=0 IEmpDi=  4
 NAtoms=    8 NActive=    8 NUniq=    2 SFac= 4.00D+00 NAtFMM=   60 NAOKFM=F Big=F
 Integral buffers will be    131072 words long.
 Raffenetti 1 integral format.
 Two-electron integral symmetry is turned on.
 Leave Link  301 at Mon Oct  6 14:21:09 2025, MaxMem=   104857600 cpu:               0.0 elap:               0.0
 (Enter /home/zhouoh/g16/l402.exe)
 External calculation of energy and first derivatives.
 Running external command "python ../GauUMA_client.py R"
         input file       "/home/zhouoh/scratch/Gau-2811633.EIn"
         output file      "/home/zhouoh/scratch/Gau-2811633.EOu"
         message file     "/home/zhouoh/scratch/Gau-2811633.EMs"
         fchk file        "/home/zhouoh/scratch/Gau-2811633.EFC"
         mat. el file     "/home/zhouoh/scratch/Gau-2811633.EUF"
Sent job to server.
Received result from server:
SCF Done:  E(UMA) =  -79.6388270471835     A.U.
 Recovered energy= -79.6388270472     dipole=      0.000000000000      0.000000000000      0.000000000000
 Energy=    -79.6388270     NIter=   0.
 Dipole moment=       0.000000       0.000000       0.000000
 Leave Link  402 at Mon Oct  6 14:21:10 2025, MaxMem=   104857600 cpu:               0.0 elap:               0.1
 (Enter /home/zhouoh/g16/l716.exe)
 Dipole        = 0.00000000D+00 0.00000000D+00 0.00000000D+00
 ***** Axes restored to original set *****
 -------------------------------------------------------------------
 Center     Atomic                   Forces (Hartrees/Bohr)
 Number     Number              X              Y              Z
 -------------------------------------------------------------------
      1        6           0.001073974    0.001518784    0.002630651
      2        1           0.000032114    0.000029836    0.000069182
      3        1           0.000031719    0.000045275    0.000060428
      4        1           0.000017424    0.000039808    0.000069421
      5        6          -0.001073973   -0.001518795   -0.002630640
      6        1          -0.000017426   -0.000040233   -0.000069176
      7        1          -0.000031702   -0.000029692   -0.000069433
      8        1          -0.000032132   -0.000044983   -0.000060432
 -------------------------------------------------------------------
 Cartesian Forces:  Max     0.002630651 RMS     0.000930974
 Leave Link  716 at Mon Oct  6 14:21:10 2025, MaxMem=   104857600 cpu:               0.0 elap:               0.0
 (Enter /home/zhouoh/g16/l103.exe)

 GradGradGradGradGradGradGradGradGradGradGradGradGradGradGradGradGradGrad
 Berny optimization.
 FormGI is forming the generalized inverse of G from B-inverse, IUseBI=4.
 Internal  Forces:  Max     0.003465637 RMS     0.000659420
 Search for a local minimum.
 Step number   1 out of a maximum of   38 on scan point    21 out of    21
 All quantities printed in internal units (Hartrees-Bohrs-Radians)
 RMS Force = .78114D-04 SwitMx=.10000D-02 MixMth= 1
 Mixed Optimization -- RFO/linear search
 Second derivative matrix not updated -- first step.
 ITU=  0
     Eigenvalues ---    0.00099   0.04838   0.08110   0.08110   0.08110
     Eigenvalues ---    0.08139   0.16000   0.16000   0.16000   0.16000
     Eigenvalues ---    0.16984   0.36881   0.37230   0.37230   0.37230
     Eigenvalues ---    0.37230   0.372381000.000001000.000001000.00000
     Eigenvalues --- 1000.000001000.000001000.000001000.000001000.00000
     Eigenvalues --- 1000.000001000.000001000.00000
 RFO step:  Lambda=-3.80565498D-06 EMin= 9.91191173D-04
 Linear search not attempted -- first point.
 Iteration  1 RMS(Cart)=  0.00483572 RMS(Int)=  0.00001715
 Iteration  2 RMS(Cart)=  0.00001246 RMS(Int)=  0.00001183
 Iteration  3 RMS(Cart)=  0.00000000 RMS(Int)=  0.00001183
 Iteration  1 RMS(Cart)=  0.00000000 RMS(Int)=  0.00000000
 ITry= 1 IFail=0 DXMaxC= 9.86D-03 DCOld= 1.00D+10 DXMaxT= 2.68D-01 DXLimC= 3.00D+00 Rises=F
 ClnCor:  largest displacement from symmetrization is 5.28D-05 for atom     4.
 Variable       Old X    -DE/DX   Delta X   Delta X   Delta X     New X
                                 (Linear)    (Quad)   (Total)
    R1        2.03607   0.00001   0.00000  -0.00000  -0.00000   2.03607
    R2        2.03607   0.00001   0.00000  -0.00000  -0.00000   2.03607
    R3        2.03607   0.00001   0.00000  -0.00000  -0.00000   2.03607
    R4        6.68963  -0.00347   0.00000   0.00000  -0.00000   6.68963
    R5        2.03607   0.00001   0.00000  -0.00000  -0.00000   2.03607
    R6        2.03607   0.00001   0.00000  -0.00000  -0.00000   2.03607
    R7        2.03607   0.00001   0.00000  -0.00000  -0.00000   2.03607
    A1        2.09384   0.00001   0.00000   0.00024   0.00021   2.09405
    A2        2.09384   0.00001   0.00000   0.00024   0.00021   2.09405
    A3        1.58876  -0.00017   0.00000  -0.00386  -0.00386   1.58490
    A4        2.09384   0.00001   0.00000   0.00024   0.00021   2.09405
    A5        1.58876  -0.00017   0.00000  -0.00385  -0.00386   1.58490
    A6        1.58876  -0.00017   0.00000  -0.00383  -0.00386   1.58490
    A7        1.58876  -0.00017   0.00000  -0.00386  -0.00386   1.58490
    A8        1.58876  -0.00017   0.00000  -0.00383  -0.00386   1.58490
    A9        1.58876  -0.00017   0.00000  -0.00385  -0.00386   1.58490
   A10        2.09384   0.00001   0.00000   0.00024   0.00021   2.09405
   A11        2.09384   0.00001   0.00000   0.00024   0.00021   2.09405
   A12        2.09384   0.00001   0.00000   0.00024   0.00021   2.09405
    D1        1.10139  -0.00000   0.00000   0.00680   0.00679   1.10819
    D2       -3.08740  -0.00000   0.00000   0.00680   0.00679  -3.08060
    D3       -0.99300  -0.00000   0.00000   0.00679   0.00679  -0.98621
    D4       -0.99300  -0.00000   0.00000   0.00679   0.00679  -0.98621
    D5        1.10139  -0.00000   0.00000   0.00679   0.00679   1.10819
    D6       -3.08740  -0.00000   0.00000   0.00679   0.00679  -3.08060
    D7       -3.08740  -0.00000   0.00000   0.00680   0.00679  -3.08060
    D8       -0.99300  -0.00000   0.00000   0.00680   0.00679  -0.98621
    D9        1.10139  -0.00000   0.00000   0.00679   0.00679   1.10819
         Item               Value     Threshold  Converged?
 Maximum Force            0.000165     0.000450     YES
 RMS     Force            0.000078     0.000300     YES
 Maximum Displacement     0.009855     0.001800     NO 
 RMS     Displacement     0.004846     0.001200     NO 
 Predicted change in Energy=-1.902093D-06
 GradGradGradGradGradGradGradGradGradGradGradGradGradGradGradGradGradGrad

 Leave Link  103 at Mon Oct  6 14:21:10 2025, MaxMem=   104857600 cpu:               0.0 elap:               0.0
 (Enter /home/zhouoh/g16/l202.exe)
                          Input orientation:                          
 ---------------------------------------------------------------------
 Center     Atomic      Atomic             Coordinates (Angstroms)
 Number     Number       Type             X           Y           Z
 ---------------------------------------------------------------------
      1          6           0       -2.249548   -0.553818   -0.816497
      2          1           0       -1.774686   -1.468104   -0.501110
      3          1           0       -1.719322    0.137315   -1.450593
      4          1           0       -3.269828   -0.352149   -0.535001
      5          6           0       -1.069528    1.114939    2.073902
      6          1           0       -0.049187    0.970153    1.759540
      7          1           0       -1.598059    2.010314    1.791344
      8          1           0       -1.546145    0.385834    2.708035
 ---------------------------------------------------------------------
                    Distance matrix (angstroms):
                    1          2          3          4          5
     1  C    0.000000
     2  H    1.077442   0.000000
     3  H    1.077442   1.865999   0.000000
     4  H    1.077442   1.865999   1.865999   0.000000
     5  C    3.540000   3.714841   3.714841   3.714841   0.000000
     6  H    3.714841   3.746062   3.713210   4.169644   1.077442
     7  H    3.714841   4.169644   3.746062   3.713210   1.077442
     8  H    3.714841   3.713210   4.169644   3.746062   1.077442
                    6          7          8
     6  H    0.000000
     7  H    1.865999   0.000000
     8  H    1.865999   1.865999   0.000000
 Stoichiometry    C2H6
 Framework group  D3[C3(C.C),X(H6)]
 Deg. of freedom     4
 Full point group                 D3      NOp   6
 RotChk:  IX=0 Diff= 1.01D-15
 Largest Abelian subgroup         C2      NOp   2
 Largest concise Abelian subgroup C2      NOp   2
                         Standard orientation:                         
 ---------------------------------------------------------------------
 Center     Atomic      Atomic             Coordinates (Angstroms)
 Number     Number       Type             X           Y           Z
 ---------------------------------------------------------------------
      1          6           0        0.000000   -0.000000    1.770000
      2          1           0        0.509971    0.948990    1.785192
      3          1           0        0.566864   -0.916142    1.785192
      4          1           0       -1.076834   -0.032847    1.785192
      5          6           0        0.000000   -0.000000   -1.770000
      6          1           0        1.076834   -0.032847   -1.785192
      7          1           0       -0.566864   -0.916142   -1.785192
      8          1           0       -0.509971    0.948990   -1.785192
 ---------------------------------------------------------------------
 Rotational constants (GHZ):          72.0077249           5.1585134           5.1585134
 Leave Link  202 at Mon Oct  6 14:21:10 2025, MaxMem=   104857600 cpu:               0.0 elap:               0.0
 (Enter /home/zhouoh/g16/l301.exe)
 Standard basis: STO-3G (5D, 7F)
 Ernie: Thresh=  0.10000D-02 Tol=  0.10000D-05 Strict=F.
 There are     8 symmetry adapted cartesian basis functions of A   symmetry.
 There are     8 symmetry adapted cartesian basis functions of B   symmetry.
 There are     8 symmetry adapted basis functions of A   symmetry.
 There are     8 symmetry adapted basis functions of B   symmetry.
    16 basis functions,    48 primitive gaussians,    16 cartesian basis functions
     9 alpha electrons        9 beta electrons
       nuclear repulsion energy        31.1243514075 Hartrees.
 IExCor=    0 DFT=F Ex=HF Corr=None ExCW=0 ScaHFX=  1.000000
 ScaDFX=  1.000000  1.000000  1.000000  1.000000 ScalE2=  1.000000  1.000000
 IRadAn=      5 IRanWt=     -1 IRanGd=            0 ICorTp=0 IEmpDi=  4
 NAtoms=    8 NActive=    8 NUniq=    2 SFac= 4.00D+00 NAtFMM=   60 NAOKFM=F Big=F
 Integral buffers will be    131072 words long.
 Raffenetti 1 integral format.
 Two-electron integral symmetry is turned on.
 Leave Link  301 at Mon Oct  6 14:21:10 2025, MaxMem=   104857600 cpu:               0.0 elap:               0.0
 (Enter /home/zhouoh/g16/l402.exe)
 External calculation of energy and first derivatives.
 Running external command "python ../GauUMA_client.py R"
         input file       "/home/zhouoh/scratch/Gau-2811633.EIn"
         output file      "/home/zhouoh/scratch/Gau-2811633.EOu"
         message file     "/home/zhouoh/scratch/Gau-2811633.EMs"
         fchk file        "/home/zhouoh/scratch/Gau-2811633.EFC"
         mat. el file     "/home/zhouoh/scratch/Gau-2811633.EUF"
Sent job to server.
Received result from server:
SCF Done:  E(UMA) =  -79.63882893971527     A.U.
 Recovered energy= -79.6388289397     dipole=      0.000000000000      0.000000000000      0.000000000000
 Energy=    -79.6388289     NIter=   0.
 Dipole moment=       0.000000       0.000000       0.000000
 Leave Link  402 at Mon Oct  6 14:21:10 2025, MaxMem=   104857600 cpu:               0.0 elap:               0.1
 (Enter /home/zhouoh/g16/l716.exe)
 Dipole        = 0.00000000D+00 0.00000000D+00 0.00000000D+00
 ***** Axes restored to original set *****
 -------------------------------------------------------------------
 Center     Atomic                   Forces (Hartrees/Bohr)
 Number     Number              X              Y              Z
 -------------------------------------------------------------------
      1        6           0.001148420    0.001624067    0.002812992
      2        1           0.000001511   -0.000000619    0.000000917
      3        1           0.000000537    0.000001788   -0.000000076
      4        1          -0.000001086    0.000000188    0.000001511
      5        6          -0.001148417   -0.001624068   -0.002812988
      6        1           0.000001081   -0.000001217   -0.000000916
      7        1          -0.000000533    0.000000959   -0.000001512
      8        1          -0.000001510   -0.000001100    0.000000073
 -------------------------------------------------------------------
 Cartesian Forces:  Max     0.002812992 RMS     0.000994543
 Leave Link  716 at Mon Oct  6 14:21:10 2025, MaxMem=   104857600 cpu:               0.0 elap:               0.0
 (Enter /home/zhouoh/g16/l103.exe)

 GradGradGradGradGradGradGradGradGradGradGradGradGradGradGradGradGradGrad
 Berny optimization.
 Using GEDIIS/GDIIS optimizer.
 FormGI is forming the generalized inverse of G from B-inverse, IUseBI=4.
 Internal  Forces:  Max     0.003448078 RMS     0.000651627
 Search for a local minimum.
 Step number   2 out of a maximum of   38 on scan point    21 out of    21
 All quantities printed in internal units (Hartrees-Bohrs-Radians)
 RMS Force = .11915D-05 SwitMx=.10000D-02 MixMth= 2
 Mixed Optimization -- En-DIIS/RFO-DIIS
 Update second derivatives using D2CorX and points    1    2
 DE= -1.89D-06 DEPred=-1.90D-06 R= 9.95D-01
 TightC=F SS=  1.41D+00  RLast= 2.25D-02 DXNew= 4.5117D-01 6.7426D-02
 Trust test= 9.95D-01 RLast= 2.25D-02 DXMaxT set to 2.68D-01
 ITU=  1  0
 Use linear search instead of GDIIS.
     Eigenvalues ---    0.00100   0.04740   0.08113   0.08113   0.08113
     Eigenvalues ---    0.08144   0.16000   0.16000   0.16000   0.16000
     Eigenvalues ---    0.16973   0.36875   0.37230   0.37230   0.37230
     Eigenvalues ---    0.37230   0.372371000.000001000.000001000.00000
     Eigenvalues --- 1000.000001000.000001000.000001000.000001000.00000
     Eigenvalues --- 1000.000001000.000001000.00000
 RFO step:  Lambda= 0.00000000D+00 EMin= 1.00446744D-03
 Quartic linear search produced a step of  0.00542.
 Iteration  1 RMS(Cart)=  0.00015969 RMS(Int)=  0.00000007
 Iteration  2 RMS(Cart)=  0.00000001 RMS(Int)=  0.00000006
 Iteration  1 RMS(Cart)=  0.00000000 RMS(Int)=  0.00000000
 ITry= 1 IFail=0 DXMaxC= 3.28D-04 DCOld= 1.00D+10 DXMaxT= 2.68D-01 DXLimC= 3.00D+00 Rises=F
 ClnCor:  largest displacement from symmetrization is 4.53D-05 for atom     7.
 Variable       Old X    -DE/DX   Delta X   Delta X   Delta X     New X
                                 (Linear)    (Quad)   (Total)
    R1        2.03607   0.00000  -0.00000   0.00000   0.00000   2.03607
    R2        2.03607   0.00000  -0.00000   0.00000   0.00000   2.03607
    R3        2.03607   0.00000  -0.00000   0.00000   0.00000   2.03607
    R4        6.68963  -0.00345  -0.00000   0.00000  -0.00000   6.68963
    R5        2.03607   0.00000  -0.00000   0.00000   0.00000   2.03607
    R6        2.03607   0.00000  -0.00000   0.00000   0.00000   2.03607
    R7        2.03607   0.00000  -0.00000   0.00000   0.00000   2.03607
    A1        2.09405   0.00000   0.00000   0.00000   0.00000   2.09405
    A2        2.09405   0.00000   0.00000   0.00000   0.00000   2.09405
    A3        1.58490  -0.00000  -0.00002  -0.00001  -0.00003   1.58486
    A4        2.09405   0.00000   0.00000  -0.00000   0.00000   2.09405
    A5        1.58490  -0.00000  -0.00002  -0.00000  -0.00003   1.58486
    A6        1.58490  -0.00000  -0.00002   0.00001  -0.00003   1.58486
    A7        1.58490  -0.00000  -0.00002  -0.00001  -0.00003   1.58486
    A8        1.58490  -0.00000  -0.00002   0.00001  -0.00003   1.58486
    A9        1.58490  -0.00000  -0.00002  -0.00000  -0.00003   1.58486
   A10        2.09405   0.00000   0.00000  -0.00000   0.00000   2.09405
   A11        2.09405   0.00000   0.00000   0.00000   0.00000   2.09405
   A12        2.09405   0.00000   0.00000  -0.00000   0.00000   2.09405
    D1        1.10819  -0.00000   0.00004  -0.00037  -0.00033   1.10785
    D2       -3.08060  -0.00000   0.00004  -0.00037  -0.00033  -3.08094
    D3       -0.98621  -0.00000   0.00004  -0.00037  -0.00033  -0.98654
    D4       -0.98621  -0.00000   0.00004  -0.00037  -0.00033  -0.98654
    D5        1.10819  -0.00000   0.00004  -0.00037  -0.00033   1.10785
    D6       -3.08060  -0.00000   0.00004  -0.00038  -0.00033  -3.08094
    D7       -3.08060  -0.00000   0.00004  -0.00037  -0.00033  -3.08094
    D8       -0.98621  -0.00000   0.00004  -0.00037  -0.00033  -0.98654
    D9        1.10819  -0.00000   0.00004  -0.00037  -0.00033   1.10785
         Item               Value     Threshold  Converged?
 Maximum Force            0.000002     0.000450     YES
 RMS     Force            0.000001     0.000300     YES
 Maximum Displacement     0.000328     0.001800     YES
 RMS     Displacement     0.000161     0.001200     YES
 Predicted change in Energy=-7.952406D-10
 Optimization completed.
    -- Stationary point found.
                           ----------------------------
                           !   Optimized Parameters   !
                           ! (Angstroms and Degrees)  !
 --------------------------                            --------------------------
 ! Name  Definition              Value          Derivative Info.                !
 --------------------------------------------------------------------------------
 ! R1    R(1,2)                  1.0774         -DE/DX =    0.0                 !
 ! R2    R(1,3)                  1.0774         -DE/DX =    0.0                 !
 ! R3    R(1,4)                  1.0774         -DE/DX =    0.0                 !
 ! R4    R(1,5)                  3.54           -DE/DX =   -0.0034              !
 ! R5    R(5,6)                  1.0774         -DE/DX =    0.0                 !
 ! R6    R(5,7)                  1.0774         -DE/DX =    0.0                 !
 ! R7    R(5,8)                  1.0774         -DE/DX =    0.0                 !
 ! A1    A(2,1,3)              119.9803         -DE/DX =    0.0                 !
 ! A2    A(2,1,4)              119.9803         -DE/DX =    0.0                 !
 ! A3    A(2,1,5)               90.8079         -DE/DX =    0.0                 !
 ! A4    A(3,1,4)              119.9803         -DE/DX =    0.0                 !
 ! A5    A(3,1,5)               90.8079         -DE/DX =    0.0                 !
 ! A6    A(4,1,5)               90.8079         -DE/DX =    0.0                 !
 ! A7    A(1,5,6)               90.8079         -DE/DX =    0.0                 !
 ! A8    A(1,5,7)               90.8079         -DE/DX =    0.0                 !
 ! A9    A(1,5,8)               90.8079         -DE/DX =    0.0                 !
 ! A10   A(6,5,7)              119.9803         -DE/DX =    0.0                 !
 ! A11   A(6,5,8)              119.9803         -DE/DX =    0.0                 !
 ! A12   A(7,5,8)              119.9803         -DE/DX =    0.0                 !
 ! D1    D(2,1,5,6)             63.4944         -DE/DX =    0.0                 !
 ! D2    D(2,1,5,7)           -176.5056         -DE/DX =    0.0                 !
 ! D3    D(2,1,5,8)            -56.5056         -DE/DX =    0.0                 !
 ! D4    D(3,1,5,6)            -56.5056         -DE/DX =    0.0                 !
 ! D5    D(3,1,5,7)             63.4944         -DE/DX =    0.0                 !
 ! D6    D(3,1,5,8)           -176.5056         -DE/DX =    0.0                 !
 ! D7    D(4,1,5,6)           -176.5056         -DE/DX =    0.0                 !
 ! D8    D(4,1,5,7)            -56.5056         -DE/DX =    0.0                 !
 ! D9    D(4,1,5,8)             63.4944         -DE/DX =    0.0                 !
 --------------------------------------------------------------------------------
 Summary of Optimized Potential Surface Scan (add -79.0 to energies):
                           1         2         3         4         5
     Eigenvalues --    -0.79204  -0.78672  -0.77607  -0.76256  -0.74772
           R1           1.09035   1.08834   1.08675   1.08537   1.08421
           R2           1.09035   1.08834   1.08675   1.08537   1.08421
           R3           1.09035   1.08834   1.08675   1.08537   1.08421
           R4           1.54000   1.64000   1.74000   1.84000   1.94000
           R5           1.09035   1.08834   1.08675   1.08537   1.08421
           R6           1.09035   1.08834   1.08675   1.08537   1.08421
           R7           1.09035   1.08834   1.08675   1.08537   1.08421
           A1         107.78603 109.00805 110.16218 111.24213 112.23831
           A2         107.78603 109.00805 110.16218 111.24213 112.23831
           A3         111.10797 109.93051 108.77109 107.63632 106.53805
           A4         107.78603 109.00805 110.16218 111.24213 112.23831
           A5         111.10797 109.93051 108.77109 107.63632 106.53805
           A6         111.10797 109.93051 108.77109 107.63632 106.53805
           A7         111.10797 109.93051 108.77109 107.63632 106.53805
           A8         111.10797 109.93051 108.77109 107.63632 106.53805
           A9         111.10797 109.93051 108.77109 107.63632 106.53805
           A10        107.78603 109.00805 110.16218 111.24213 112.23831
           A11        107.78603 109.00805 110.16218 111.24213 112.23831
           A12        107.78603 109.00805 110.16218 111.24213 112.23831
           D1          59.93738  59.88398  59.80831  59.66525  59.75485
           D2         179.93738 179.88398 179.80831 179.66525 179.75485
           D3         -60.06262 -60.11602 -60.19169 -60.33475 -60.24515
           D4         -60.06262 -60.11602 -60.19169 -60.33475 -60.24515
           D5          59.93738  59.88398  59.80831  59.66525  59.75485
           D6         179.93738 179.88398 179.80831 179.66525 179.75485
           D7         179.93738 179.88398 179.80831 179.66525 179.75485
           D8         -60.06262 -60.11602 -60.19169 -60.33475 -60.24515
           D9          59.93738  59.88398  59.80831  59.66525  59.75485
                           6         7         8         9        10
     Eigenvalues --    -0.73250  -0.71741  -0.70283  -0.68903  -0.67614
           R1           1.08322   1.08222   1.08153   1.08083   1.08026
           R2           1.08322   1.08222   1.08153   1.08083   1.08026
           R3           1.08322   1.08222   1.08153   1.08083   1.08026
           R4           2.04000   2.14000   2.24000   2.34000   2.44000
           R5           1.08322   1.08222   1.08153   1.08083   1.08026
           R6           1.08322   1.08222   1.08153   1.08083   1.08026
           R7           1.08322   1.08222   1.08153   1.08083   1.08026
           A1         113.14726 114.01441 114.76002 115.47195 116.07538
           A2         113.14726 114.01441 114.76002 115.47195 116.07538
           A3         105.48366 104.42089 103.45250 102.46938 101.58042
           A4         113.14726 114.01441 114.76002 115.47195 116.07538
           A5         105.48366 104.42089 103.45250 102.46938 101.58042
           A6         105.48366 104.42089 103.45250 102.46938 101.58042
           A7         105.48366 104.42089 103.45250 102.46938 101.58042
           A8         105.48366 104.42089 103.45250 102.46938 101.58042
           A9         105.48366 104.42089 103.45250 102.46938 101.58042
           A10        113.14726 114.01441 114.76002 115.47195 116.07538
           A11        113.14726 114.01441 114.76002 115.47195 116.07538
           A12        113.14726 114.01441 114.76002 115.47195 116.07538
           D1          59.29928  59.17872  59.09717  59.00087  58.90489
           D2         179.29928 179.17872 179.09717 179.00087 178.90489
           D3         -60.70072 -60.82128 -60.90283 -60.99913 -61.09511
           D4         -60.70072 -60.82128 -60.90283 -60.99913 -61.09511
           D5          59.29928  59.17872  59.09717  59.00087  58.90489
           D6         179.29928 179.17872 179.09717 179.00087 178.90489
           D7         179.29928 179.17872 179.09717 179.00087 178.90489
           D8         -60.70072 -60.82128 -60.90283 -60.99913 -61.09511
           D9          59.29928  59.17872  59.09717  59.00087  58.90489
                          11        12        13        14        15
     Eigenvalues --    -0.66483  -0.65703  -0.65182  -0.64826  -0.64574
           R1           1.07959   1.07890   1.07837   1.07800   1.07775
           R2           1.07959   1.07890   1.07837   1.07800   1.07775
           R3           1.07959   1.07890   1.07837   1.07800   1.07775
           R4           2.54000   2.64000   2.74000   2.84000   2.94000
           R5           1.07959   1.07890   1.07837   1.07800   1.07775
           R6           1.07959   1.07890   1.07837   1.07800   1.07775
           R7           1.07959   1.07890   1.07837   1.07800   1.07775
           A1         116.99709 117.93509 118.65600 119.16470 119.50319
           A2         116.99709 117.93509 118.65600 119.16470 119.50319
           A3         100.09165  98.33615  96.70530  95.27497  94.06238
           A4         116.99709 117.93509 118.65600 119.16470 119.50319
           A5         100.09165  98.33615  96.70530  95.27497  94.06238
           A6         100.09165  98.33615  96.70530  95.27497  94.06238
           A7         100.09165  98.33615  96.70530  95.27497  94.06238
           A8         100.09165  98.33615  96.70530  95.27497  94.06238
           A9         100.09165  98.33615  96.70530  95.27497  94.06238
           A10        116.99709 117.93509 118.65600 119.16470 119.50319
           A11        116.99709 117.93509 118.65600 119.16470 119.50319
           A12        116.99709 117.93509 118.65600 119.16470 119.50319
           D1          58.71158  58.22261  57.66209  57.33693  57.63148
           D2         178.71158 178.22261 177.66209 177.33693 177.63148
           D3         -61.28842 -61.77739 -62.33791 -62.66307 -62.36852
           D4         -61.28842 -61.77739 -62.33791 -62.66307 -62.36852
           D5          58.71158  58.22261  57.66209  57.33693  57.63148
           D6         178.71158 178.22261 177.66209 177.33693 177.63148
           D7         178.71158 178.22261 177.66209 177.33693 177.63148
           D8         -61.28842 -61.77739 -62.33791 -62.66307 -62.36852
           D9          58.71158  58.22261  57.66209  57.33693  57.63148
                          16        17        18        19        20
     Eigenvalues --    -0.64387  -0.64244  -0.64129  -0.64034  -0.63953
           R1           1.07760   1.07749   1.07745   1.07744   1.07744
           R2           1.07760   1.07749   1.07745   1.07744   1.07744
           R3           1.07760   1.07749   1.07745   1.07744   1.07744
           R4           3.04000   3.14000   3.24000   3.34000   3.44000
           R5           1.07760   1.07749   1.07745   1.07744   1.07744
           R6           1.07760   1.07749   1.07745   1.07744   1.07744
           R7           1.07760   1.07749   1.07745   1.07744   1.07744
           A1         119.71535 119.83478 119.90608 119.94580 119.96772
           A2         119.71535 119.83478 119.90608 119.94580 119.96772
           A3          93.07226  92.33944  91.76327  91.33928  91.03347
           A4         119.71535 119.83478 119.90608 119.94580 119.96772
           A5          93.07226  92.33944  91.76327  91.33928  91.03347
           A6          93.07226  92.33944  91.76327  91.33928  91.03347
           A7          93.07226  92.33944  91.76327  91.33928  91.03347
           A8          93.07226  92.33944  91.76327  91.33928  91.03347
           A9          93.07226  92.33944  91.76327  91.33928  91.03347
           A10        119.71535 119.83478 119.90608 119.94580 119.96772
           A11        119.71535 119.83478 119.90608 119.94580 119.96772
           A12        119.71535 119.83478 119.90608 119.94580 119.96772
           D1          58.87708  60.53211  61.74200  62.56744  63.12144
           D2         178.87708-179.46789-178.25800-177.43256-176.87856
           D3         -61.12292 -59.46789 -58.25800 -57.43256 -56.87856
           D4         -61.12292 -59.46789 -58.25800 -57.43256 -56.87856
           D5          58.87708  60.53211  61.74200  62.56744  63.12144
           D6         178.87708-179.46789-178.25800-177.43256-176.87856
           D7         178.87708-179.46789-178.25800-177.43256-176.87856
           D8         -61.12292 -59.46789 -58.25800 -57.43256 -56.87856
           D9          58.87708  60.53211  61.74200  62.56744  63.12144
                          21
     Eigenvalues --    -0.63883
           R1           1.07744
           R2           1.07744
           R3           1.07744
           R4           3.54000
           R5           1.07744
           R6           1.07744
           R7           1.07744
           A1         119.98027
           A2         119.98027
           A3          90.80791
           A4         119.98027
           A5          90.80791
           A6          90.80791
           A7          90.80791
           A8          90.80791
           A9          90.80791
           A10        119.98027
           A11        119.98027
           A12        119.98027
           D1          63.49436
           D2        -176.50564
           D3         -56.50564
           D4         -56.50564
           D5          63.49436
           D6        -176.50564
           D7        -176.50564
           D8         -56.50564
           D9          63.49436
 Largest change from initial coordinates is atom    7       1.259 Angstoms.
 GradGradGradGradGradGradGradGradGradGradGradGradGradGradGradGradGradGrad

 Leave Link  103 at Mon Oct  6 14:21:10 2025, MaxMem=   104857600 cpu:               0.0 elap:               0.0
 (Enter /home/zhouoh/g16/l202.exe)
                          Input orientation:                          
 ---------------------------------------------------------------------
 Center     Atomic      Atomic             Coordinates (Angstroms)
 Number     Number       Type             X           Y           Z
 ---------------------------------------------------------------------
      1          6           0       -2.249548   -0.553818   -0.816497
      2          1           0       -1.774686   -1.468104   -0.501110
      3          1           0       -1.719322    0.137315   -1.450593
      4          1           0       -3.269828   -0.352149   -0.535001
      5          6           0       -1.069528    1.114939    2.073902
      6          1           0       -0.049187    0.970153    1.759540
      7          1           0       -1.598059    2.010314    1.791344
      8          1           0       -1.546145    0.385834    2.708035
 ---------------------------------------------------------------------
                    Distance matrix (angstroms):
                    1          2          3          4          5
     1  C    0.000000
     2  H    1.077442   0.000000
     3  H    1.077442   1.865999   0.000000
     4  H    1.077442   1.865999   1.865999   0.000000
     5  C    3.540000   3.714841   3.714841   3.714841   0.000000
     6  H    3.714841   3.746062   3.713210   4.169644   1.077442
     7  H    3.714841   4.169644   3.746062   3.713210   1.077442
     8  H    3.714841   3.713210   4.169644   3.746062   1.077442
                    6          7          8
     6  H    0.000000
     7  H    1.865999   0.000000
     8  H    1.865999   1.865999   0.000000
 Stoichiometry    C2H6
 Framework group  D3[C3(C.C),X(H6)]
 Deg. of freedom     4
 Full point group                 D3      NOp   6
 RotChk:  IX=0 Diff= 5.03D-16
 Largest Abelian subgroup         C2      NOp   2
 Largest concise Abelian subgroup C2      NOp   2
                         Standard orientation:                         
 ---------------------------------------------------------------------
 Center     Atomic      Atomic             Coordinates (Angstroms)
 Number     Number       Type             X           Y           Z
 ---------------------------------------------------------------------
      1          6           0        0.000000   -0.000000    1.770000
      2          1           0        0.509971    0.948990    1.785192
      3          1           0        0.566864   -0.916142    1.785192
      4          1           0       -1.076834   -0.032847    1.785192
      5          6           0        0.000000   -0.000000   -1.770000
      6          1           0        1.076834   -0.032847   -1.785192
      7          1           0       -0.566864   -0.916142   -1.785192
      8          1           0       -0.509971    0.948990   -1.785192
 ---------------------------------------------------------------------
 Rotational constants (GHZ):          72.0077249           5.1585134           5.1585134
 Leave Link  202 at Mon Oct  6 14:21:10 2025, MaxMem=   104857600 cpu:               0.0 elap:               0.0
 (Enter /home/zhouoh/g16/l601.exe)
 Leave Link  601 at Mon Oct  6 14:21:10 2025, MaxMem=   104857600 cpu:               0.0 elap:               0.0
 (Enter /home/zhouoh/g16/l9999.exe)
 1\1\GINC-ZHOUOH-B650M\Scan\RExternal='python ../GauUMA_client.py'\ZDO\
 C2H6\ZHOUOH\06-Oct-2025\0\\#P opt=(nomicro,modredundant) external='pyt
 hon ../GauUMA_client.py'\\t\\0,1\C,-2.2495478277,-0.5538177043,-0.8164
 968375\H,-1.7746859224,-1.4681039203,-0.5011099814\H,-1.7193219559,0.1
 373152006,-1.4505928992\H,-3.2698281315,-0.3521493016,-0.5350009409\C,
 -1.0695275812,1.1149387387,2.0739017697\H,-0.0491865267,0.9701528099,1
 .759540274\H,-1.5980590544,2.0103143191,1.7913437496\H,-1.5461446358,0
 .3858339956,2.7080345945\\Version=ES64L-G16RevA.03\HF=-79.7920383,-79.
 7867173,-79.7760743,-79.7625642,-79.747719,-79.7324952,-79.7174115,-79
 .7028305,-79.6890334,-79.6761413,-79.6648269,-79.6570294,-79.6518211,-
 79.6482638,-79.6457351,-79.6438675,-79.6424355,-79.6412904,-79.6403391
 ,-79.6395287,-79.6388289\RMSD=0.000e+00,0.000e+00,0.000e+00,0.000e+00,
 0.000e+00,0.000e+00,0.000e+00,0.000e+00,0.000e+00,0.000e+00,0.000e+00,
 0.000e+00,0.000e+00,0.000e+00,0.000e+00,0.000e+00,0.000e+00,0.000e+00,
 0.000e+00,0.000e+00,0.000e+00\PG=D03 [C3(C1.C1),X(H6)]\\@


 ... FOR AFTERWARDS A MAN FINDS PLEASURE IN HIS PAINS,
 WHEN HE HAS SUFFERED LONG AND WANDERED FAR.

                                    -- HOMER
 Job cpu time:       0 days  0 hours  0 minutes  4.7 seconds.
 Elapsed time:       0 days  0 hours  0 minutes  8.5 seconds.
 File lengths (MBytes):  RWF=      6 Int=      0 D2E=      0 Chk=      2 Scr=      1
 Normal termination of Gaussian 16 at Mon Oct  6 14:21:10 2025.
