%nproc=16
#P opt=(modredundant) guess=(mix,always) uwb97xd/def2svp

t 

0 1
 C                 -1.91620881   -0.08241758    0.00000000
 H                 -1.55955439   -1.09122758    0.00000000
 H                 -1.55953597    0.42198061   -0.87365150
 H                 -2.98620881   -0.08240440    0.00000000
 C                 -1.40286659    0.64353869    1.25740497
 H                 -0.33286840    0.64183162    1.25838332
 H                 -1.75792315    1.65291171    1.25642758
 H                 -1.76113556    0.14027069    2.13105517

1 5 S 20 0.1

