%nproc=1
#p opt=(calcfc,ts,noeigen,nomicro) external='python ../GauUMA_CPU.py'

t 

0 1
 C          6.1064668376        1.7377921606       -0.3004927584
 C          5.7102081406        1.9825208824        1.1545686199
 C          4.6819765871        0.9641338979        1.6722600765
 C          3.3659154531        1.0075151021        0.9143061035
 C          3.7952301118        0.9123518638       -1.0945412331
 C          4.9097602232        1.9515010995       -1.2292241865
 C          2.4130759389        0.0295631423        1.2395717554
 C          1.0264801395        0.2046750054        1.1738093753
 C          3.4119236502       -1.5810987289       -1.1816829792
 C          4.1892148805       -0.4268676641       -1.2845968397
 C          0.0906451693       -0.6815445543        1.6453518420
 C         -1.2634756948       -0.5200093503        1.1382227686
 C          1.1008382612       -2.5219348485       -0.5890543083
 C          2.0523766284       -1.5082459945       -0.9195045791
 O         -2.0624425547       -1.6144349457        1.3716351306
 C         -2.5630391058       -2.3061181191        0.2333740781
 C         -1.3913906403       -3.0699884886       -0.4375317415
 C         -0.2150731802       -2.2008327875       -0.7252348264
 C          2.5259748883        1.4361542383       -1.7494130824
 O          5.3216293926        2.0531880439       -2.5807433335
 O          5.1566441018        3.2690049198        1.3404764378
 C          4.1519748061       -2.8858330803       -1.3277741563
 C          1.5258748277       -3.8603346044       -0.0506409957
 C         -3.3419238107       -1.4318897666       -0.7487936304
 O         -1.6543159303        0.4530173098        0.5227414070
 C          0.4203148953       -1.8064676127        2.5753206574
 C         -4.5439243190       -0.7839257231       -0.0527951742
 C         -4.9378756683        0.5575441195       -0.7092158242
 O         -5.5973842096       -1.7223036356       -0.0628343059
 C         -6.0101886932        1.2549849622        0.1554736536
 O         -7.2124237771        0.4986194108        0.1985549494
 C          5.3008577466       -0.4257303032        1.8158924107
 C         -5.3946312624        0.3420138967       -2.1519363909
 C         -6.3167616426        2.7108515125       -0.2504079186
 C         -5.0567150633        3.5639061405       -0.3667568389
 C         -7.2680541064        3.3225399604        0.7789821237
 H          6.8835267447        2.4504552876       -0.5932658661
 H          6.5245323875        0.7365091247       -0.3978000861
 H          6.6169762152        1.8898473639        1.7792297472
 H          4.4312999944        1.3246947045        2.6803313933
 H          2.9932222565        2.0209370035        0.8218867190
 H          4.4943488735        2.9389551824       -0.9987532337
 H          2.7676421532       -0.8920702684        1.6713185686
 H          0.6343504023        1.0763613786        0.6641816195
 H          5.2560953118       -0.6059631573       -1.3697072634
 H          1.5883583543       -0.5608627796       -1.1121635215
 H         -3.2591684168       -3.0378858201        0.6595467623
 H         -1.1090964799       -3.8992042543        0.2117277661
 H         -1.7701171927       -3.4941426225       -1.3719798192
 H         -0.4555193639       -1.2531638701       -1.1867463538
 H          2.7236577507        2.4276895552       -2.1529062060
 H          2.2413030413        0.7967132625       -2.5833747422
 H          1.6814266652        1.5211301602       -1.0738433055
 H          5.5896816632        1.1785484689       -2.8848222060
 H          5.7618909939        3.9236832177        0.9754331125
 H          3.5218172311       -3.6471589236       -1.7754608595
 H          5.0229070381       -2.7480819738       -1.9665868481
 H          4.5081718629       -3.2506407400       -0.3636839182
 H          2.4887664848       -3.7938700098        0.4444598427
 H          0.8017340383       -4.2378612664        0.6667086183
 H          1.5987292648       -4.5917864518       -0.8557067066
 H         -2.6969241738       -0.6594356163       -1.1612655455
 H         -3.7117075376       -2.0671468795       -1.5538151151
 H         -0.4325430409       -2.4694277296        2.6811651928
 H          1.2787007893       -2.3758163984        2.2285891391
 H          0.6641518399       -1.3992034962        3.5573653512
 H         -4.2574643972       -0.5631455161        0.9886052243
 H         -4.0418096090        1.1797454944       -0.6873271186
 H         -6.3804594356       -1.2628479357        0.2800445983
 H         -5.6548581044        1.2608178642        1.1930156981
 H         -7.5997751980        0.5190081303       -0.6848364740
 H          4.7438486447       -1.0210256490        2.5341077128
 H          6.3235191126       -0.3441694320        2.1785392802
 H          5.3071592490       -0.9512149611        0.8667728354
 H         -6.1500370672       -0.4409374310       -2.1982668934
 H         -5.7988052282        1.2567801909       -2.5795615861
 H         -4.5540889246        0.0284922453       -2.7647990629
 H         -6.8292005100        2.6988315833       -1.2208292824
 H         -5.3317572531        4.6113158906       -0.4721141121
 H         -4.4428827601        3.4571752181        0.5243478384
 H         -4.4619456631        3.2835221405       -1.2314036441
 H         -7.6240716554        4.2929616980        0.4409153230
 H         -6.7552856795        3.4533280760        1.7293376235
 H         -8.1252189250        2.6730462973        0.9392875128


