 Entering Gaussian System, Link 0=g16
 Input=CP_C2.gjf
 Output=CP_C2.log
 Initial command:
 /home/zhouoh/g16/l1.exe "/home/zhouoh/scratch/Gau-2707482.inp" -scrdir="/home/zhouoh/scratch/"
 Entering Link 1 = /home/zhouoh/g16/l1.exe PID=   2707484.
  
 Copyright (c) 1988,1990,1992,1993,1995,1998,2003,2009,2016,
            Gaussian, Inc.  All Rights Reserved.
  
 This is part of the Gaussian(R) 16 program.  It is based on
 the Gaussian(R) 09 system (copyright 2009, Gaussian, Inc.),
 the Gaussian(R) 03 system (copyright 2003, Gaussian, Inc.),
 the Gaussian(R) 98 system (copyright 1998, Gaussian, Inc.),
 the Gaussian(R) 94 system (copyright 1995, Gaussian, Inc.),
 the Gaussian 92(TM) system (copyright 1992, Gaussian, Inc.),
 the Gaussian 90(TM) system (copyright 1990, Gaussian, Inc.),
 the Gaussian 88(TM) system (copyright 1988, Gaussian, Inc.),
 the Gaussian 86(TM) system (copyright 1986, Carnegie Mellon
 University), and the Gaussian 82(TM) system (copyright 1983,
 Carnegie Mellon University). Gaussian is a federally registered
 trademark of Gaussian, Inc.
  
 This software contains proprietary and confidential information,
 including trade secrets, belonging to Gaussian, Inc.
  
 This software is provided under written license and may be
 used, copied, transmitted, or stored only in accord with that
 written license.
  
 The following legend is applicable only to US Government
 contracts under FAR:
  
                    RESTRICTED RIGHTS LEGEND
  
 Use, reproduction and disclosure by the US Government is
 subject to restrictions as set forth in subparagraphs (a)
 and (c) of the Commercial Computer Software - Restricted
 Rights clause in FAR 52.227-19.
  
 Gaussian, Inc.
 340 Quinnipiac St., Bldg. 40, Wallingford CT 06492
  
  
 ---------------------------------------------------------------
 Warning -- This program may not be used in any manner that
 competes with the business of Gaussian, Inc. or will provide
 assistance to any competitor of Gaussian, Inc.  The licensee
 of this program is prohibited from giving any competitor of
 Gaussian, Inc. access to this program.  By using this program,
 the user acknowledges that Gaussian, Inc. is engaged in the
 business of creating and licensing software in the field of
 computational chemistry and represents and warrants to the
 licensee that it is not a competitor of Gaussian, Inc. and that
 it will not use this program in any manner prohibited above.
 ---------------------------------------------------------------
  

 Cite this work as:
 Gaussian 16, Revision A.03,
 M. J. Frisch, G. W. Trucks, H. B. Schlegel, G. E. Scuseria, 
 M. A. Robb, J. R. Cheeseman, G. Scalmani, V. Barone, 
 G. A. Petersson, H. Nakatsuji, X. Li, M. Caricato, A. V. Marenich, 
 J. Bloino, B. G. Janesko, R. Gomperts, B. Mennucci, H. P. Hratchian, 
 J. V. Ortiz, A. F. Izmaylov, J. L. Sonnenberg, D. Williams-Young, 
 F. Ding, F. Lipparini, F. Egidi, J. Goings, B. Peng, A. Petrone, 
 T. Henderson, D. Ranasinghe, V. G. Zakrzewski, J. Gao, N. Rega, 
 G. Zheng, W. Liang, M. Hada, M. Ehara, K. Toyota, R. Fukuda, 
 J. Hasegawa, M. Ishida, T. Nakajima, Y. Honda, O. Kitao, H. Nakai, 
 T. Vreven, K. Throssell, J. A. Montgomery, Jr., J. E. Peralta, 
 F. Ogliaro, M. J. Bearpark, J. J. Heyd, E. N. Brothers, K. N. Kudin, 
 V. N. Staroverov, T. A. Keith, R. Kobayashi, J. Normand, 
 K. Raghavachari, A. P. Rendell, J. C. Burant, S. S. Iyengar, 
 J. Tomasi, M. Cossi, J. M. Millam, M. Klene, C. Adamo, R. Cammi, 
 J. W. Ochterski, R. L. Martin, K. Morokuma, O. Farkas, 
 J. B. Foresman, and D. J. Fox, Gaussian, Inc., Wallingford CT, 2016.
 
 ******************************************
 Gaussian 16:  ES64L-G16RevA.03 25-Dec-2016
                30-Nov-2025 
 ******************************************
 %nproc=1
 Will use up to    1 processors via shared memory.
 ----------------------------------------------------------------------
 #p opt=(calcall,ts,noeigen,nomicro) external='python ../GauUMA_client.
 py'
 ----------------------------------------------------------------------
 1/5=1,10=4,11=1,18=20,26=1,38=1/1,3;
 2/9=110,12=2,17=6,18=5,40=1/2;
 3/11=9,25=1,30=1,41=9900000,43=2,71=2,140=1/1;
 4/20=17,22=2,24=3,113=1,114=1/2;
 6/7=2,8=2,9=2,10=2,18=1/1;
 7/25=1,44=-1/16;
 1/5=1,10=4,11=1,18=20,26=1/3(3);
 2/9=110/2;
 7/8=1,9=1,25=1,44=-1/16;
 99//99;
 2/9=110/2;
 3/11=9,25=1,30=1,41=9900000,43=2,71=2,140=1/1;
 4/16=2,20=17,22=2,24=3,113=1,114=1/2;
 7/25=1,44=-1/16;
 1/5=1,10=4,11=1,18=20,26=1/3(-4);
 2/9=110/2;
 6/7=2,8=2,9=2,10=2,18=1/1;
 7/8=1,9=1,25=1,44=-1/16;
 99//99;
 Leave Link    1 at Sun Nov 30 20:45:34 2025, MaxMem=           0 cpu:               0.0 elap:               0.0
 (Enter /home/zhouoh/g16/l101.exe)
 -
 t
 -
 Symbolic Z-matrix:
 Charge =  0 Multiplicity = 2
 O                     0.96329  -0.49247   5.09598 
 C                     0.06452   0.55514   4.83013 
 C                    -0.5453    0.88406   6.20677 
 C                     0.82468   1.77718   4.29604 
 C                    -1.05195   0.08513   3.88963 
 C                    -1.69718   0.93793   2.99287 
 C                    -2.69289   0.45777   2.14428 
 C                    -3.06284  -0.88228   2.18454 
 C                    -2.43774  -1.73741   3.08944 
 C                    -1.44552  -1.25449   3.93461 
 H                    -1.03528  -0.00041   6.62288 
 H                     0.23934   1.21128   6.89561 
 H                    -1.28996   1.67997   6.1036 
 H                     1.19372   1.59787   3.28036 
 H                     1.68204   1.96359   4.94868 
 H                     0.20266   2.67763   4.28177 
 H                    -1.41731   1.98539   2.93518 
 H                    -3.17525   1.13527   1.44546 
 H                    -3.83363  -1.25764   1.51791 
 H                    -2.72066  -2.78542   3.13395 
 H                    -0.9434   -1.9173    4.63194 
 C                     1.47727  -0.94176   1.72875 
 C                     1.10948  -2.39703   1.33827 
 C                     2.29191  -1.08092   3.02093 
 H                     0.55543  -0.38559   1.92904 
 C                     1.37047  -3.24398   2.59128 
 H                     1.76625  -2.73276   0.52432 
 H                     0.07822  -2.47568   0.98182 
 C                     2.57733  -2.55721   3.23952 
 H                     1.58271  -0.7654    4.00512 
 H                     3.14331  -0.40178   3.12563 
 H                     0.51162  -3.185     3.26856 
 H                     1.54619  -4.30006   2.36463 
 H                     2.71761  -2.8109    4.29495 
 H                     3.5008   -2.83387   2.70906 
 C                     2.24422  -0.19934   0.63244 
 H                     1.66363  -0.17144  -0.29636 
 H                     3.19895  -0.69519   0.41804 
 H                     2.45936   0.83445   0.92633 
 
 Add virtual bond connecting atoms H30        and O1         Dist= 2.43D+00.
 ITRead=  0  0  0  0  0  0  0  0  0  0  0  0  0  0  0  0  0  0  0  0
 ITRead=  0  0  0  0  0  0  0  0  0  0  0  0  0  0  0  0  0  0  0
 MicOpt= -1 -1 -1 -1 -1 -1 -1 -1 -1 -1 -1 -1 -1 -1 -1 -1 -1 -1 -1 -1
 MicOpt= -1 -1 -1 -1 -1 -1 -1 -1 -1 -1 -1 -1 -1 -1 -1 -1 -1 -1 -1
 NAtoms=     39 NQM=       39 NQMF=       0 NMMI=      0 NMMIF=      0
                NMic=       0 NMicF=      0.
                    Isotopes and Nuclear Properties:
 (Nuclear quadrupole moments (NQMom) in fm**2, nuclear magnetic moments (NMagM)
  in nuclear magnetons)

  Atom         1           2           3           4           5           6           7           8           9          10
 IAtWgt=          16          12          12          12          12          12          12          12          12          12
 AtmWgt=  15.9949146  12.0000000  12.0000000  12.0000000  12.0000000  12.0000000  12.0000000  12.0000000  12.0000000  12.0000000
 NucSpn=           0           0           0           0           0           0           0           0           0           0
 AtZEff=  -0.0000000  -0.0000000  -0.0000000  -0.0000000  -0.0000000  -0.0000000  -0.0000000  -0.0000000  -0.0000000  -0.0000000
 NQMom=    0.0000000   0.0000000   0.0000000   0.0000000   0.0000000   0.0000000   0.0000000   0.0000000   0.0000000   0.0000000
 NMagM=    0.0000000   0.0000000   0.0000000   0.0000000   0.0000000   0.0000000   0.0000000   0.0000000   0.0000000   0.0000000
 AtZNuc=   8.0000000   6.0000000   6.0000000   6.0000000   6.0000000   6.0000000   6.0000000   6.0000000   6.0000000   6.0000000

  Atom        11          12          13          14          15          16          17          18          19          20
 IAtWgt=           1           1           1           1           1           1           1           1           1           1
 AtmWgt=   1.0078250   1.0078250   1.0078250   1.0078250   1.0078250   1.0078250   1.0078250   1.0078250   1.0078250   1.0078250
 NucSpn=           1           1           1           1           1           1           1           1           1           1
 AtZEff=  -0.0000000  -0.0000000  -0.0000000  -0.0000000  -0.0000000  -0.0000000  -0.0000000  -0.0000000  -0.0000000  -0.0000000
 NQMom=    0.0000000   0.0000000   0.0000000   0.0000000   0.0000000   0.0000000   0.0000000   0.0000000   0.0000000   0.0000000
 NMagM=    2.7928460   2.7928460   2.7928460   2.7928460   2.7928460   2.7928460   2.7928460   2.7928460   2.7928460   2.7928460
 AtZNuc=   1.0000000   1.0000000   1.0000000   1.0000000   1.0000000   1.0000000   1.0000000   1.0000000   1.0000000   1.0000000

  Atom        21          22          23          24          25          26          27          28          29          30
 IAtWgt=           1          12          12          12           1          12           1           1          12           1
 AtmWgt=   1.0078250  12.0000000  12.0000000  12.0000000   1.0078250  12.0000000   1.0078250   1.0078250  12.0000000   1.0078250
 NucSpn=           1           0           0           0           1           0           1           1           0           1
 AtZEff=  -0.0000000  -0.0000000  -0.0000000  -0.0000000  -0.0000000  -0.0000000  -0.0000000  -0.0000000  -0.0000000  -0.0000000
 NQMom=    0.0000000   0.0000000   0.0000000   0.0000000   0.0000000   0.0000000   0.0000000   0.0000000   0.0000000   0.0000000
 NMagM=    2.7928460   0.0000000   0.0000000   0.0000000   2.7928460   0.0000000   2.7928460   2.7928460   0.0000000   2.7928460
 AtZNuc=   1.0000000   6.0000000   6.0000000   6.0000000   1.0000000   6.0000000   1.0000000   1.0000000   6.0000000   1.0000000

  Atom        31          32          33          34          35          36          37          38          39
 IAtWgt=           1           1           1           1           1          12           1           1           1
 AtmWgt=   1.0078250   1.0078250   1.0078250   1.0078250   1.0078250  12.0000000   1.0078250   1.0078250   1.0078250
 NucSpn=           1           1           1           1           1           0           1           1           1
 AtZEff=  -0.0000000  -0.0000000  -0.0000000  -0.0000000  -0.0000000  -0.0000000  -0.0000000  -0.0000000  -0.0000000
 NQMom=    0.0000000   0.0000000   0.0000000   0.0000000   0.0000000   0.0000000   0.0000000   0.0000000   0.0000000
 NMagM=    2.7928460   2.7928460   2.7928460   2.7928460   2.7928460   0.0000000   2.7928460   2.7928460   2.7928460
 AtZNuc=   1.0000000   1.0000000   1.0000000   1.0000000   1.0000000   6.0000000   1.0000000   1.0000000   1.0000000
 Leave Link  101 at Sun Nov 30 20:45:35 2025, MaxMem=   104857600 cpu:               0.1 elap:               0.1
 (Enter /home/zhouoh/g16/l103.exe)

 GradGradGradGradGradGradGradGradGradGradGradGradGradGradGradGradGradGrad
 Berny optimization.
 Initialization pass.
                           ----------------------------
                           !    Initial Parameters    !
                           ! (Angstroms and Degrees)  !
 --------------------------                            --------------------------
 ! Name  Definition              Value          Derivative Info.                !
 --------------------------------------------------------------------------------
 ! R1    R(1,2)                  1.4057         calculate D2E/DX2 analytically  !
 ! R2    R(1,30)                 1.2838         calculate D2E/DX2 analytically  !
 ! R3    R(2,3)                  1.5412         calculate D2E/DX2 analytically  !
 ! R4    R(2,4)                  1.5351         calculate D2E/DX2 analytically  !
 ! R5    R(2,5)                  1.5336         calculate D2E/DX2 analytically  !
 ! R6    R(3,11)                 1.0934         calculate D2E/DX2 analytically  !
 ! R7    R(3,12)                 1.0942         calculate D2E/DX2 analytically  !
 ! R8    R(3,13)                 1.0948         calculate D2E/DX2 analytically  !
 ! R9    R(4,14)                 1.0954         calculate D2E/DX2 analytically  !
 ! R10   R(4,15)                 1.0935         calculate D2E/DX2 analytically  !
 ! R11   R(4,16)                 1.0945         calculate D2E/DX2 analytically  !
 ! R12   R(5,6)                  1.3956         calculate D2E/DX2 analytically  !
 ! R13   R(5,10)                 1.397          calculate D2E/DX2 analytically  !
 ! R14   R(6,7)                  1.3936         calculate D2E/DX2 analytically  !
 ! R15   R(6,17)                 1.0857         calculate D2E/DX2 analytically  !
 ! R16   R(7,8)                  1.3908         calculate D2E/DX2 analytically  !
 ! R17   R(7,18)                 1.0863         calculate D2E/DX2 analytically  !
 ! R18   R(8,9)                  1.3931         calculate D2E/DX2 analytically  !
 ! R19   R(8,19)                 1.086          calculate D2E/DX2 analytically  !
 ! R20   R(9,10)                 1.39           calculate D2E/DX2 analytically  !
 ! R21   R(9,20)                 1.0864         calculate D2E/DX2 analytically  !
 ! R22   R(10,21)                1.0852         calculate D2E/DX2 analytically  !
 ! R23   R(22,23)                1.551          calculate D2E/DX2 analytically  !
 ! R24   R(22,24)                1.5339         calculate D2E/DX2 analytically  !
 ! R25   R(22,25)                1.0951         calculate D2E/DX2 analytically  !
 ! R26   R(22,36)                1.5301         calculate D2E/DX2 analytically  !
 ! R27   R(23,26)                1.5348         calculate D2E/DX2 analytically  !
 ! R28   R(23,27)                1.0984         calculate D2E/DX2 analytically  !
 ! R29   R(23,28)                1.094          calculate D2E/DX2 analytically  !
 ! R30   R(24,29)                1.5194         calculate D2E/DX2 analytically  !
 ! R31   R(24,30)                1.2535         calculate D2E/DX2 analytically  !
 ! R32   R(24,31)                1.0941         calculate D2E/DX2 analytically  !
 ! R33   R(26,29)                1.5324         calculate D2E/DX2 analytically  !
 ! R34   R(26,32)                1.0954         calculate D2E/DX2 analytically  !
 ! R35   R(26,33)                1.0943         calculate D2E/DX2 analytically  !
 ! R36   R(29,34)                1.0945         calculate D2E/DX2 analytically  !
 ! R37   R(29,35)                1.1003         calculate D2E/DX2 analytically  !
 ! R38   R(36,37)                1.0957         calculate D2E/DX2 analytically  !
 ! R39   R(36,38)                1.097          calculate D2E/DX2 analytically  !
 ! R40   R(36,39)                1.0961         calculate D2E/DX2 analytically  !
 ! A1    A(2,1,30)             107.8324         calculate D2E/DX2 analytically  !
 ! A2    A(1,2,3)              104.0706         calculate D2E/DX2 analytically  !
 ! A3    A(1,2,4)              110.0275         calculate D2E/DX2 analytically  !
 ! A4    A(1,2,5)              110.674          calculate D2E/DX2 analytically  !
 ! A5    A(3,2,4)              109.6833         calculate D2E/DX2 analytically  !
 ! A6    A(3,2,5)              108.9739         calculate D2E/DX2 analytically  !
 ! A7    A(4,2,5)              113.0235         calculate D2E/DX2 analytically  !
 ! A8    A(2,3,11)             110.1583         calculate D2E/DX2 analytically  !
 ! A9    A(2,3,12)             110.0242         calculate D2E/DX2 analytically  !
 ! A10   A(2,3,13)             109.8836         calculate D2E/DX2 analytically  !
 ! A11   A(11,3,12)            108.8856         calculate D2E/DX2 analytically  !
 ! A12   A(11,3,13)            108.6102         calculate D2E/DX2 analytically  !
 ! A13   A(12,3,13)            109.2486         calculate D2E/DX2 analytically  !
 ! A14   A(2,4,14)             111.0457         calculate D2E/DX2 analytically  !
 ! A15   A(2,4,15)             108.4399         calculate D2E/DX2 analytically  !
 ! A16   A(2,4,16)             112.2128         calculate D2E/DX2 analytically  !
 ! A17   A(14,4,15)            108.4907         calculate D2E/DX2 analytically  !
 ! A18   A(14,4,16)            108.303          calculate D2E/DX2 analytically  !
 ! A19   A(15,4,16)            108.2474         calculate D2E/DX2 analytically  !
 ! A20   A(2,5,6)              122.9121         calculate D2E/DX2 analytically  !
 ! A21   A(2,5,10)             118.6364         calculate D2E/DX2 analytically  !
 ! A22   A(6,5,10)             118.4511         calculate D2E/DX2 analytically  !
 ! A23   A(5,6,7)              120.734          calculate D2E/DX2 analytically  !
 ! A24   A(5,6,17)             120.2967         calculate D2E/DX2 analytically  !
 ! A25   A(7,6,17)             118.9614         calculate D2E/DX2 analytically  !
 ! A26   A(6,7,8)              120.2926         calculate D2E/DX2 analytically  !
 ! A27   A(6,7,18)             119.6106         calculate D2E/DX2 analytically  !
 ! A28   A(8,7,18)             120.0957         calculate D2E/DX2 analytically  !
 ! A29   A(7,8,9)              119.3984         calculate D2E/DX2 analytically  !
 ! A30   A(7,8,19)             120.2688         calculate D2E/DX2 analytically  !
 ! A31   A(9,8,19)             120.3326         calculate D2E/DX2 analytically  !
 ! A32   A(8,9,10)             120.1319         calculate D2E/DX2 analytically  !
 ! A33   A(8,9,20)             120.1237         calculate D2E/DX2 analytically  !
 ! A34   A(10,9,20)            119.7438         calculate D2E/DX2 analytically  !
 ! A35   A(5,10,9)             120.9777         calculate D2E/DX2 analytically  !
 ! A36   A(5,10,21)            118.426          calculate D2E/DX2 analytically  !
 ! A37   A(9,10,21)            120.584          calculate D2E/DX2 analytically  !
 ! A38   A(23,22,24)           104.6498         calculate D2E/DX2 analytically  !
 ! A39   A(23,22,25)           108.8422         calculate D2E/DX2 analytically  !
 ! A40   A(23,22,36)           113.187          calculate D2E/DX2 analytically  !
 ! A41   A(24,22,25)           109.8206         calculate D2E/DX2 analytically  !
 ! A42   A(24,22,36)           112.4206         calculate D2E/DX2 analytically  !
 ! A43   A(25,22,36)           107.8517         calculate D2E/DX2 analytically  !
 ! A44   A(22,23,26)           105.7786         calculate D2E/DX2 analytically  !
 ! A45   A(22,23,27)           109.363          calculate D2E/DX2 analytically  !
 ! A46   A(22,23,28)           111.9029         calculate D2E/DX2 analytically  !
 ! A47   A(26,23,27)           109.55           calculate D2E/DX2 analytically  !
 ! A48   A(26,23,28)           112.7463         calculate D2E/DX2 analytically  !
 ! A49   A(27,23,28)           107.471          calculate D2E/DX2 analytically  !
 ! A50   A(22,24,29)           108.0056         calculate D2E/DX2 analytically  !
 ! A51   A(22,24,30)           109.7631         calculate D2E/DX2 analytically  !
 ! A52   A(22,24,31)           115.9501         calculate D2E/DX2 analytically  !
 ! A53   A(29,24,30)           103.7625         calculate D2E/DX2 analytically  !
 ! A54   A(29,24,31)           116.3054         calculate D2E/DX2 analytically  !
 ! A55   A(30,24,31)           102.0578         calculate D2E/DX2 analytically  !
 ! A56   A(23,26,29)           103.4129         calculate D2E/DX2 analytically  !
 ! A57   A(23,26,32)           109.9841         calculate D2E/DX2 analytically  !
 ! A58   A(23,26,33)           113.0026         calculate D2E/DX2 analytically  !
 ! A59   A(29,26,32)           109.3786         calculate D2E/DX2 analytically  !
 ! A60   A(29,26,33)           113.1814         calculate D2E/DX2 analytically  !
 ! A61   A(32,26,33)           107.814          calculate D2E/DX2 analytically  !
 ! A62   A(24,29,26)           103.0991         calculate D2E/DX2 analytically  !
 ! A63   A(24,29,34)           112.8302         calculate D2E/DX2 analytically  !
 ! A64   A(24,29,35)           109.4262         calculate D2E/DX2 analytically  !
 ! A65   A(26,29,34)           113.889          calculate D2E/DX2 analytically  !
 ! A66   A(26,29,35)           110.1418         calculate D2E/DX2 analytically  !
 ! A67   A(34,29,35)           107.3995         calculate D2E/DX2 analytically  !
 ! A68   A(22,36,37)           110.739          calculate D2E/DX2 analytically  !
 ! A69   A(22,36,38)           110.9133         calculate D2E/DX2 analytically  !
 ! A70   A(22,36,39)           111.3401         calculate D2E/DX2 analytically  !
 ! A71   A(37,36,38)           107.8791         calculate D2E/DX2 analytically  !
 ! A72   A(37,36,39)           107.8954         calculate D2E/DX2 analytically  !
 ! A73   A(38,36,39)           107.9331         calculate D2E/DX2 analytically  !
 ! A74   L(1,30,24,7,-1)       186.3727         calculate D2E/DX2 analytically  !
 ! A75   L(1,30,24,7,-2)       180.9761         calculate D2E/DX2 analytically  !
 ! D1    D(30,1,2,3)          -175.7321         calculate D2E/DX2 analytically  !
 ! D2    D(30,1,2,4)           -58.2837         calculate D2E/DX2 analytically  !
 ! D3    D(30,1,2,5)            67.3417         calculate D2E/DX2 analytically  !
 ! D4    D(2,1,24,22)          -35.1019         calculate D2E/DX2 analytically  !
 ! D5    D(2,1,24,29)         -150.7342         calculate D2E/DX2 analytically  !
 ! D6    D(2,1,24,31)           89.217          calculate D2E/DX2 analytically  !
 ! D7    D(1,2,3,11)           -58.7714         calculate D2E/DX2 analytically  !
 ! D8    D(1,2,3,12)            61.2798         calculate D2E/DX2 analytically  !
 ! D9    D(1,2,3,13)          -178.3933         calculate D2E/DX2 analytically  !
 ! D10   D(4,2,3,11)          -176.4579         calculate D2E/DX2 analytically  !
 ! D11   D(4,2,3,12)           -56.4067         calculate D2E/DX2 analytically  !
 ! D12   D(4,2,3,13)            63.9202         calculate D2E/DX2 analytically  !
 ! D13   D(5,2,3,11)            59.3314         calculate D2E/DX2 analytically  !
 ! D14   D(5,2,3,12)           179.3826         calculate D2E/DX2 analytically  !
 ! D15   D(5,2,3,13)           -60.2904         calculate D2E/DX2 analytically  !
 ! D16   D(1,2,4,14)            71.0312         calculate D2E/DX2 analytically  !
 ! D17   D(1,2,4,15)           -48.08           calculate D2E/DX2 analytically  !
 ! D18   D(1,2,4,16)          -167.5971         calculate D2E/DX2 analytically  !
 ! D19   D(3,2,4,14)          -175.064          calculate D2E/DX2 analytically  !
 ! D20   D(3,2,4,15)            65.8248         calculate D2E/DX2 analytically  !
 ! D21   D(3,2,4,16)           -53.6924         calculate D2E/DX2 analytically  !
 ! D22   D(5,2,4,14)           -53.2462         calculate D2E/DX2 analytically  !
 ! D23   D(5,2,4,15)          -172.3575         calculate D2E/DX2 analytically  !
 ! D24   D(5,2,4,16)            68.1254         calculate D2E/DX2 analytically  !
 ! D25   D(1,2,5,6)           -150.0694         calculate D2E/DX2 analytically  !
 ! D26   D(1,2,5,10)            30.1833         calculate D2E/DX2 analytically  !
 ! D27   D(3,2,5,6)             96.0696         calculate D2E/DX2 analytically  !
 ! D28   D(3,2,5,10)           -83.6777         calculate D2E/DX2 analytically  !
 ! D29   D(4,2,5,6)            -26.1461         calculate D2E/DX2 analytically  !
 ! D30   D(4,2,5,10)           154.1066         calculate D2E/DX2 analytically  !
 ! D31   D(2,5,6,7)            179.0316         calculate D2E/DX2 analytically  !
 ! D32   D(2,5,6,17)             0.0603         calculate D2E/DX2 analytically  !
 ! D33   D(10,5,6,7)            -1.2206         calculate D2E/DX2 analytically  !
 ! D34   D(10,5,6,17)          179.8081         calculate D2E/DX2 analytically  !
 ! D35   D(2,5,10,9)          -178.9861         calculate D2E/DX2 analytically  !
 ! D36   D(2,5,10,21)           -0.2524         calculate D2E/DX2 analytically  !
 ! D37   D(6,5,10,9)             1.2552         calculate D2E/DX2 analytically  !
 ! D38   D(6,5,10,21)          179.9889         calculate D2E/DX2 analytically  !
 ! D39   D(5,6,7,8)              0.3099         calculate D2E/DX2 analytically  !
 ! D40   D(5,6,7,18)          -179.3055         calculate D2E/DX2 analytically  !
 ! D41   D(17,6,7,8)           179.2947         calculate D2E/DX2 analytically  !
 ! D42   D(17,6,7,18)           -0.3207         calculate D2E/DX2 analytically  !
 ! D43   D(6,7,8,9)              0.5927         calculate D2E/DX2 analytically  !
 ! D44   D(6,7,8,19)          -179.542          calculate D2E/DX2 analytically  !
 ! D45   D(18,7,8,9)          -179.7937         calculate D2E/DX2 analytically  !
 ! D46   D(18,7,8,19)            0.0716         calculate D2E/DX2 analytically  !
 ! D47   D(7,8,9,10)            -0.5606         calculate D2E/DX2 analytically  !
 ! D48   D(7,8,9,20)           179.7297         calculate D2E/DX2 analytically  !
 ! D49   D(19,8,9,10)          179.5742         calculate D2E/DX2 analytically  !
 ! D50   D(19,8,9,20)           -0.1355         calculate D2E/DX2 analytically  !
 ! D51   D(8,9,10,5)            -0.375          calculate D2E/DX2 analytically  !
 ! D52   D(8,9,10,21)         -179.0814         calculate D2E/DX2 analytically  !
 ! D53   D(20,9,10,5)          179.3358         calculate D2E/DX2 analytically  !
 ! D54   D(20,9,10,21)           0.6294         calculate D2E/DX2 analytically  !
 ! D55   D(24,22,23,26)         15.5541         calculate D2E/DX2 analytically  !
 ! D56   D(24,22,23,27)       -102.3428         calculate D2E/DX2 analytically  !
 ! D57   D(24,22,23,28)        138.6922         calculate D2E/DX2 analytically  !
 ! D58   D(25,22,23,26)       -101.802          calculate D2E/DX2 analytically  !
 ! D59   D(25,22,23,27)        140.3011         calculate D2E/DX2 analytically  !
 ! D60   D(25,22,23,28)         21.3361         calculate D2E/DX2 analytically  !
 ! D61   D(36,22,23,26)        138.2943         calculate D2E/DX2 analytically  !
 ! D62   D(36,22,23,27)         20.3974         calculate D2E/DX2 analytically  !
 ! D63   D(36,22,23,28)        -98.5676         calculate D2E/DX2 analytically  !
 ! D64   D(23,22,24,29)          8.8886         calculate D2E/DX2 analytically  !
 ! D65   D(23,22,24,30)       -103.6053         calculate D2E/DX2 analytically  !
 ! D66   D(23,22,24,31)        141.4518         calculate D2E/DX2 analytically  !
 ! D67   D(25,22,24,29)        125.5716         calculate D2E/DX2 analytically  !
 ! D68   D(25,22,24,30)         13.0777         calculate D2E/DX2 analytically  !
 ! D69   D(25,22,24,31)       -101.8652         calculate D2E/DX2 analytically  !
 ! D70   D(36,22,24,29)       -114.348          calculate D2E/DX2 analytically  !
 ! D71   D(36,22,24,30)        133.1581         calculate D2E/DX2 analytically  !
 ! D72   D(36,22,24,31)         18.2152         calculate D2E/DX2 analytically  !
 ! D73   D(23,22,36,37)         58.0746         calculate D2E/DX2 analytically  !
 ! D74   D(23,22,36,38)        -61.6693         calculate D2E/DX2 analytically  !
 ! D75   D(23,22,36,39)        178.1202         calculate D2E/DX2 analytically  !
 ! D76   D(24,22,36,37)        176.3921         calculate D2E/DX2 analytically  !
 ! D77   D(24,22,36,38)         56.6482         calculate D2E/DX2 analytically  !
 ! D78   D(24,22,36,39)        -63.5622         calculate D2E/DX2 analytically  !
 ! D79   D(25,22,36,37)        -62.3938         calculate D2E/DX2 analytically  !
 ! D80   D(25,22,36,38)        177.8623         calculate D2E/DX2 analytically  !
 ! D81   D(25,22,36,39)         57.6518         calculate D2E/DX2 analytically  !
 ! D82   D(22,23,26,29)        -33.9138         calculate D2E/DX2 analytically  !
 ! D83   D(22,23,26,32)         82.81           calculate D2E/DX2 analytically  !
 ! D84   D(22,23,26,33)       -156.6572         calculate D2E/DX2 analytically  !
 ! D85   D(27,23,26,29)         83.858          calculate D2E/DX2 analytically  !
 ! D86   D(27,23,26,32)       -159.4181         calculate D2E/DX2 analytically  !
 ! D87   D(27,23,26,33)        -38.8853         calculate D2E/DX2 analytically  !
 ! D88   D(28,23,26,29)       -156.5159         calculate D2E/DX2 analytically  !
 ! D89   D(28,23,26,32)        -39.7921         calculate D2E/DX2 analytically  !
 ! D90   D(28,23,26,33)         80.7407         calculate D2E/DX2 analytically  !
 ! D91   D(22,24,29,26)        -29.7716         calculate D2E/DX2 analytically  !
 ! D92   D(22,24,29,34)       -153.0759         calculate D2E/DX2 analytically  !
 ! D93   D(22,24,29,35)         87.4189         calculate D2E/DX2 analytically  !
 ! D94   D(30,24,29,26)         86.6941         calculate D2E/DX2 analytically  !
 ! D95   D(30,24,29,34)        -36.6102         calculate D2E/DX2 analytically  !
 ! D96   D(30,24,29,35)       -156.1154         calculate D2E/DX2 analytically  !
 ! D97   D(31,24,29,26)       -162.1444         calculate D2E/DX2 analytically  !
 ! D98   D(31,24,29,34)         74.5513         calculate D2E/DX2 analytically  !
 ! D99   D(31,24,29,35)        -44.9539         calculate D2E/DX2 analytically  !
 ! D100  D(23,26,29,24)         38.8201         calculate D2E/DX2 analytically  !
 ! D101  D(23,26,29,34)        161.4189         calculate D2E/DX2 analytically  !
 ! D102  D(23,26,29,35)        -77.8638         calculate D2E/DX2 analytically  !
 ! D103  D(32,26,29,24)        -78.33           calculate D2E/DX2 analytically  !
 ! D104  D(32,26,29,34)         44.2689         calculate D2E/DX2 analytically  !
 ! D105  D(32,26,29,35)        164.9862         calculate D2E/DX2 analytically  !
 ! D106  D(33,26,29,24)        161.4446         calculate D2E/DX2 analytically  !
 ! D107  D(33,26,29,34)        -75.9565         calculate D2E/DX2 analytically  !
 ! D108  D(33,26,29,35)         44.7608         calculate D2E/DX2 analytically  !
 --------------------------------------------------------------------------------
 Trust Radius=3.00D-01 FncErr=1.00D-07 GrdErr=1.00D-07 EigMax=2.50D+02 EigMin=1.00D-04
 Number of steps in this run=    233 maximum allowed number of steps=    234.
 Search for a saddle point of order  1.
 GradGradGradGradGradGradGradGradGradGradGradGradGradGradGradGradGradGrad

 Leave Link  103 at Sun Nov 30 20:45:35 2025, MaxMem=   104857600 cpu:               0.0 elap:               0.0
 (Enter /home/zhouoh/g16/l202.exe)
                          Input orientation:                          
 ---------------------------------------------------------------------
 Center     Atomic      Atomic             Coordinates (Angstroms)
 Number     Number       Type             X           Y           Z
 ---------------------------------------------------------------------
      1          8           0        0.963290   -0.492470    5.095980
      2          6           0        0.064520    0.555140    4.830130
      3          6           0       -0.545300    0.884060    6.206770
      4          6           0        0.824680    1.777180    4.296040
      5          6           0       -1.051950    0.085130    3.889630
      6          6           0       -1.697180    0.937930    2.992870
      7          6           0       -2.692890    0.457770    2.144280
      8          6           0       -3.062840   -0.882280    2.184540
      9          6           0       -2.437740   -1.737410    3.089440
     10          6           0       -1.445520   -1.254490    3.934610
     11          1           0       -1.035280   -0.000410    6.622880
     12          1           0        0.239340    1.211280    6.895610
     13          1           0       -1.289960    1.679970    6.103600
     14          1           0        1.193720    1.597870    3.280360
     15          1           0        1.682040    1.963590    4.948680
     16          1           0        0.202660    2.677630    4.281770
     17          1           0       -1.417310    1.985390    2.935180
     18          1           0       -3.175250    1.135270    1.445460
     19          1           0       -3.833630   -1.257640    1.517910
     20          1           0       -2.720660   -2.785420    3.133950
     21          1           0       -0.943400   -1.917300    4.631940
     22          6           0        1.477270   -0.941760    1.728750
     23          6           0        1.109480   -2.397030    1.338270
     24          6           0        2.291910   -1.080920    3.020930
     25          1           0        0.555430   -0.385590    1.929040
     26          6           0        1.370470   -3.243980    2.591280
     27          1           0        1.766250   -2.732760    0.524320
     28          1           0        0.078220   -2.475680    0.981820
     29          6           0        2.577330   -2.557210    3.239520
     30          1           0        1.582710   -0.765400    4.005120
     31          1           0        3.143310   -0.401780    3.125630
     32          1           0        0.511620   -3.185000    3.268560
     33          1           0        1.546190   -4.300060    2.364630
     34          1           0        2.717610   -2.810900    4.294950
     35          1           0        3.500800   -2.833870    2.709060
     36          6           0        2.244220   -0.199340    0.632440
     37          1           0        1.663630   -0.171440   -0.296360
     38          1           0        3.198950   -0.695190    0.418040
     39          1           0        2.459360    0.834450    0.926330
 ---------------------------------------------------------------------
                    Distance matrix (angstroms):
                    1          2          3          4          5
     1  O    0.000000
     2  C    1.405685   0.000000
     3  C    2.324765   1.541170   0.000000
     4  C    2.410483   1.535082   2.515034   0.000000
     5  C    2.418697   1.533608   2.502823   2.559286   0.000000
     6  C    3.680654   2.574032   3.414511   2.960130   1.395625
     7  C    4.794074   3.850530   4.614942   4.329459   2.424416
     8  C    4.983789   4.341164   5.063230   5.161780   2.808361
     9  C    4.140421   3.814065   4.491234   4.944857   2.425360
    10  C    2.780615   2.521297   3.247538   3.804663   1.396962
    11  H    2.562778   2.175350   1.093396   3.468928   2.734639
    12  H    2.581770   2.174233   1.094182   2.724083   3.459994
    13  H    3.288150   2.172921   1.094822   2.783599   2.738946
    14  H    2.778326   2.182697   3.478159   1.095422   2.775361
    15  H    2.563304   2.148059   2.776548   1.093505   3.482083
    16  H    3.360213   2.196530   2.735318   1.094497   2.906695
    17  H    4.059077   2.798619   3.560426   2.630933   2.157649
    18  H    5.753551   4.721086   5.445164   4.953513   3.403699
    19  H    6.033118   5.427020   6.114360   6.215142   3.894333
    20  H    4.762213   4.668361   5.257328   5.893828   3.405246
    21  H    2.425065   2.677339   3.238239   4.109516   2.138348
    22  C    3.435735   3.722248   5.241858   3.795983   3.481502
    23  C    4.215342   4.690452   6.099684   5.123821   4.164413
    24  C    2.533246   3.303205   4.696859   3.456502   3.646329
    25  H    3.194884   3.089060   4.595932   3.217570   2.578597
    26  C    3.743010   4.599051   5.812285   5.330679   4.317037
    27  H    5.154000   5.678571   7.121439   5.954157   5.216135
    28  H    4.652180   4.898525   6.243135   5.443168   4.036136
    29  C    3.211654   4.304762   5.513414   4.793220   4.536108
    30  H    1.283802   2.174711   3.477989   2.669074   2.770952
    31  H    2.939896   3.646912   4.975204   3.390246   4.291967
    32  H    3.285299   4.077628   5.129075   5.077101   3.677530
    33  H    4.722053   5.643315   6.783176   6.417458   5.320324
    34  H    3.015693   4.319205   5.287189   4.963231   4.770834
    35  H    4.197439   5.271845   6.513671   5.562545   5.535507
    36  C    4.652945   4.789669   6.326795   4.398146   4.642731
    37  H    5.447097   5.419038   6.948680   5.058764   4.996270
    38  H    5.188679   5.554684   7.072682   5.175776   5.543554
    39  H    4.624384   4.588347   6.075647   3.862106   4.655312
                    6          7          8          9         10
     6  C    0.000000
     7  C    1.393591   0.000000
     8  C    2.414868   1.390762   0.000000
     9  C    2.777625   2.403590   1.393141   0.000000
    10  C    2.399357   2.773634   2.411848   1.389973   0.000000
    11  H    3.807304   4.797443   4.958584   4.179625   2.994630
    12  H    4.365342   5.633905   6.122219   5.508944   4.205508
    13  H    3.223832   4.374723   5.006721   4.699047   3.652365
    14  H    2.979173   4.206690   5.046808   4.934374   3.940760
    15  H    4.036867   5.410376   6.184928   5.841812   4.600653
    16  H    2.880488   4.228576   5.266386   5.280714   4.277685
    17  H    1.085738   2.141553   3.390392   3.863200   3.390646
    18  H    2.148979   1.086290   2.151600   3.391000   3.859895
    19  H    3.400067   2.153197   1.086005   2.156014   3.397575
    20  H    3.864033   3.390944   2.154161   1.086439   2.147274
    21  H    3.377436   3.858772   3.398979   2.155161   1.085224
    22  C    3.899791   4.418324   4.563319   4.220408   3.675095
    23  C    4.662296   4.822609   4.518727   4.010544   3.817644
    24  C    4.470949   5.290020   5.423316   4.775486   3.851405
    25  H    2.820938   3.362911   3.661128   3.483247   2.963292
    26  C    5.201934   5.514858   5.039574   4.125576   3.700325
    27  H    5.618100   5.717314   5.431456   5.024350   4.912314
    28  H    4.341555   4.199463   3.721789   3.364099   3.540065
    29  C    5.527049   6.169674   5.977449   5.083849   4.285271
    30  H    3.831927   4.820749   4.990922   4.236424   3.068283
    31  H    5.024220   5.980226   6.295461   5.738757   4.736974
    32  H    4.685441   4.980227   4.387982   3.290338   2.828584
    33  H    6.192792   6.376151   5.740802   4.792100   4.548699
    34  H    5.936288   6.677057   6.448799   5.402154   4.459138
    35  H    6.428532   7.036737   6.867692   6.050882   5.335025
    36  C    4.732827   5.205046   5.571383   5.506656   5.062791
    37  H    4.831644   5.033080   5.385135   5.544109   5.361056
    38  H    5.767922   6.246839   6.508882   6.324150   5.852366
    39  H    4.643072   5.307633   5.918188   5.939284   5.353644
                   11         12         13         14         15
    11  H    0.000000
    12  H    1.779671   0.000000
    13  H    1.777130   1.784855   0.000000
    14  H    4.323815   3.759033   3.761129   0.000000
    15  H    3.747542   2.537300   3.201104   1.776372   0.000000
    16  H    3.766323   2.997280   2.557793   1.775078   1.772904
    17  H    4.205767   4.362195   3.185653   2.662104   3.696029
    18  H    5.716198   6.431900   5.054630   4.761172   6.045819
    19  H    5.955847   7.183614   6.010687   6.044371   7.250457
    20  H    4.771731   6.235808   5.550264   5.878523   6.725333
    21  H    2.765276   4.038699   3.902081   4.330181   4.696229
    22  C    5.581358   5.732756   5.802615   2.989584   4.341767
    23  C    6.186347   6.682894   6.714731   4.442751   5.690157
    24  C    5.021129   4.947764   5.473131   2.906758   3.654751
    25  H    4.971001   5.226540   5.009886   2.483464   3.988248
    26  C    5.706328   6.297305   6.607538   4.893831   5.724788
    27  H    7.246154   7.647238   7.742155   5.165066   6.452732
    28  H    6.260064   6.970835   6.736021   4.808475   6.165658
    29  C    5.570934   5.747583   6.411909   4.379582   4.915323
    30  H    3.780443   3.750579   4.316907   2.502326   2.889214
    31  H    5.463741   5.024714   5.732004   2.797042   3.324725
    32  H    4.877087   5.705866   5.911943   4.831278   5.540818
    33  H    6.579033   7.253448   7.601605   5.978994   6.777100
    34  H    5.234720   5.392883   6.284882   4.773771   4.929049
    35  H    6.627406   6.672897   7.406013   5.028849   5.598161
    36  C    6.832281   6.725823   6.779073   3.368233   4.860477
    37  H    7.428947   7.460895   7.287723   4.017984   5.662962
    38  H    7.543969   7.372437   7.623470   4.179946   5.467799
    39  H    6.734997   6.379874   6.447979   2.779588   4.249527
                   16         17         18         19         20
    16  H    0.000000
    17  H    2.217387   0.000000
    18  H    4.672666   2.456079   0.000000
    19  H    6.278289   4.285382   2.482888   0.000000
    20  H    6.301445   4.949632   4.292955   2.486845   0.000000
    21  H    4.748627   4.281889   4.944997   4.299507   2.481181
    22  C    4.608961   4.289787   5.102965   5.324462   4.795444
    23  C    5.936218   5.304752   5.554057   5.075905   4.247974
    24  C    4.481225   4.813307   6.106017   6.309718   5.295654
    25  H    3.878544   3.244313   4.057689   4.493701   4.236007
    26  C    6.267934   5.936017   6.415162   5.672771   4.152362
    27  H    6.770197   6.181281   6.342600   5.875530   5.190887
    28  H    6.120601   5.094445   4.882519   4.132019   3.544197
    29  C    5.841994   6.056813   7.067194   6.764113   5.303954
    30  H    3.719614   4.208531   5.727354   5.980406   4.833054
    31  H    4.412125   5.151127   6.716375   7.210753   6.329925
    32  H    5.957557   5.528548   5.965018   5.065638   3.259665
    33  H    7.359936   6.972427   7.258077   6.238246   4.592602
    34  H    6.037310   6.476954   7.643144   7.283084   5.560877
    35  H    6.612698   6.889427   7.868952   7.595867   6.236140
    36  C    5.075681   4.845870   5.640287   6.232521   6.131508
    37  H    5.586672   4.958524   5.306240   5.889930   6.149953
    38  H    5.939872   5.901810   6.710931   7.140255   6.840103
    39  H    4.443983   4.515386   5.666464   6.657967   6.694001
                   21         22         23         24         25
    21  H    0.000000
    22  C    3.903823   0.000000
    23  C    3.910591   1.550985   0.000000
    24  C    3.709733   1.533862   2.441645   0.000000
    25  H    3.449391   1.095094   2.168380   2.165888   0.000000
    26  C    3.358328   2.460809   1.534755   2.390079   3.045200
    27  H    4.987958   2.177577   1.098443   3.039400   2.991409
    28  H    3.831302   2.206390   1.093956   3.317190   2.343807
    29  C    3.839773   2.470271   2.407279   1.519434   3.243666
    30  H    2.846227   2.285625   3.162001   1.253454   2.347268
    31  H    4.611612   2.240210   3.363353   1.094109   2.851177
    32  H    2.362827   2.887147   2.168952   2.767292   3.103696
    33  H    4.125082   3.418665   2.205823   3.368930   4.061332
    34  H    3.783527   3.408447   3.391066   2.190246   4.019289
    35  H    4.928335   2.938667   2.790754   2.152095   3.908671
    36  C    5.395212   1.530129   2.572095   2.546437   2.137258
    37  H    5.842326   2.174671   2.816442   3.496613   2.495270
    38  H    6.034034   2.177829   2.847625   2.783262   3.060583
    39  H    5.734322   2.182499   3.526235   2.843243   2.473636
                   26         27         28         29         30
    26  C    0.000000
    27  H    2.165713   0.000000
    28  H    2.202398   1.767722   0.000000
    29  C    1.532442   2.839186   3.368888   0.000000
    30  H    2.861354   4.002519   3.785352   2.187692   0.000000
    31  H    3.392137   3.754541   4.276887   2.231408   1.827893
    32  H    1.095358   3.051143   2.433136   2.159195   2.746674
    33  H    1.094328   2.427261   2.719460   2.205948   3.896968
    34  H    2.214686   3.889581   4.249186   1.094518   2.357132
    35  H    2.172641   2.791411   3.850417   1.100330   3.104418
    36  C    3.724289   2.580380   3.161542   3.530918   3.483244
    37  H    4.226690   2.691544   3.075190   4.362246   4.343048
    38  H    3.816103   2.493114   3.636887   3.437191   3.935010
    39  H    4.537767   3.656091   4.077973   4.107082   3.578685
                   31         32         33         34         35
    31  H    0.000000
    32  H    3.833084   0.000000
    33  H    4.280946   1.769402   0.000000
    34  H    2.711529   2.461670   2.704803   0.000000
    35  H    2.493269   3.061295   2.467559   1.768887   0.000000
    36  C    2.658071   4.343408   4.505955   4.523088   3.582191
    37  H    3.735308   4.808048   4.913264   5.399792   4.415459
    38  H    2.724010   4.641806   4.417682   4.442786   3.148625
    39  H    2.613996   5.043383   5.409786   4.970198   4.209429
                   36         37         38         39
    36  C    0.000000
    37  H    1.095688   0.000000
    38  H    1.096970   1.772537   0.000000
    39  H    1.096074   1.771997   1.773457   0.000000
 Stoichiometry    C15H23O(2)
 Framework group  C1[X(C15H23O)]
 Deg. of freedom   111
 Full point group                 C1      NOp   1
 Largest Abelian subgroup         C1      NOp   1
 Largest concise Abelian subgroup C1      NOp   1
                         Standard orientation:                         
 ---------------------------------------------------------------------
 Center     Atomic      Atomic             Coordinates (Angstroms)
 Number     Number       Type             X           Y           Z
 ---------------------------------------------------------------------
      1          8           0       -0.171277   -1.863623   -0.907730
      2          6           0       -1.261063   -1.561593   -0.072808
      3          6           0       -2.455056   -2.266762   -0.745358
      4          6           0       -1.031969   -2.152819    1.325207
      5          6           0       -1.522887   -0.050678   -0.049547
      6          6           0       -2.064714    0.608129    1.055063
      7          6           0       -2.265197    1.987065    1.034135
      8          6           0       -1.932415    2.727286   -0.095265
      9          6           0       -1.408486    2.076064   -1.209828
     10          6           0       -1.210637    0.700464   -1.185235
     11          1           0       -2.586052   -1.895572   -1.765443
     12          1           0       -2.280965   -3.346419   -0.780965
     13          1           0       -3.371546   -2.067385   -0.180618
     14          1           0       -0.244191   -1.609195    1.857961
     15          1           0       -0.719462   -3.194712    1.213172
     16          1           0       -1.938978   -2.131010    1.937401
     17          1           0       -2.321369    0.053105    1.952228
     18          1           0       -2.677652    2.482808    1.908290
     19          1           0       -2.081894    3.802875   -0.108447
     20          1           0       -1.148560    2.642174   -2.099944
     21          1           0       -0.789168    0.187800   -2.043869
     22          6           0        1.818694    0.309990    0.858536
     23          6           0        2.383970    1.390240   -0.100148
     24          6           0        1.991461   -1.011402    0.099057
     25          1           0        0.754226    0.506471    1.024466
     26          6           0        2.478138    0.718402   -1.476825
     27          1           0        3.387853    1.684835    0.234530
     28          1           0        1.763718    2.291303   -0.110757
     29          6           0        2.826688   -0.735328   -1.139837
     30          1           0        0.886788   -1.382447   -0.362648
     31          1           0        2.288847   -1.874716    0.701822
     32          1           0        1.504327    0.752057   -1.977195
     33          1           0        3.209966    1.195128   -2.136153
     34          1           0        2.625370   -1.439406   -1.953295
     35          1           0        3.894385   -0.820317   -0.887795
     36          6           0        2.510944    0.293686    2.223021
     37          1           0        2.424934    1.269722    2.713416
     38          1           0        3.578106    0.062449    2.117954
     39          1           0        2.066709   -0.457013    2.886712
 ---------------------------------------------------------------------
 Rotational constants (GHZ):           0.6228612           0.4455586           0.3624798
 Leave Link  202 at Sun Nov 30 20:45:35 2025, MaxMem=   104857600 cpu:               0.0 elap:               0.0
 (Enter /home/zhouoh/g16/l301.exe)
 Standard basis: STO-3G (5D, 7F)
 Ernie: Thresh=  0.10000D-02 Tol=  0.10000D-05 Strict=F.
 There are   103 symmetry adapted cartesian basis functions of A   symmetry.
 There are   103 symmetry adapted basis functions of A   symmetry.
   103 basis functions,   309 primitive gaussians,   103 cartesian basis functions
    61 alpha electrons       60 beta electrons
       nuclear repulsion energy      1170.8997266861 Hartrees.
 IExCor=    0 DFT=F Ex=HF Corr=None ExCW=0 ScaHFX=  1.000000
 ScaDFX=  1.000000  1.000000  1.000000  1.000000 ScalE2=  1.000000  1.000000
 IRadAn=      5 IRanWt=     -1 IRanGd=            0 ICorTp=0 IEmpDi=  4
 NAtoms=   39 NActive=   39 NUniq=   39 SFac= 1.00D+00 NAtFMM=   60 NAOKFM=F Big=F
 Integral buffers will be    131072 words long.
 Raffenetti 2 integral format.
 Two-electron integral symmetry is turned on.
 Leave Link  301 at Sun Nov 30 20:45:35 2025, MaxMem=   104857600 cpu:               0.0 elap:               0.0
 (Enter /home/zhouoh/g16/l402.exe)
 External calculation of energy, first and second derivatives.
 Running external command "python ../GauUMA_client.py R"
         input file       "/home/zhouoh/scratch/Gau-2707484.EIn"
         output file      "/home/zhouoh/scratch/Gau-2707484.EOu"
         message file     "/home/zhouoh/scratch/Gau-2707484.EMs"
         fchk file        "/home/zhouoh/scratch/Gau-2707484.EFC"
         mat. el file     "/home/zhouoh/scratch/Gau-2707484.EUF"
Sent job to server.
Received result from server:
SCF Done:  E(UMA) =  -660.5237016760536     A.U.
 Recovered energy= -660.523701676     dipole=      0.000000000000      0.000000000000      0.000000000000
 Energy=    -660.523702     NIter=   0.
 Dipole moment=       0.000000       0.000000       0.000000
 Leave Link  402 at Sun Nov 30 20:45:43 2025, MaxMem=   104857600 cpu:               0.0 elap:               8.0
 (Enter /home/zhouoh/g16/l601.exe)
 Leave Link  601 at Sun Nov 30 20:45:43 2025, MaxMem=   104857600 cpu:               0.0 elap:               0.0
 (Enter /home/zhouoh/g16/l716.exe)
 Dipole        = 0.00000000D+00 0.00000000D+00 0.00000000D+00
 ***** Axes restored to original set *****
 -------------------------------------------------------------------
 Center     Atomic                   Forces (Hartrees/Bohr)
 Number     Number              X              Y              Z
 -------------------------------------------------------------------
      1        8           0.001669832   -0.001792602   -0.002840127
      2        6          -0.002356307    0.004230600   -0.000510415
      3        6           0.000131347   -0.000103420    0.001028674
      4        6          -0.000353194    0.000176533   -0.000208558
      5        6          -0.001531554   -0.001427727   -0.001697428
      6        6           0.000090217   -0.001263370    0.000597717
      7        6           0.000679250   -0.001184067    0.001302018
      8        6           0.001306814    0.000663333    0.001092940
      9        6           0.000192870    0.002127219   -0.000084672
     10        6          -0.000375547    0.001819903   -0.000825519
     11        1           0.000996889    0.001909287   -0.001273914
     12        1          -0.001609467   -0.000626498   -0.002005458
     13        1           0.001816055   -0.001895757   -0.000283515
     14        1          -0.001021590    0.000096423    0.002288991
     15        1          -0.002206497   -0.000441044   -0.001172979
     16        1           0.000999349   -0.002595948    0.000010389
     17        1          -0.000344346   -0.002174341    0.000129617
     18        1           0.001053819   -0.001606160    0.001579207
     19        1           0.001891713    0.000876673    0.001561584
     20        1           0.000509034    0.002268989   -0.000203759
     21        1          -0.001253982    0.000948034   -0.001320263
     22        6           0.000103235   -0.001117347    0.000082172
     23        6           0.000627981    0.000166631   -0.000564365
     24        6           0.002479812   -0.001139940   -0.003887095
     25        1           0.001447661   -0.001015541    0.000189675
     26        6          -0.000314672   -0.000943259    0.000199381
     27        1          -0.001328719    0.001183394    0.001862092
     28        1           0.002201554    0.000117117    0.000588300
     29        6          -0.000065945    0.000035035   -0.000251746
     30        1          -0.001403324    0.001139818    0.004795860
     31        1          -0.002223449   -0.001079051   -0.000018291
     32        1           0.001913780   -0.000101965   -0.001347685
     33        1          -0.000518575    0.002649540    0.000545552
     34        1          -0.000267621    0.000724003   -0.002393694
     35        1          -0.001893981    0.000643731    0.000985952
     36        6           0.000513410    0.000441692   -0.000029231
     37        1           0.001312455   -0.000150845    0.002240934
     38        1          -0.002370569    0.000948409    0.000530814
     39        1          -0.000497734   -0.002507476   -0.000693154
 -------------------------------------------------------------------
 Cartesian Forces:  Max     0.004795860 RMS     0.001463403
 FormGI is forming the generalized inverse of G from B-inverse, IUseBI=4.
 Leave Link  716 at Sun Nov 30 20:45:43 2025, MaxMem=   104857600 cpu:               0.0 elap:               0.0
 (Enter /home/zhouoh/g16/l103.exe)

 GradGradGradGradGradGradGradGradGradGradGradGradGradGradGradGradGradGrad
 Berny optimization.
 Red2BG is reusing G-inverse.
 Internal  Forces:  Max     0.004724571 RMS     0.001277614
 Search for a saddle point.
 Step number   1 out of a maximum of  233
 All quantities printed in internal units (Hartrees-Bohrs-Radians)
 Swapping is turned off.
 Second derivative matrix not updated -- analytic derivatives used.
 ITU=  0
     Eigenvalues ---   -0.07789   0.00021   0.00250   0.00261   0.00295
     Eigenvalues ---    0.00317   0.00395   0.00628   0.01052   0.01357
     Eigenvalues ---    0.01486   0.01649   0.01774   0.01807   0.02119
     Eigenvalues ---    0.02424   0.02466   0.02608   0.02769   0.02804
     Eigenvalues ---    0.02911   0.03040   0.03531   0.03746   0.03800
     Eigenvalues ---    0.03915   0.03969   0.04050   0.04292   0.04325
     Eigenvalues ---    0.04363   0.04375   0.04388   0.04482   0.04587
     Eigenvalues ---    0.04637   0.04735   0.05247   0.05652   0.05839
     Eigenvalues ---    0.06152   0.06198   0.06624   0.07540   0.08601
     Eigenvalues ---    0.08884   0.08906   0.09327   0.10452   0.10649
     Eigenvalues ---    0.11197   0.11423   0.11681   0.11812   0.11997
     Eigenvalues ---    0.12071   0.12411   0.12816   0.13857   0.13996
     Eigenvalues ---    0.14171   0.14389   0.14949   0.17041   0.17156
     Eigenvalues ---    0.18117   0.18756   0.19065   0.19172   0.19578
     Eigenvalues ---    0.20628   0.22803   0.22995   0.23238   0.26178
     Eigenvalues ---    0.26439   0.27258   0.27621   0.28146   0.28458
     Eigenvalues ---    0.28838   0.29558   0.31729   0.31912   0.32142
     Eigenvalues ---    0.32581   0.32746   0.32957   0.33228   0.33291
     Eigenvalues ---    0.33405   0.33451   0.33484   0.33494   0.33546
     Eigenvalues ---    0.33660   0.33858   0.34080   0.34112   0.34851
     Eigenvalues ---    0.35234   0.35391   0.35606   0.35964   0.36202
     Eigenvalues ---    0.41674   0.42126   0.44244   0.47026   0.47170
     Eigenvalues ---    0.51388
 Eigenvectors required to have negative eigenvalues:
                          R2        R31       D98       D66       D97
   1                   -0.80294   0.54997  -0.06349   0.05122  -0.05025
                          D69       D99       D70       A53       R1
   1                    0.04965  -0.04946  -0.04904  -0.04903   0.04876
 RFO step:  Lambda0=1.773126825D-04 Lambda=-1.16455391D-03.
 Linear search not attempted -- option 19 set.
 Iteration  1 RMS(Cart)=  0.03720113 RMS(Int)=  0.00031717
 Iteration  2 RMS(Cart)=  0.00061271 RMS(Int)=  0.00003413
 Iteration  3 RMS(Cart)=  0.00000017 RMS(Int)=  0.00003413
 ITry= 1 IFail=0 DXMaxC= 1.53D-01 DCOld= 1.00D+10 DXMaxT= 3.00D-01 DXLimC= 3.00D+00 Rises=F
 Variable       Old X    -DE/DX   Delta X   Delta X   Delta X     New X
                                 (Linear)    (Quad)   (Total)
    R1        2.65636   0.00222   0.00000   0.00495   0.00495   2.66131
    R2        2.42603  -0.00254   0.00000   0.03717   0.03717   2.46320
    R3        2.91239  -0.00294   0.00000  -0.00756  -0.00756   2.90483
    R4        2.90088  -0.00380   0.00000  -0.01329  -0.01329   2.88759
    R5        2.89810  -0.00324   0.00000  -0.01021  -0.01021   2.88789
    R6        2.06622  -0.00248   0.00000  -0.00750  -0.00750   2.05872
    R7        2.06770  -0.00260   0.00000  -0.00802  -0.00802   2.05968
    R8        2.06891  -0.00259   0.00000  -0.00741  -0.00741   2.06151
    R9        2.07005  -0.00248   0.00000  -0.00768  -0.00768   2.06237
   R10        2.06643  -0.00251   0.00000  -0.00739  -0.00739   2.05904
   R11        2.06830  -0.00270   0.00000  -0.00837  -0.00837   2.05993
   R12        2.63735  -0.00472   0.00000  -0.00835  -0.00835   2.62900
   R13        2.63988  -0.00452   0.00000  -0.00916  -0.00915   2.63072
   R14        2.63351  -0.00434   0.00000  -0.00838  -0.00838   2.62513
   R15        2.05175  -0.00219   0.00000  -0.00665  -0.00665   2.04510
   R16        2.62816  -0.00446   0.00000  -0.00852  -0.00852   2.61964
   R17        2.05279  -0.00249   0.00000  -0.00672  -0.00672   2.04607
   R18        2.63265  -0.00434   0.00000  -0.00856  -0.00856   2.62409
   R19        2.05225  -0.00260   0.00000  -0.00708  -0.00708   2.04517
   R20        2.62667  -0.00395   0.00000  -0.00706  -0.00706   2.61961
   R21        2.05307  -0.00233   0.00000  -0.00639  -0.00639   2.04668
   R22        2.05078  -0.00201   0.00000  -0.00523  -0.00523   2.04555
   R23        2.93094  -0.00264   0.00000  -0.01112  -0.01116   2.91978
   R24        2.89858  -0.00302   0.00000  -0.00537  -0.00537   2.89321
   R25        2.06943  -0.00170   0.00000  -0.00477  -0.00477   2.06466
   R26        2.89153  -0.00261   0.00000  -0.00889  -0.00889   2.88263
   R27        2.90027  -0.00199   0.00000  -0.00736  -0.00738   2.89289
   R28        2.07576  -0.00254   0.00000  -0.00707  -0.00707   2.06869
   R29        2.06728  -0.00228   0.00000  -0.00632  -0.00632   2.06095
   R30        2.87131  -0.00210   0.00000  -0.00362  -0.00359   2.86773
   R31        2.36869   0.00246   0.00000  -0.02685  -0.02685   2.34184
   R32        2.06757  -0.00240   0.00000  -0.00629  -0.00629   2.06128
   R33        2.89590  -0.00201   0.00000  -0.00618  -0.00616   2.88974
   R34        2.06993  -0.00234   0.00000  -0.00538  -0.00538   2.06455
   R35        2.06798  -0.00275   0.00000  -0.00807  -0.00807   2.05991
   R36        2.06834  -0.00251   0.00000  -0.00726  -0.00726   2.06108
   R37        2.07932  -0.00223   0.00000  -0.00686  -0.00686   2.07246
   R38        2.07055  -0.00260   0.00000  -0.00739  -0.00739   2.06316
   R39        2.07297  -0.00260   0.00000  -0.00748  -0.00748   2.06550
   R40        2.07128  -0.00265   0.00000  -0.00777  -0.00777   2.06351
    A1        1.88203   0.00195   0.00000   0.01423   0.01423   1.89626
    A2        1.81637  -0.00040   0.00000  -0.00620  -0.00620   1.81018
    A3        1.92034   0.00025   0.00000   0.00443   0.00443   1.92477
    A4        1.93163   0.00088   0.00000   0.00297   0.00296   1.93458
    A5        1.91433   0.00027   0.00000  -0.00068  -0.00067   1.91366
    A6        1.90195  -0.00003   0.00000   0.00016   0.00016   1.90211
    A7        1.97263  -0.00091   0.00000  -0.00113  -0.00114   1.97149
    A8        1.92262  -0.00018   0.00000   0.00054   0.00054   1.92316
    A9        1.92028  -0.00040   0.00000  -0.00145  -0.00146   1.91883
   A10        1.91783  -0.00068   0.00000  -0.00826  -0.00828   1.90955
   A11        1.90041   0.00048   0.00000   0.00629   0.00629   1.90670
   A12        1.89561   0.00035   0.00000   0.00069   0.00068   1.89629
   A13        1.90675   0.00045   0.00000   0.00237   0.00235   1.90910
   A14        1.93811  -0.00030   0.00000  -0.00141  -0.00142   1.93670
   A15        1.89263  -0.00010   0.00000   0.00194   0.00194   1.89458
   A16        1.95848  -0.00079   0.00000  -0.00752  -0.00753   1.95095
   A17        1.89352   0.00040   0.00000   0.00456   0.00456   1.89808
   A18        1.89024   0.00044   0.00000   0.00171   0.00170   1.89194
   A19        1.88927   0.00042   0.00000   0.00115   0.00115   1.89042
   A20        2.14522  -0.00237   0.00000  -0.00840  -0.00843   2.13680
   A21        2.07060   0.00172   0.00000   0.00572   0.00569   2.07629
   A22        2.06736   0.00066   0.00000   0.00265   0.00264   2.07000
   A23        2.10721  -0.00015   0.00000  -0.00069  -0.00068   2.10652
   A24        2.09957  -0.00010   0.00000   0.00036   0.00036   2.09993
   A25        2.07627   0.00025   0.00000   0.00032   0.00031   2.07658
   A26        2.09950  -0.00010   0.00000  -0.00066  -0.00066   2.09885
   A27        2.08760   0.00013   0.00000   0.00112   0.00112   2.08872
   A28        2.09607  -0.00003   0.00000  -0.00047  -0.00047   2.09560
   A29        2.08390   0.00010   0.00000   0.00047   0.00046   2.08436
   A30        2.09909  -0.00004   0.00000   0.00008   0.00008   2.09917
   A31        2.10020  -0.00006   0.00000  -0.00054  -0.00054   2.09966
   A32        2.09670   0.00016   0.00000   0.00119   0.00119   2.09789
   A33        2.09655  -0.00023   0.00000  -0.00178  -0.00178   2.09478
   A34        2.08992   0.00007   0.00000   0.00058   0.00058   2.09051
   A35        2.11146  -0.00066   0.00000  -0.00293  -0.00292   2.10854
   A36        2.06692   0.00075   0.00000   0.00558   0.00558   2.07251
   A37        2.10459  -0.00008   0.00000  -0.00262  -0.00262   2.10197
   A38        1.82648   0.00060   0.00000   0.00115   0.00104   1.82753
   A39        1.89965   0.00008   0.00000  -0.00072  -0.00069   1.89896
   A40        1.97549  -0.00044   0.00000  -0.00068  -0.00063   1.97485
   A41        1.91673  -0.00024   0.00000  -0.00437  -0.00434   1.91239
   A42        1.96211  -0.00038   0.00000   0.00071   0.00075   1.96286
   A43        1.88237   0.00037   0.00000   0.00353   0.00350   1.88587
   A44        1.84619  -0.00004   0.00000  -0.00408  -0.00427   1.84192
   A45        1.90875  -0.00030   0.00000  -0.00287  -0.00284   1.90590
   A46        1.95307   0.00010   0.00000   0.00259   0.00267   1.95574
   A47        1.91201   0.00023   0.00000   0.00027   0.00032   1.91233
   A48        1.96779  -0.00000   0.00000   0.00410   0.00415   1.97194
   A49        1.87572   0.00001   0.00000  -0.00022  -0.00025   1.87547
   A50        1.88505  -0.00050   0.00000  -0.00379  -0.00388   1.88117
   A51        1.91573  -0.00001   0.00000   0.00175   0.00180   1.91753
   A52        2.02371   0.00023   0.00000  -0.00530  -0.00522   2.01849
   A53        1.81100   0.00070   0.00000   0.00994   0.00995   1.82095
   A54        2.02991   0.00019   0.00000  -0.00064  -0.00074   2.02917
   A55        1.78124  -0.00055   0.00000   0.00060   0.00058   1.78182
   A56        1.80490  -0.00054   0.00000  -0.00646  -0.00655   1.79835
   A57        1.91958   0.00020   0.00000   0.00064   0.00064   1.92023
   A58        1.97227   0.00014   0.00000   0.00189   0.00193   1.97420
   A59        1.90902   0.00010   0.00000  -0.00003  -0.00003   1.90899
   A60        1.97539   0.00020   0.00000   0.00250   0.00255   1.97794
   A61        1.88171  -0.00010   0.00000   0.00122   0.00120   1.88291
   A62        1.79942   0.00047   0.00000  -0.00056  -0.00063   1.79879
   A63        1.96926  -0.00022   0.00000  -0.00010  -0.00006   1.96920
   A64        1.90985  -0.00019   0.00000   0.00106   0.00106   1.91091
   A65        1.98774  -0.00003   0.00000   0.00179   0.00181   1.98954
   A66        1.92234  -0.00016   0.00000  -0.00265  -0.00262   1.91972
   A67        1.87447   0.00012   0.00000   0.00035   0.00034   1.87481
   A68        1.93276  -0.00013   0.00000   0.00097   0.00097   1.93373
   A69        1.93580  -0.00027   0.00000  -0.00318  -0.00318   1.93262
   A70        1.94325   0.00010   0.00000   0.00200   0.00200   1.94525
   A71        1.88285   0.00011   0.00000  -0.00074  -0.00074   1.88210
   A72        1.88313   0.00007   0.00000   0.00026   0.00025   1.88338
   A73        1.88379   0.00014   0.00000   0.00071   0.00071   1.88449
   A74        3.25282  -0.00026   0.00000  -0.03953  -0.03949   3.21333
   A75        3.15863  -0.00125   0.00000   0.00616   0.00617   3.16480
    D1       -3.06710   0.00054   0.00000   0.03218   0.03218  -3.03492
    D2       -1.01724   0.00075   0.00000   0.03012   0.03011  -0.98713
    D3        1.17533   0.00038   0.00000   0.03401   0.03402   1.20935
    D4       -0.61264  -0.00035   0.00000  -0.02270  -0.02265  -0.63529
    D5       -2.63081  -0.00038   0.00000  -0.01894  -0.01875  -2.64956
    D6        1.55713  -0.00072   0.00000  -0.02858  -0.02882   1.52831
    D7       -1.02575  -0.00030   0.00000  -0.00044  -0.00043  -1.02619
    D8        1.06953  -0.00007   0.00000   0.00678   0.00678   1.07631
    D9       -3.11355  -0.00019   0.00000   0.00356   0.00356  -3.10999
   D10       -3.07977  -0.00050   0.00000  -0.00194  -0.00194  -3.08172
   D11       -0.98448  -0.00026   0.00000   0.00527   0.00526  -0.97922
   D12        1.11562  -0.00039   0.00000   0.00205   0.00205   1.11767
   D13        1.03553   0.00048   0.00000  -0.00018  -0.00018   1.03535
   D14        3.13082   0.00072   0.00000   0.00703   0.00703   3.13785
   D15       -1.05227   0.00059   0.00000   0.00381   0.00382  -1.04845
   D16        1.23973   0.00032   0.00000  -0.01003  -0.01003   1.22970
   D17       -0.83915   0.00008   0.00000  -0.01600  -0.01600  -0.85515
   D18       -2.92512   0.00012   0.00000  -0.01409  -0.01408  -2.93920
   D19       -3.05544   0.00013   0.00000  -0.01540  -0.01540  -3.07085
   D20        1.14886  -0.00012   0.00000  -0.02137  -0.02137   1.12749
   D21       -0.93711  -0.00008   0.00000  -0.01946  -0.01945  -0.95656
   D22       -0.92932  -0.00034   0.00000  -0.01646  -0.01647  -0.94579
   D23       -3.00821  -0.00059   0.00000  -0.02243  -0.02243  -3.03064
   D24        1.18901  -0.00055   0.00000  -0.02052  -0.02052   1.16849
   D25       -2.61921  -0.00003   0.00000  -0.01043  -0.01042  -2.62962
   D26        0.52680   0.00028   0.00000   0.00101   0.00101   0.52780
   D27        1.67673  -0.00001   0.00000  -0.00469  -0.00468   1.67205
   D28       -1.46045   0.00031   0.00000   0.00675   0.00674  -1.45371
   D29       -0.45634   0.00028   0.00000  -0.00317  -0.00316  -0.45950
   D30        2.68967   0.00060   0.00000   0.00827   0.00826   2.69793
   D31        3.12469   0.00028   0.00000   0.01332   0.01329   3.13798
   D32        0.00105   0.00029   0.00000   0.01399   0.01396   0.01502
   D33       -0.02130  -0.00003   0.00000   0.00191   0.00191  -0.01939
   D34        3.13824  -0.00002   0.00000   0.00258   0.00258   3.14083
   D35       -3.12390  -0.00031   0.00000  -0.01263  -0.01268  -3.13658
   D36       -0.00440  -0.00015   0.00000  -0.01059  -0.01063  -0.01503
   D37        0.02191   0.00000   0.00000  -0.00168  -0.00167   0.02024
   D38        3.14140   0.00016   0.00000   0.00036   0.00038  -3.14140
   D39        0.00541   0.00000   0.00000  -0.00134  -0.00134   0.00406
   D40       -3.12947   0.00002   0.00000  -0.00059  -0.00059  -3.13006
   D41        3.12928  -0.00001   0.00000  -0.00200  -0.00201   3.12727
   D42       -0.00560   0.00000   0.00000  -0.00125  -0.00125  -0.00685
   D43        0.01035   0.00004   0.00000   0.00041   0.00042   0.01076
   D44       -3.13360   0.00002   0.00000   0.00106   0.00106  -3.13254
   D45       -3.13799   0.00003   0.00000  -0.00033  -0.00034  -3.13833
   D46        0.00125   0.00001   0.00000   0.00031   0.00030   0.00155
   D47       -0.00978  -0.00007   0.00000  -0.00016  -0.00016  -0.00995
   D48        3.13688  -0.00005   0.00000   0.00019   0.00019   3.13706
   D49        3.13416  -0.00005   0.00000  -0.00081  -0.00080   3.13336
   D50       -0.00236  -0.00003   0.00000  -0.00045  -0.00045  -0.00282
   D51       -0.00654   0.00005   0.00000   0.00083   0.00082  -0.00572
   D52       -3.12556  -0.00011   0.00000  -0.00136  -0.00137  -3.12693
   D53        3.13000   0.00004   0.00000   0.00047   0.00047   3.13047
   D54        0.01098  -0.00013   0.00000  -0.00172  -0.00173   0.00926
   D55        0.27147   0.00019   0.00000   0.02982   0.02983   0.30130
   D56       -1.78622   0.00010   0.00000   0.03318   0.03320  -1.75302
   D57        2.42064   0.00022   0.00000   0.03372   0.03371   2.45435
   D58       -1.77678   0.00012   0.00000   0.03461   0.03463  -1.74215
   D59        2.44872   0.00002   0.00000   0.03798   0.03800   2.48672
   D60        0.37238   0.00015   0.00000   0.03852   0.03851   0.41090
   D61        2.41369  -0.00012   0.00000   0.03108   0.03109   2.44479
   D62        0.35600  -0.00022   0.00000   0.03445   0.03446   0.39046
   D63       -1.72033  -0.00010   0.00000   0.03499   0.03497  -1.68536
   D64        0.15513  -0.00020   0.00000  -0.02114  -0.02113   0.13401
   D65       -1.80825  -0.00076   0.00000  -0.03171  -0.03168  -1.83993
   D66        2.46880  -0.00020   0.00000  -0.03040  -0.03043   2.43837
   D67        2.19164   0.00010   0.00000  -0.02343  -0.02342   2.16821
   D68        0.22825  -0.00045   0.00000  -0.03399  -0.03398   0.19427
   D69       -1.77788   0.00011   0.00000  -0.03269  -0.03273  -1.81061
   D70       -1.99575   0.00016   0.00000  -0.02149  -0.02148  -2.01723
   D71        2.32405  -0.00040   0.00000  -0.03206  -0.03203   2.29201
   D72        0.31792   0.00016   0.00000  -0.03075  -0.03078   0.28713
   D73        1.01359  -0.00007   0.00000   0.00526   0.00530   1.01889
   D74       -1.07633   0.00005   0.00000   0.00764   0.00768  -1.06865
   D75        3.10878  -0.00000   0.00000   0.00756   0.00760   3.11638
   D76        3.07862   0.00013   0.00000   0.00678   0.00674   3.08536
   D77        0.98870   0.00026   0.00000   0.00916   0.00912   0.99782
   D78       -1.10937   0.00020   0.00000   0.00908   0.00904  -1.10033
   D79       -1.08898  -0.00015   0.00000   0.00416   0.00416  -1.08482
   D80        3.10428  -0.00003   0.00000   0.00654   0.00654   3.11082
   D81        1.00621  -0.00008   0.00000   0.00645   0.00646   1.01267
   D82       -0.59191   0.00009   0.00000  -0.02746  -0.02741  -0.61932
   D83        1.44531   0.00001   0.00000  -0.03060  -0.03060   1.41471
   D84       -2.73418   0.00012   0.00000  -0.02732  -0.02729  -2.76148
   D85        1.46360  -0.00017   0.00000  -0.03294  -0.03293   1.43067
   D86       -2.78237  -0.00025   0.00000  -0.03608  -0.03611  -2.81848
   D87       -0.67868  -0.00013   0.00000  -0.03279  -0.03280  -0.71148
   D88       -2.73172  -0.00000   0.00000  -0.03038  -0.03033  -2.76205
   D89       -0.69450  -0.00009   0.00000  -0.03352  -0.03351  -0.72802
   D90        1.40919   0.00003   0.00000  -0.03023  -0.03021   1.37898
   D91       -0.51961   0.00003   0.00000   0.00421   0.00420  -0.51541
   D92       -2.67168  -0.00012   0.00000   0.00244   0.00245  -2.66923
   D93        1.52575   0.00001   0.00000   0.00135   0.00133   1.52708
   D94        1.51310   0.00014   0.00000   0.00937   0.00938   1.52248
   D95       -0.63897  -0.00001   0.00000   0.00761   0.00763  -0.63134
   D96       -2.72473   0.00012   0.00000   0.00651   0.00652  -2.71821
   D97       -2.82995   0.00001   0.00000   0.01601   0.01598  -2.81397
   D98        1.30117  -0.00014   0.00000   0.01425   0.01423   1.31540
   D99       -0.78459  -0.00001   0.00000   0.01315   0.01312  -0.77148
   D100       0.67754  -0.00001   0.00000   0.01476   0.01473   0.69227
   D101       2.81729   0.00002   0.00000   0.01527   0.01524   2.83253
   D102      -1.35898   0.00003   0.00000   0.01501   0.01500  -1.34398
   D103      -1.36712  -0.00001   0.00000   0.01738   0.01737  -1.34974
   D104       0.77264   0.00002   0.00000   0.01788   0.01789   0.79052
   D105       2.87955   0.00003   0.00000   0.01763   0.01764   2.89719
   D106       2.81774  -0.00008   0.00000   0.01420   0.01418   2.83192
   D107      -1.32569  -0.00005   0.00000   0.01471   0.01469  -1.31100
   D108       0.78122  -0.00004   0.00000   0.01445   0.01445   0.79567
         Item               Value     Threshold  Converged?
 Maximum Force            0.004725     0.000450     NO 
 RMS     Force            0.001278     0.000300     NO 
 Maximum Displacement     0.153375     0.001800     NO 
 RMS     Displacement     0.037308     0.001200     NO 
 Predicted change in Energy=-5.189772D-04
 GradGradGradGradGradGradGradGradGradGradGradGradGradGradGradGradGradGrad

 Leave Link  103 at Sun Nov 30 20:45:43 2025, MaxMem=   104857600 cpu:               0.0 elap:               0.0
 (Enter /home/zhouoh/g16/l202.exe)
                          Input orientation:                          
 ---------------------------------------------------------------------
 Center     Atomic      Atomic             Coordinates (Angstroms)
 Number     Number       Type             X           Y           Z
 ---------------------------------------------------------------------
      1          8           0        0.945617   -0.506609    5.091148
      2          6           0        0.055198    0.549088    4.815499
      3          6           0       -0.547045    0.885972    6.189069
      4          6           0        0.818339    1.759094    4.278437
      5          6           0       -1.063244    0.087396    3.882043
      6          6           0       -1.698324    0.950420    2.994734
      7          6           0       -2.708418    0.491001    2.159028
      8          6           0       -3.100783   -0.837846    2.202760
      9          6           0       -2.484328   -1.702078    3.097929
     10          6           0       -1.477285   -1.240807    3.931444
     11          1           0       -1.041875    0.010303    6.607642
     12          1           0        0.238942    1.213913    6.869245
     13          1           0       -1.283895    1.682474    6.076348
     14          1           0        1.194998    1.567995    3.272120
     15          1           0        1.663532    1.956218    4.937231
     16          1           0        0.192498    2.651085    4.247962
     17          1           0       -1.399167    1.988693    2.933949
     18          1           0       -3.184151    1.174631    1.467185
     19          1           0       -3.881911   -1.197987    1.545932
     20          1           0       -2.786221   -2.741226    3.143181
     21          1           0       -0.984866   -1.914288    4.621123
     22          6           0        1.480868   -0.967800    1.743077
     23          6           0        1.162314   -2.423896    1.336159
     24          6           0        2.305492   -1.094441    3.026815
     25          1           0        0.543691   -0.449644    1.959694
     26          6           0        1.418428   -3.265147    2.589238
     27          1           0        1.847413   -2.733416    0.540412
     28          1           0        0.146737   -2.529149    0.952813
     29          6           0        2.614438   -2.565395    3.236008
     30          1           0        1.611353   -0.784554    4.005524
     31          1           0        3.147445   -0.406839    3.116948
     32          1           0        0.558383   -3.207743    3.260512
     33          1           0        1.601200   -4.316871    2.368570
     34          1           0        2.763561   -2.821317    4.285695
     35          1           0        3.535547   -2.825514    2.700613
     36          6           0        2.212008   -0.187389    0.655277
     37          1           0        1.624863   -0.162229   -0.264837
     38          1           0        3.174192   -0.652397    0.425826
     39          1           0        2.400558    0.843626    0.961603
 ---------------------------------------------------------------------
                    Distance matrix (angstroms):
                    1          2          3          4          5
     1  O    0.000000
     2  C    1.408305   0.000000
     3  C    2.317920   1.537168   0.000000
     4  C    2.410417   1.528049   2.505420   0.000000
     5  C    2.418739   1.528205   2.495307   2.547951   0.000000
     6  C    3.675365   2.559510   3.396082   2.938612   1.391206
     7  C    4.790045   3.833769   4.590073   4.305574   2.416253
     8  C    4.982555   4.325530   5.038233   5.139266   2.797790
     9  C    4.143259   3.803549   4.472832   4.927568   2.415892
    10  C    2.784675   2.516700   3.238118   3.793376   1.392118
    11  H    2.552856   2.169248   1.089430   3.455989   2.726773
    12  H    2.573172   2.166478   1.089935   2.710204   3.447913
    13  H    3.276191   2.160434   1.090903   2.767262   2.721752
    14  H    2.770385   2.172403   3.465323   1.091360   2.768363
    15  H    2.569943   2.140461   2.756660   1.089596   3.470047
    16  H    3.353980   2.181592   2.725884   1.090070   2.878070
    17  H    4.046981   2.779905   3.540892   2.603401   2.150967
    18  H    5.745838   4.700627   5.416073   4.925917   3.392914
    19  H    6.029227   5.407695   6.084648   6.188962   3.880014
    20  H    4.765994   4.657947   5.239075   5.876609   3.393474
    21  H    2.435005   2.680995   3.239074   4.106424   2.135210
    22  C    3.421808   3.711234   5.226448   3.781925   3.487279
    23  C    4.221716   4.708518   6.117832   5.125693   4.212032
    24  C    2.540921   3.311253   4.696685   3.452658   3.671039
    25  H    3.157656   3.064589   4.567405   3.214113   2.562435
    26  C    3.754016   4.622015   5.835552   5.334464   4.366874
    27  H    5.145979   5.680073   7.123253   5.934178   5.253132
    28  H    4.674900   4.940066   6.289894   5.468076   4.109835
    29  C    3.234982   4.329492   5.534210   4.797274   4.580393
    30  H    1.303471   2.203696   3.495312   2.678339   2.815850
    31  H    2.958963   3.655250   4.975795   3.386009   4.308078
    32  H    3.285925   4.096944   5.153341   5.076733   3.724770
    33  H    4.728670   5.661726   6.802996   6.416995   5.365392
    34  H    3.051483   4.356093   5.322306   4.976355   4.823689
    35  H    4.218971   5.288998   6.527788   5.558002   5.570430
    36  C    4.624132   4.743592   6.275933   4.342626   4.605952
    37  H    5.409856   5.364664   6.889761   4.998330   4.948216
    38  H    5.172333   5.517329   7.030587   5.119370   5.518024
    39  H    4.581826   4.521059   6.001380   3.787201   4.593340
                    6          7          8          9         10
     6  C    0.000000
     7  C    1.389158   0.000000
     8  C    2.406659   1.386253   0.000000
     9  C    2.768428   2.396111   1.388611   0.000000
    10  C    2.393273   2.767003   2.405508   1.386237   0.000000
    11  H    3.790495   4.774789   4.935732   4.163053   2.986117
    12  H    4.339846   5.603184   6.094224   5.490176   4.195445
    13  H    3.194369   4.335235   4.965660   4.665534   3.630920
    14  H    2.971474   4.199470   5.038387   4.925562   3.932579
    15  H    4.010860   5.383235   6.163021   5.828457   4.593181
    16  H    2.835146   4.176712   5.215476   5.238130   4.246785
    17  H    1.082221   2.134882   3.379269   3.850487   3.380942
    18  H    2.142746   1.082736   2.144314   3.380019   3.849714
    19  H    3.388617   2.146078   1.082259   2.148497   3.387436
    20  H    3.851467   3.379630   2.146205   1.083058   2.141478
    21  H    3.370566   3.849411   3.388851   2.147916   1.082456
    22  C    3.918351   4.455473   4.606487   4.254124   3.689737
    23  C    4.724418   4.914907   4.630393   4.113740   3.886218
    24  C    4.495890   5.329726   5.474734   4.828732   3.892195
    25  H    2.838682   3.391277   3.673142   3.468872   2.932249
    26  C    5.258287   5.596838   5.144359   4.234792   3.779501
    27  H    5.671560   5.811401   5.553487   5.135030   4.978011
    28  H    4.436337   4.327606   3.869012   3.494005   3.628983
    29  C    5.569478   6.231713   6.059354   5.173181   4.356646
    30  H    3.871149   4.867958   5.045495   4.294203   3.123034
    31  H    5.033742   6.001238   6.329443   5.778830   4.769385
    32  H    4.738531   5.056280   4.486061   3.398757   2.909112
    33  H    6.246863   6.460059   5.851474   4.905166   4.624048
    34  H    5.983393   6.740676   6.531715   5.495801   4.539634
    35  H    6.460463   7.090817   6.945470   6.136682   5.399512
    36  C    4.696633   5.189612   5.571673   5.506033   5.045180
    37  H    4.786059   5.007909   5.373753   5.528542   5.328736
    38  H    5.736700   6.238306   6.524354   6.345141   5.854215
    39  H    4.576665   5.259259   5.884944   5.908181   5.310601
                   11         12         13         14         15
    11  H    0.000000
    12  H    1.776965   0.000000
    13  H    1.771159   1.779682   0.000000
    14  H    4.307634   3.738813   3.744557   0.000000
    15  H    3.727745   2.512598   3.171726   1.772804   0.000000
    16  H    3.750400   2.989773   2.541838   1.769281   1.766882
    17  H    4.187805   4.332463   3.159387   2.649725   3.659825
    18  H    5.689403   6.395417   5.011313   4.752839   6.012664
    19  H    5.928463   7.150968   5.964177   6.033687   7.225085
    20  H    4.755643   6.219187   5.516300   5.868229   6.714528
    21  H    2.766507   4.041955   3.891503   4.324109   4.700506
    22  C    5.566409   5.707876   5.783174   2.974887   4.334267
    23  C    6.210661   6.685903   6.731686   4.436689   5.692481
    24  C    5.024704   4.935929   5.467596   2.895157   3.656272
    25  H    4.932442   5.192685   4.983255   2.493497   3.988476
    26  C    5.738400   6.306475   6.628834   4.886258   5.730253
    27  H    7.258599   7.630380   7.742852   5.137121   6.431057
    28  H    6.311791   7.001655   6.784915   4.823342   6.188277
    29  C    5.600961   5.755567   6.427201   4.370472   4.923755
    30  H    3.800320   3.752103   4.330935   2.499144   2.895278
    31  H    5.468944   5.016568   5.723639   2.781384   3.331586
    32  H    4.911204   5.716296   5.936088   4.817996   5.540689
    33  H    6.609086   7.259573   7.619943   5.967667   6.778905
    34  H    5.281179   5.415857   6.314465   4.770092   4.945645
    35  H    6.652783   6.675482   7.412459   5.010760   5.601059
    36  C    6.786566   6.668585   6.716080   3.311125   4.819855
    37  H    7.373752   7.396598   7.216261   3.960874   5.617012
    38  H    7.511940   7.322325   7.566674   4.116885   5.425840
    39  H    6.665023   6.301581   6.359203   2.704917   4.193648
                   16         17         18         19         20
    16  H    0.000000
    17  H    2.167670   0.000000
    18  H    4.616752   2.449543   0.000000
    19  H    6.222309   4.271479   2.474345   0.000000
    20  H    6.258620   4.933541   4.277995   2.476555   0.000000
    21  H    4.729489   4.272173   4.932099   4.285179   2.472452
    22  C    4.585921   4.295769   5.140869   5.371336   4.828393
    23  C    5.930815   5.346500   5.644318   5.195292   4.353958
    24  C    4.470448   4.820668   6.141442   6.362993   5.352661
    25  H    3.869628   3.266398   4.096052   4.507457   4.211924
    26  C    6.265467   5.971642   6.492640   5.784050   4.273222
    27  H    6.743702   6.210283   6.438041   6.016125   5.314605
    28  H    6.139619   5.169682   5.007731   4.284132   3.666733
    29  C    5.839649   6.077827   7.123213   6.850453   5.404318
    30  H    3.724989   4.231123   5.768746   6.032948   4.889872
    31  H    4.400204   5.142348   6.731409   7.246092   6.376397
    32  H    5.952713   5.562517   6.035543   5.166731   3.379020
    33  H    7.353160   7.005855   7.339528   6.361500   4.725690
    34  H    6.046401   6.503208   7.699797   7.369110   5.666730
    35  H    6.600257   6.898003   7.916871   7.681199   6.337801
    36  C    5.004271   4.792522   5.624307   6.241027   6.139547
    37  H    5.507427   4.899332   5.283343   5.888653   6.141944
    38  H    5.866192   5.846508   6.697088   7.165256   6.875591
    39  H    4.352308   4.431618   5.617308   6.631669   6.671815
                   21         22         23         24         25
    21  H    0.000000
    22  C    3.906256   0.000000
    23  C    3.957407   1.545080   0.000000
    24  C    3.747055   1.531021   2.435698   0.000000
    25  H    3.400717   1.092570   2.160825   2.158344   0.000000
    26  C    3.424792   2.449019   1.530851   2.385440   3.014723
    27  H    5.034380   2.167523   1.094704   3.013017   2.988255
    28  H    3.887811   2.200507   1.090610   3.319652   2.344296
    29  C    3.911199   2.462952   2.395435   1.517536   3.223875
    30  H    2.897518   2.273604   3.164583   1.239246   2.331842
    31  H    4.648756   2.231520   3.343721   1.090782   2.849667
    32  H    2.430207   2.858484   2.163858   2.751917   3.049500
    33  H    4.187379   3.409105   2.200420   3.363535   4.030007
    34  H    3.871165   3.397901   3.379600   2.185568   3.995364
    35  H    4.995280   2.930816   2.766815   2.148501   3.891648
    36  C    5.378673   1.525423   2.562698   2.540801   2.133908
    37  H    5.809733   2.168270   2.809320   3.488158   2.489996
    38  H    6.040750   2.168404   2.831002   2.777622   3.051786
    39  H    5.697304   2.176647   3.514291   2.833767   2.473193
                   26         27         28         29         30
    26  C    0.000000
    27  H    2.159735   0.000000
    28  H    2.199268   1.761845   0.000000
    29  C    1.529184   2.807631   3.362118   0.000000
    30  H    2.862940   3.982560   3.808905   2.183971   0.000000
    31  H    3.381997   3.706964   4.265199   2.226574   1.814336
    32  H    1.092512   3.047216   2.440372   2.154199   2.745111
    33  H    1.090056   2.431072   2.704770   2.201538   3.893197
    34  H    2.210052   3.856708   4.247497   1.090677   2.356795
    35  H    2.165150   2.743128   3.824483   1.096700   3.093676
    36  C    3.720561   2.574563   3.136513   3.532284   3.455654
    37  H    4.220956   2.703508   3.044641   4.360089   4.315490
    38  H    3.819624   2.470650   3.600750   3.445288   3.908218
    39  H    4.527228   3.643981   4.056525   4.103667   3.541083
                   31         32         33         34         35
    31  H    0.000000
    32  H    3.816924   0.000000
    33  H    4.270748   1.764425   0.000000
    34  H    2.709804   2.462343   2.695020   0.000000
    35  H    2.484743   3.053374   2.464974   1.763083   0.000000
    36  C    2.642541   4.317900   4.512325   4.519039   3.590941
    37  H    3.716794   4.779186   4.918988   5.392098   4.420147
    38  H    2.702435   4.626845   4.435868   4.446506   3.166650
    39  H    2.601349   5.009209   5.408258   4.961165   4.216034
                   36         37         38         39
    36  C    0.000000
    37  H    1.091779   0.000000
    38  H    1.093014   1.765701   0.000000
    39  H    1.091960   1.765673   1.767385   0.000000
 Stoichiometry    C15H23O(2)
 Framework group  C1[X(C15H23O)]
 Deg. of freedom   111
 Full point group                 C1      NOp   1
 RotChk:  IX=0 Diff= 3.56D-02
 Largest Abelian subgroup         C1      NOp   1
 Largest concise Abelian subgroup C1      NOp   1
                         Standard orientation:                         
 ---------------------------------------------------------------------
 Center     Atomic      Atomic             Coordinates (Angstroms)
 Number     Number       Type             X           Y           Z
 ---------------------------------------------------------------------
      1          8           0       -0.122649   -1.852121   -0.912132
      2          6           0       -1.220496   -1.573191   -0.075321
      3          6           0       -2.388081   -2.313916   -0.746854
      4          6           0       -0.982203   -2.148000    1.320296
      5          6           0       -1.525287   -0.075775   -0.059197
      6          6           0       -2.093154    0.558176    1.041297
      7          6           0       -2.351141    1.922975    1.018410
      8          6           0       -2.048906    2.672144   -0.108132
      9          6           0       -1.498244    2.044171   -1.217484
     10          6           0       -1.242700    0.681923   -1.192348
     11          1           0       -2.526660   -1.952499   -1.765201
     12          1           0       -2.184900   -3.384493   -0.770114
     13          1           0       -3.304702   -2.131498   -0.184185
     14          1           0       -0.204263   -1.590396    1.844655
     15          1           0       -0.661936   -3.184456    1.218282
     16          1           0       -1.888076   -2.127488    1.926287
     17          1           0       -2.324863   -0.004304    1.936356
     18          1           0       -2.783609    2.401415    1.888114
     19          1           0       -2.242024    3.736926   -0.123223
     20          1           0       -1.262274    2.619425   -2.104285
     21          1           0       -0.801003    0.190989   -2.050018
     22          6           0        1.814958    0.352857    0.846425
     23          6           0        2.410267    1.424702   -0.093804
     24          6           0        2.030486   -0.972484    0.110868
     25          1           0        0.744278    0.538906    0.959290
     26          6           0        2.526479    0.750042   -1.463050
     27          1           0        3.406816    1.703472    0.263342
     28          1           0        1.805093    2.331731   -0.115964
     29          6           0        2.890796   -0.691884   -1.107346
     30          1           0        0.955806   -1.373367   -0.358266
     31          1           0        2.335893   -1.814089    0.733951
     32          1           0        1.559146    0.764836   -1.970624
     33          1           0        3.254720    1.230626   -2.116447
     34          1           0        2.723780   -1.403994   -1.916408
     35          1           0        3.949886   -0.753341   -0.829312
     36          6           0        2.444594    0.357445    2.235832
     37          1           0        2.324283    1.332191    2.712675
     38          1           0        3.514844    0.143670    2.176314
     39          1           0        1.986755   -0.392404    2.884283
 ---------------------------------------------------------------------
 Rotational constants (GHZ):           0.6290685           0.4396463           0.3598083
 Leave Link  202 at Sun Nov 30 20:45:43 2025, MaxMem=   104857600 cpu:               0.0 elap:               0.0
 (Enter /home/zhouoh/g16/l301.exe)
 Standard basis: STO-3G (5D, 7F)
 Ernie: Thresh=  0.10000D-02 Tol=  0.10000D-05 Strict=F.
 There are   103 symmetry adapted cartesian basis functions of A   symmetry.
 There are   103 symmetry adapted basis functions of A   symmetry.
   103 basis functions,   309 primitive gaussians,   103 cartesian basis functions
    61 alpha electrons       60 beta electrons
       nuclear repulsion energy      1171.0480502530 Hartrees.
 IExCor=    0 DFT=F Ex=HF Corr=None ExCW=0 ScaHFX=  1.000000
 ScaDFX=  1.000000  1.000000  1.000000  1.000000 ScalE2=  1.000000  1.000000
 IRadAn=      5 IRanWt=     -1 IRanGd=            0 ICorTp=0 IEmpDi=  4
 NAtoms=   39 NActive=   39 NUniq=   39 SFac= 1.00D+00 NAtFMM=   60 NAOKFM=F Big=F
 Integral buffers will be    131072 words long.
 Raffenetti 2 integral format.
 Two-electron integral symmetry is turned on.
 Leave Link  301 at Sun Nov 30 20:45:43 2025, MaxMem=   104857600 cpu:               0.0 elap:               0.0
 (Enter /home/zhouoh/g16/l402.exe)
 External calculation of energy, first and second derivatives.
 Running external command "python ../GauUMA_client.py R"
         input file       "/home/zhouoh/scratch/Gau-2707484.EIn"
         output file      "/home/zhouoh/scratch/Gau-2707484.EOu"
         message file     "/home/zhouoh/scratch/Gau-2707484.EMs"
         fchk file        "/home/zhouoh/scratch/Gau-2707484.EFC"
         mat. el file     "/home/zhouoh/scratch/Gau-2707484.EUF"
Sent job to server.
Received result from server:
SCF Done:  E(UMA) =  -660.5242191476847     A.U.
 Recovered energy= -660.524219148     dipole=      0.000000000000      0.000000000000      0.000000000000
 Energy=    -660.524219     NIter=   0.
 Dipole moment=       0.000000       0.000000       0.000000
 Leave Link  402 at Sun Nov 30 20:45:51 2025, MaxMem=   104857600 cpu:               0.0 elap:               8.0
 (Enter /home/zhouoh/g16/l716.exe)
 Dipole        = 0.00000000D+00 0.00000000D+00 0.00000000D+00
 ***** Axes restored to original set *****
 -------------------------------------------------------------------
 Center     Atomic                   Forces (Hartrees/Bohr)
 Number     Number              X              Y              Z
 -------------------------------------------------------------------
      1        8          -0.000082989   -0.000074955   -0.000137214
      2        6          -0.000028422    0.000035546    0.000128092
      3        6           0.000022146   -0.000003679    0.000008421
      4        6           0.000046169    0.000022949   -0.000009621
      5        6           0.000009844    0.000020716   -0.000014718
      6        6          -0.000024445    0.000023455   -0.000006551
      7        6          -0.000013414    0.000015913   -0.000009695
      8        6          -0.000021182   -0.000013632   -0.000004415
      9        6          -0.000022286   -0.000003279    0.000023459
     10        6          -0.000038756    0.000004060    0.000028043
     11        1          -0.000014862   -0.000015605    0.000007567
     12        1           0.000018565    0.000017430    0.000009563
     13        1          -0.000021707    0.000011027    0.000004706
     14        1           0.000027584   -0.000008362   -0.000007186
     15        1          -0.000002782    0.000025111    0.000027306
     16        1          -0.000000493    0.000010757   -0.000018570
     17        1          -0.000006390   -0.000002677   -0.000021490
     18        1          -0.000007851    0.000010600   -0.000010187
     19        1          -0.000015252   -0.000007563   -0.000012803
     20        1          -0.000002603   -0.000018859   -0.000001671
     21        1          -0.000003363    0.000007975    0.000012546
     22        6          -0.000003992    0.000022921   -0.000031128
     23        6          -0.000052674   -0.000002586   -0.000015538
     24        6           0.000151100   -0.000083855   -0.000191009
     25        1          -0.000030886   -0.000079808    0.000068364
     26        6           0.000026957   -0.000061907   -0.000039837
     27        1           0.000095193    0.000012312    0.000052886
     28        1           0.000025653   -0.000021916   -0.000091379
     29        6          -0.000024337   -0.000000342    0.000029564
     30        1          -0.000019345    0.000119055    0.000311396
     31        1           0.000033998   -0.000021512   -0.000070219
     32        1           0.000046408    0.000049155   -0.000012991
     33        1          -0.000047501   -0.000042464    0.000020201
     34        1           0.000004121   -0.000021339    0.000014842
     35        1           0.000012435    0.000015266   -0.000009865
     36        6          -0.000052773    0.000047379   -0.000007886
     37        1          -0.000013507    0.000010694   -0.000015584
     38        1           0.000012040   -0.000014045   -0.000015212
     39        1           0.000019598    0.000016064    0.000007814
 -------------------------------------------------------------------
 Cartesian Forces:  Max     0.000311396 RMS     0.000051756
 FormGI is forming the generalized inverse of G from B-inverse, IUseBI=4.
 Leave Link  716 at Sun Nov 30 20:45:51 2025, MaxMem=   104857600 cpu:               0.0 elap:               0.0
 (Enter /home/zhouoh/g16/l103.exe)

 GradGradGradGradGradGradGradGradGradGradGradGradGradGradGradGradGradGrad
 Berny optimization.
 Red2BG is reusing G-inverse.
 Internal  Forces:  Max     0.000399345 RMS     0.000055899
 Search for a saddle point.
 Step number   2 out of a maximum of  233
 All quantities printed in internal units (Hartrees-Bohrs-Radians)
 Swapping is turned off.
 Second derivative matrix not updated -- analytic derivatives used.
 ITU=  0  0
     Eigenvalues ---   -0.07024   0.00024   0.00250   0.00281   0.00299
     Eigenvalues ---    0.00313   0.00398   0.00600   0.01017   0.01369
     Eigenvalues ---    0.01496   0.01618   0.01781   0.01818   0.02133
     Eigenvalues ---    0.02437   0.02474   0.02628   0.02836   0.02856
     Eigenvalues ---    0.02942   0.03088   0.03540   0.03758   0.03813
     Eigenvalues ---    0.03950   0.03985   0.04066   0.04329   0.04348
     Eigenvalues ---    0.04401   0.04407   0.04425   0.04514   0.04632
     Eigenvalues ---    0.04675   0.04745   0.05207   0.05738   0.05863
     Eigenvalues ---    0.06114   0.06180   0.06538   0.07557   0.08243
     Eigenvalues ---    0.08686   0.08923   0.09161   0.10509   0.10743
     Eigenvalues ---    0.11259   0.11503   0.11828   0.11904   0.12139
     Eigenvalues ---    0.12163   0.12477   0.12972   0.13905   0.14013
     Eigenvalues ---    0.14254   0.14467   0.15054   0.17191   0.17338
     Eigenvalues ---    0.18271   0.18706   0.19203   0.19305   0.19543
     Eigenvalues ---    0.20913   0.23214   0.23372   0.24109   0.26506
     Eigenvalues ---    0.26835   0.27993   0.28522   0.28794   0.29097
     Eigenvalues ---    0.29423   0.30126   0.31940   0.32566   0.32840
     Eigenvalues ---    0.33334   0.33489   0.33550   0.33999   0.34030
     Eigenvalues ---    0.34102   0.34156   0.34194   0.34298   0.34367
     Eigenvalues ---    0.34402   0.34557   0.34786   0.34888   0.35193
     Eigenvalues ---    0.35927   0.36107   0.36339   0.36549   0.37008
     Eigenvalues ---    0.41985   0.42672   0.43439   0.48211   0.48317
     Eigenvalues ---    0.52602
 Eigenvectors required to have negative eigenvalues:
                          R2        R31       D98       D66       D97
   1                   -0.82174   0.51813  -0.06660   0.05420  -0.05265
                          D69       D99       D70       R1        A53
   1                    0.05223  -0.05182  -0.05022   0.04997  -0.04898
 RFO step:  Lambda0=2.568906168D-07 Lambda=-1.03203036D-04.
 Linear search not attempted -- option 19 set.
 Iteration  1 RMS(Cart)=  0.06562200 RMS(Int)=  0.00183949
 Iteration  2 RMS(Cart)=  0.00279968 RMS(Int)=  0.00023595
 Iteration  3 RMS(Cart)=  0.00000447 RMS(Int)=  0.00023593
 Iteration  4 RMS(Cart)=  0.00000000 RMS(Int)=  0.00023593
 ITry= 1 IFail=0 DXMaxC= 3.41D-01 DCOld= 1.00D+10 DXMaxT= 3.00D-01 DXLimC= 3.00D+00 Rises=F
 Variable       Old X    -DE/DX   Delta X   Delta X   Delta X     New X
                                 (Linear)    (Quad)   (Total)
    R1        2.66131   0.00013   0.00000  -0.00053  -0.00053   2.66078
    R2        2.46320   0.00010   0.00000   0.00481   0.00481   2.46802
    R3        2.90483   0.00003   0.00000   0.00013   0.00013   2.90496
    R4        2.88759   0.00008   0.00000   0.00012   0.00012   2.88771
    R5        2.88789   0.00011   0.00000   0.00027   0.00027   2.88816
    R6        2.05872   0.00002   0.00000   0.00007   0.00007   2.05880
    R7        2.05968   0.00002   0.00000   0.00004   0.00004   2.05972
    R8        2.06151   0.00002   0.00000   0.00007   0.00007   2.06158
    R9        2.06237   0.00002   0.00000  -0.00007  -0.00007   2.06230
   R10        2.05904   0.00002   0.00000   0.00005   0.00005   2.05909
   R11        2.05993   0.00001   0.00000  -0.00003  -0.00003   2.05990
   R12        2.62900   0.00008   0.00000   0.00004   0.00004   2.62904
   R13        2.63072   0.00003   0.00000   0.00023   0.00023   2.63096
   R14        2.62513   0.00005   0.00000   0.00013   0.00013   2.62526
   R15        2.04510  -0.00000   0.00000  -0.00000  -0.00000   2.04510
   R16        2.61964   0.00003   0.00000  -0.00002  -0.00002   2.61962
   R17        2.04607   0.00002   0.00000   0.00005   0.00005   2.04612
   R18        2.62409   0.00002   0.00000   0.00010   0.00010   2.62420
   R19        2.04517   0.00002   0.00000   0.00005   0.00005   2.04522
   R20        2.61961   0.00003   0.00000   0.00001   0.00001   2.61962
   R21        2.04668   0.00002   0.00000   0.00002   0.00002   2.04670
   R22        2.04555   0.00000   0.00000   0.00020   0.00020   2.04575
   R23        2.91978   0.00003   0.00000  -0.00503  -0.00532   2.91446
   R24        2.89321   0.00004   0.00000   0.00365   0.00328   2.89649
   R25        2.06466   0.00000   0.00000   0.00103   0.00103   2.06568
   R26        2.88263   0.00004   0.00000  -0.00249  -0.00249   2.88014
   R27        2.89289   0.00002   0.00000  -0.00358  -0.00341   2.88948
   R28        2.06869   0.00002   0.00000   0.00111   0.00111   2.06980
   R29        2.06095   0.00001   0.00000   0.00021   0.00021   2.06116
   R30        2.86773   0.00004   0.00000   0.00406   0.00414   2.87187
   R31        2.34184   0.00040   0.00000  -0.00227  -0.00227   2.33957
   R32        2.06128   0.00001   0.00000   0.00019   0.00019   2.06147
   R33        2.88974   0.00000   0.00000   0.00061   0.00101   2.89075
   R34        2.06455  -0.00004   0.00000   0.00062   0.00062   2.06517
   R35        2.05991   0.00003   0.00000   0.00008   0.00008   2.05999
   R36        2.06108   0.00002   0.00000   0.00025   0.00025   2.06133
   R37        2.07246   0.00001   0.00000  -0.00072  -0.00072   2.07175
   R38        2.06316   0.00002   0.00000   0.00006   0.00006   2.06323
   R39        2.06550   0.00002   0.00000   0.00002   0.00002   2.06551
   R40        2.06351   0.00002   0.00000   0.00017   0.00017   2.06367
    A1        1.89626   0.00035   0.00000   0.00169   0.00169   1.89795
    A2        1.81018   0.00002   0.00000   0.00024   0.00024   1.81041
    A3        1.92477  -0.00008   0.00000  -0.00031  -0.00031   1.92445
    A4        1.93458   0.00007   0.00000  -0.00033  -0.00034   1.93425
    A5        1.91366   0.00002   0.00000   0.00024   0.00024   1.91390
    A6        1.90211  -0.00010   0.00000   0.00018   0.00018   1.90229
    A7        1.97149   0.00006   0.00000   0.00002   0.00002   1.97151
    A8        1.92316   0.00000   0.00000   0.00004   0.00004   1.92321
    A9        1.91883  -0.00001   0.00000   0.00004   0.00004   1.91887
   A10        1.90955   0.00001   0.00000  -0.00019  -0.00019   1.90936
   A11        1.90670   0.00001   0.00000   0.00022   0.00022   1.90692
   A12        1.89629  -0.00001   0.00000  -0.00017  -0.00017   1.89612
   A13        1.90910  -0.00000   0.00000   0.00006   0.00006   1.90916
   A14        1.93670   0.00000   0.00000  -0.00076  -0.00076   1.93593
   A15        1.89458  -0.00000   0.00000   0.00026   0.00026   1.89484
   A16        1.95095   0.00002   0.00000   0.00024   0.00024   1.95119
   A17        1.89808  -0.00000   0.00000   0.00021   0.00021   1.89829
   A18        1.89194  -0.00001   0.00000   0.00011   0.00011   1.89205
   A19        1.89042  -0.00001   0.00000  -0.00004  -0.00004   1.89038
   A20        2.13680   0.00008   0.00000   0.00025   0.00026   2.13705
   A21        2.07629  -0.00004   0.00000  -0.00025  -0.00025   2.07604
   A22        2.07000  -0.00004   0.00000   0.00000   0.00000   2.07000
   A23        2.10652   0.00001   0.00000  -0.00000  -0.00000   2.10652
   A24        2.09993   0.00001   0.00000   0.00022   0.00022   2.10015
   A25        2.07658  -0.00002   0.00000  -0.00022  -0.00022   2.07637
   A26        2.09885   0.00001   0.00000   0.00002   0.00002   2.09887
   A27        2.08872  -0.00000   0.00000  -0.00004  -0.00004   2.08868
   A28        2.09560  -0.00000   0.00000   0.00001   0.00001   2.09561
   A29        2.08436  -0.00001   0.00000  -0.00001  -0.00001   2.08435
   A30        2.09917   0.00001   0.00000   0.00002   0.00002   2.09918
   A31        2.09966   0.00001   0.00000  -0.00001  -0.00001   2.09965
   A32        2.09789   0.00000   0.00000   0.00006   0.00006   2.09794
   A33        2.09478  -0.00000   0.00000  -0.00009  -0.00009   2.09469
   A34        2.09051  -0.00000   0.00000   0.00003   0.00003   2.09054
   A35        2.10854   0.00003   0.00000  -0.00005  -0.00005   2.10849
   A36        2.07251  -0.00002   0.00000  -0.00015  -0.00015   2.07236
   A37        2.10197  -0.00001   0.00000   0.00017   0.00017   2.10214
   A38        1.82753   0.00001   0.00000  -0.00238  -0.00378   1.82375
   A39        1.89896   0.00001   0.00000  -0.00903  -0.00878   1.89018
   A40        1.97485  -0.00003   0.00000   0.00517   0.00572   1.98057
   A41        1.91239  -0.00001   0.00000  -0.00593  -0.00574   1.90666
   A42        1.96286   0.00001   0.00000   0.00925   0.00985   1.97270
   A43        1.88587   0.00001   0.00000   0.00190   0.00158   1.88745
   A44        1.84192   0.00001   0.00000  -0.00884  -0.01027   1.83165
   A45        1.90590  -0.00002   0.00000  -0.00021   0.00005   1.90596
   A46        1.95574   0.00001   0.00000   0.00237   0.00294   1.95869
   A47        1.91233  -0.00001   0.00000  -0.00200  -0.00166   1.91066
   A48        1.97194   0.00001   0.00000   0.00665   0.00712   1.97907
   A49        1.87547   0.00001   0.00000   0.00173   0.00148   1.87695
   A50        1.88117  -0.00004   0.00000   0.00447   0.00314   1.88431
   A51        1.91753   0.00004   0.00000   0.00310   0.00340   1.92093
   A52        2.01849   0.00001   0.00000  -0.00280  -0.00233   2.01616
   A53        1.82095   0.00006   0.00000   0.00341   0.00380   1.82475
   A54        2.02917  -0.00001   0.00000  -0.00555  -0.00506   2.02412
   A55        1.78182  -0.00006   0.00000  -0.00181  -0.00206   1.77976
   A56        1.79835  -0.00003   0.00000  -0.00557  -0.00609   1.79225
   A57        1.92023   0.00001   0.00000  -0.00237  -0.00231   1.91792
   A58        1.97420   0.00001   0.00000   0.00328   0.00353   1.97773
   A59        1.90899  -0.00000   0.00000   0.00295   0.00298   1.91197
   A60        1.97794   0.00002   0.00000   0.00047   0.00074   1.97868
   A61        1.88291  -0.00001   0.00000   0.00101   0.00092   1.88383
   A62        1.79879   0.00005   0.00000   0.00422   0.00344   1.80223
   A63        1.96920  -0.00002   0.00000  -0.00167  -0.00134   1.96786
   A64        1.91091  -0.00002   0.00000   0.00051   0.00063   1.91154
   A65        1.98954   0.00001   0.00000  -0.00012   0.00013   1.98968
   A66        1.91972  -0.00004   0.00000  -0.00206  -0.00187   1.91784
   A67        1.87481   0.00001   0.00000  -0.00079  -0.00092   1.87389
   A68        1.93373   0.00000   0.00000   0.00123   0.00122   1.93495
   A69        1.93262   0.00000   0.00000  -0.00059  -0.00059   1.93203
   A70        1.94525   0.00001   0.00000   0.00081   0.00081   1.94606
   A71        1.88210  -0.00000   0.00000   0.00050   0.00050   1.88260
   A72        1.88338  -0.00000   0.00000  -0.00110  -0.00110   1.88228
   A73        1.88449  -0.00000   0.00000  -0.00092  -0.00092   1.88358
   A74        3.21333   0.00018   0.00000   0.00025   0.00031   3.21364
   A75        3.16480  -0.00022   0.00000   0.01337   0.01323   3.17803
    D1       -3.03492   0.00013   0.00000   0.00659   0.00659  -3.02833
    D2       -0.98713   0.00012   0.00000   0.00685   0.00685  -0.98028
    D3        1.20935   0.00020   0.00000   0.00640   0.00640   1.21576
    D4       -0.63529  -0.00005   0.00000   0.02857   0.02802  -0.60727
    D5       -2.64956  -0.00013   0.00000   0.02289   0.02343  -2.62613
    D6        1.52831  -0.00009   0.00000   0.02865   0.02867   1.55698
    D7       -1.02619  -0.00004   0.00000   0.00066   0.00066  -1.02553
    D8        1.07631  -0.00004   0.00000   0.00099   0.00099   1.07730
    D9       -3.10999  -0.00004   0.00000   0.00096   0.00096  -3.10903
   D10       -3.08172   0.00004   0.00000   0.00079   0.00079  -3.08093
   D11       -0.97922   0.00004   0.00000   0.00112   0.00112  -0.97810
   D12        1.11767   0.00004   0.00000   0.00109   0.00109   1.11876
   D13        1.03535   0.00001   0.00000   0.00048   0.00048   1.03583
   D14        3.13785   0.00001   0.00000   0.00081   0.00081   3.13866
   D15       -1.04845   0.00001   0.00000   0.00078   0.00078  -1.04767
   D16        1.22970   0.00001   0.00000  -0.00468  -0.00468   1.22501
   D17       -0.85515   0.00001   0.00000  -0.00465  -0.00465  -0.85980
   D18       -2.93920   0.00002   0.00000  -0.00491  -0.00491  -2.94412
   D19       -3.07085   0.00000   0.00000  -0.00444  -0.00444  -3.07528
   D20        1.12749  -0.00000   0.00000  -0.00440  -0.00440   1.12309
   D21       -0.95656   0.00001   0.00000  -0.00467  -0.00467  -0.96123
   D22       -0.94579  -0.00006   0.00000  -0.00402  -0.00402  -0.94981
   D23       -3.03064  -0.00007   0.00000  -0.00398  -0.00398  -3.03462
   D24        1.16849  -0.00006   0.00000  -0.00425  -0.00425   1.16425
   D25       -2.62962   0.00002   0.00000  -0.00486  -0.00486  -2.63448
   D26        0.52780   0.00006   0.00000  -0.00514  -0.00514   0.52266
   D27        1.67205   0.00001   0.00000  -0.00507  -0.00507   1.66698
   D28       -1.45371   0.00006   0.00000  -0.00535  -0.00535  -1.45906
   D29       -0.45950   0.00001   0.00000  -0.00552  -0.00552  -0.46502
   D30        2.69793   0.00006   0.00000  -0.00580  -0.00580   2.69213
   D31        3.13798   0.00004   0.00000   0.00050   0.00050   3.13848
   D32        0.01502   0.00004   0.00000   0.00047   0.00047   0.01548
   D33       -0.01939  -0.00001   0.00000   0.00078   0.00078  -0.01862
   D34        3.14083  -0.00001   0.00000   0.00075   0.00075   3.14158
   D35       -3.13658  -0.00004   0.00000  -0.00038  -0.00038  -3.13696
   D36       -0.01503  -0.00003   0.00000  -0.00209  -0.00209  -0.01713
   D37        0.02024   0.00000   0.00000  -0.00066  -0.00066   0.01958
   D38       -3.14140   0.00002   0.00000  -0.00237  -0.00237   3.13941
   D39        0.00406   0.00001   0.00000  -0.00025  -0.00025   0.00382
   D40       -3.13006   0.00000   0.00000  -0.00020  -0.00020  -3.13025
   D41        3.12727   0.00001   0.00000  -0.00021  -0.00021   3.12706
   D42       -0.00685   0.00000   0.00000  -0.00016  -0.00016  -0.00701
   D43        0.01076  -0.00000   0.00000  -0.00042  -0.00042   0.01035
   D44       -3.13254  -0.00000   0.00000  -0.00002  -0.00002  -3.13256
   D45       -3.13833   0.00000   0.00000  -0.00047  -0.00047  -3.13880
   D46        0.00155   0.00000   0.00000  -0.00007  -0.00007   0.00149
   D47       -0.00995  -0.00000   0.00000   0.00054   0.00054  -0.00941
   D48        3.13706  -0.00000   0.00000   0.00082   0.00082   3.13788
   D49        3.13336  -0.00000   0.00000   0.00014   0.00014   3.13349
   D50       -0.00282  -0.00000   0.00000   0.00042   0.00042  -0.00240
   D51       -0.00572   0.00000   0.00000   0.00001   0.00001  -0.00572
   D52       -3.12693  -0.00001   0.00000   0.00175   0.00175  -3.12518
   D53        3.13047   0.00000   0.00000  -0.00028  -0.00028   3.13019
   D54        0.00926  -0.00001   0.00000   0.00146   0.00146   0.01072
   D55        0.30130   0.00002   0.00000   0.09094   0.09074   0.39204
   D56       -1.75302   0.00004   0.00000   0.09815   0.09814  -1.65488
   D57        2.45435   0.00004   0.00000   0.09466   0.09442   2.54876
   D58       -1.74215   0.00002   0.00000   0.10326   0.10330  -1.63884
   D59        2.48672   0.00004   0.00000   0.11047   0.11070   2.59742
   D60        0.41090   0.00004   0.00000   0.10698   0.10698   0.51788
   D61        2.44479   0.00002   0.00000   0.10380   0.10375   2.54854
   D62        0.39046   0.00004   0.00000   0.11100   0.11115   0.50161
   D63       -1.68536   0.00004   0.00000   0.10752   0.10743  -1.57793
   D64        0.13401  -0.00003   0.00000  -0.09366  -0.09351   0.04050
   D65       -1.83993  -0.00010   0.00000  -0.10159  -0.10140  -1.94133
   D66        2.43837  -0.00007   0.00000  -0.09971  -0.09969   2.33868
   D67        2.16821  -0.00001   0.00000  -0.10820  -0.10829   2.05992
   D68        0.19427  -0.00008   0.00000  -0.11613  -0.11618   0.07809
   D69       -1.81061  -0.00005   0.00000  -0.11425  -0.11447  -1.92508
   D70       -2.01723  -0.00000   0.00000  -0.10384  -0.10383  -2.12106
   D71        2.29201  -0.00007   0.00000  -0.11177  -0.11172   2.18030
   D72        0.28713  -0.00004   0.00000  -0.10989  -0.11001   0.17712
   D73        1.01889   0.00001   0.00000   0.00388   0.00432   1.02321
   D74       -1.06865   0.00001   0.00000   0.00284   0.00328  -1.06538
   D75        3.11638   0.00001   0.00000   0.00386   0.00429   3.12068
   D76        3.08536   0.00001   0.00000   0.01099   0.01055   3.09591
   D77        0.99782   0.00001   0.00000   0.00994   0.00951   1.00732
   D78       -1.10033   0.00001   0.00000   0.01096   0.01053  -1.08981
   D79       -1.08482   0.00000   0.00000   0.01067   0.01067  -1.07415
   D80        3.11082   0.00001   0.00000   0.00963   0.00963   3.12045
   D81        1.01267   0.00001   0.00000   0.01065   0.01065   1.02332
   D82       -0.61932   0.00000   0.00000  -0.05594  -0.05569  -0.67501
   D83        1.41471  -0.00001   0.00000  -0.05649  -0.05643   1.35828
   D84       -2.76148  -0.00001   0.00000  -0.05466  -0.05452  -2.81599
   D85        1.43067  -0.00002   0.00000  -0.06199  -0.06198   1.36870
   D86       -2.81848  -0.00004   0.00000  -0.06254  -0.06272  -2.88120
   D87       -0.71148  -0.00003   0.00000  -0.06071  -0.06081  -0.77229
   D88       -2.76205  -0.00002   0.00000  -0.05685  -0.05658  -2.81863
   D89       -0.72802  -0.00003   0.00000  -0.05740  -0.05733  -0.78535
   D90        1.37898  -0.00003   0.00000  -0.05557  -0.05541   1.32357
   D91       -0.51541   0.00002   0.00000   0.06085   0.06086  -0.45456
   D92       -2.66923  -0.00002   0.00000   0.05915   0.05917  -2.61006
   D93        1.52708  -0.00001   0.00000   0.06088   0.06076   1.58785
   D94        1.52248   0.00008   0.00000   0.06806   0.06804   1.59052
   D95       -0.63134   0.00004   0.00000   0.06636   0.06636  -0.56499
   D96       -2.71821   0.00005   0.00000   0.06809   0.06795  -2.65027
   D97       -2.81397   0.00004   0.00000   0.06541   0.06556  -2.74841
   D98        1.31540   0.00001   0.00000   0.06371   0.06388   1.37927
   D99       -0.77148   0.00002   0.00000   0.06544   0.06547  -0.70601
   D100       0.69227  -0.00000   0.00000  -0.00241  -0.00265   0.68962
   D101       2.83253   0.00002   0.00000  -0.00168  -0.00188   2.83065
   D102      -1.34398   0.00001   0.00000  -0.00429  -0.00435  -1.34833
   D103      -1.34974   0.00001   0.00000   0.00186   0.00182  -1.34792
   D104       0.79052   0.00002   0.00000   0.00259   0.00259   0.79312
   D105       2.89719   0.00001   0.00000  -0.00002   0.00012   2.89731
   D106       2.83192   0.00000   0.00000  -0.00182  -0.00196   2.82997
   D107      -1.31100   0.00002   0.00000  -0.00109  -0.00119  -1.31219
   D108       0.79567   0.00001   0.00000  -0.00370  -0.00366   0.79201
         Item               Value     Threshold  Converged?
 Maximum Force            0.000399     0.000450     YES
 RMS     Force            0.000056     0.000300     YES
 Maximum Displacement     0.340794     0.001800     NO 
 RMS     Displacement     0.065656     0.001200     NO 
 Predicted change in Energy=-6.541898D-05
 GradGradGradGradGradGradGradGradGradGradGradGradGradGradGradGradGradGrad

 Leave Link  103 at Sun Nov 30 20:45:51 2025, MaxMem=   104857600 cpu:               0.0 elap:               0.0
 (Enter /home/zhouoh/g16/l202.exe)
                          Input orientation:                          
 ---------------------------------------------------------------------
 Center     Atomic      Atomic             Coordinates (Angstroms)
 Number     Number       Type             X           Y           Z
 ---------------------------------------------------------------------
      1          8           0        0.949207   -0.493139    5.093351
      2          6           0        0.064016    0.563361    4.805647
      3          6           0       -0.526143    0.928638    6.177282
      4          6           0        0.831636    1.758232    4.241585
      5          6           0       -1.064022    0.092512    3.888219
      6          6           0       -1.703923    0.944972    2.994153
      7          6           0       -2.723086    0.477219    2.174114
      8          6           0       -3.119571   -0.849465    2.240316
      9          6           0       -2.497684   -1.703176    3.141884
     10          6           0       -1.481719   -1.233662    3.959832
     11          1           0       -1.023264    0.063728    6.615165
     12          1           0        0.266712    1.264178    6.845709
     13          1           0       -1.259139    1.727377    6.055276
     14          1           0        1.203187    1.544157    3.238036
     15          1           0        1.680424    1.964183    4.893063
     16          1           0        0.210595    2.652862    4.195109
     17          1           0       -1.401826    1.981196    2.915555
     18          1           0       -3.202645    1.152616    1.476811
     19          1           0       -3.907815   -1.216181    1.595702
     20          1           0       -2.802237   -2.740680    3.204064
     21          1           0       -0.983939   -1.899417    4.653323
     22          6           0        1.487709   -0.990991    1.744441
     23          6           0        1.252594   -2.440814    1.273992
     24          6           0        2.299142   -1.133923    3.036917
     25          1           0        0.517531   -0.543615    1.975756
     26          6           0        1.406453   -3.293970    2.533532
     27          1           0        2.027753   -2.714947    0.550360
     28          1           0        0.286368   -2.563687    0.783095
     29          6           0        2.567126   -2.612965    3.260937
     30          1           0        1.613268   -0.791366    4.009023
     31          1           0        3.162673   -0.473201    3.125149
     32          1           0        0.501807   -3.224139    3.142663
     33          1           0        1.587794   -4.347735    2.321385
     34          1           0        2.642022   -2.872771    4.317702
     35          1           0        3.516904   -2.888969    2.788005
     36          6           0        2.176203   -0.118352    0.701670
     37          1           0        1.591142   -0.078083   -0.219273
     38          1           0        3.163273   -0.517580    0.454673
     39          1           0        2.307577    0.904928    1.059735
 ---------------------------------------------------------------------
                    Distance matrix (angstroms):
                    1          2          3          4          5
     1  O    0.000000
     2  C    1.408023   0.000000
     3  C    2.317976   1.537236   0.000000
     4  C    2.409980   1.528112   2.505736   0.000000
     5  C    2.418351   1.528346   2.495642   2.548139   0.000000
     6  C    3.676125   2.559834   3.394075   2.940500   1.391228
     7  C    4.790540   3.834100   4.588648   4.307143   2.416329
     8  C    4.982141   4.325763   5.038573   5.139766   2.797889
     9  C    4.141675   3.803630   4.475160   4.926973   2.415967
    10  C    2.782560   2.516742   3.241257   3.792417   1.392242
    11  H    2.552774   2.169369   1.089468   3.456281   2.727402
    12  H    2.573854   2.166583   1.089955   2.710109   3.448246
    13  H    3.276093   2.160380   1.090941   2.767990   2.721578
    14  H    2.767179   2.171884   3.465345   1.091324   2.769521
    15  H    2.571620   2.140729   2.755088   1.089624   3.470569
    16  H    3.354059   2.181801   2.728505   1.090053   2.876494
    17  H    4.048764   2.780539   3.537451   2.606995   2.151119
    18  H    5.746803   4.701005   5.413710   4.928100   3.392995
    19  H    6.028848   5.407953   6.084968   6.189526   3.880138
    20  H    4.763840   4.658021   5.242568   5.875516   3.393587
    21  H    2.430699   2.680800   3.244984   4.104174   2.135318
    22  C    3.428271   3.716705   5.233608   3.771523   3.504439
    23  C    4.298021   4.786478   6.209618   5.159050   4.314932
    24  C    2.542017   3.317373   4.700881   3.459676   3.679637
    25  H    3.147744   3.072353   4.572702   3.245172   2.561930
    26  C    3.821831   4.673718   5.902732   5.364010   4.405302
    27  H    5.170925   5.719356   7.173587   5.921585   5.346233
    28  H    4.827507   5.099882   6.477172   5.562145   4.303574
    29  C    3.235594   4.329057   5.533203   4.804265   4.571469
    30  H    1.306019   2.206826   3.498120   2.676842   2.822006
    31  H    2.962035   3.674264   4.988791   3.414595   4.332120
    32  H    3.385810   4.159607   5.245107   5.112772   3.742706
    33  H    4.790563   5.710720   6.868536   6.445291   5.403971
    34  H    3.021573   4.323333   5.286399   4.972874   4.765724
    35  H    4.200915   5.283171   6.512107   5.560578   5.575355
    36  C    4.575243   4.665694   6.195255   4.226160   4.549464
    37  H    5.367339   5.290878   6.812657   4.883457   4.893924
    38  H    5.140041   5.450211   6.960717   4.995653   5.480098
    39  H    4.479936   4.379737   5.849771   3.609806   4.475268
                    6          7          8          9         10
     6  C    0.000000
     7  C    1.389226   0.000000
     8  C    2.406726   1.386244   0.000000
     9  C    2.768495   2.396144   1.388665   0.000000
    10  C    2.393399   2.767109   2.405598   1.386242   0.000000
    11  H    3.788353   4.773185   4.936368   4.166478   2.990684
    12  H    4.338177   5.601963   6.094591   5.492303   4.198154
    13  H    3.190684   4.332372   4.965404   4.668034   3.634305
    14  H    2.978220   4.205461   5.040943   4.924516   3.930139
    15  H    4.012289   5.384668   6.163898   5.828614   4.593069
    16  H    2.832766   4.174245   5.213205   5.236327   4.245509
    17  H    1.082220   2.134809   3.379235   3.850548   3.381155
    18  H    2.142804   1.082760   2.144334   3.380086   3.849844
    19  H    3.388714   2.146100   1.082283   2.148561   3.387530
    20  H    3.851543   3.379635   2.146207   1.083067   2.141508
    21  H    3.370723   3.849611   3.389089   2.148111   1.082564
    22  C    3.936527   4.480073   4.636049   4.282920   3.712728
    23  C    4.812846   5.013099   4.752052   4.254140   4.018385
    24  C    4.510894   5.344434   5.484336   4.831625   3.893152
    25  H    2.861447   3.403388   3.659515   3.434524   2.899953
    26  C    5.277806   5.603939   5.152327   4.259460   3.823707
    27  H    5.769968   5.949535   5.729827   5.312180   5.112250
    28  H    4.600078   4.498762   4.081969   3.749041   3.871274
    29  C    5.565245   6.222280   6.040705   5.147250   4.334060
    30  H    3.879251   4.876491   5.052867   4.299216   3.126819
    31  H    5.070714   6.037378   6.355399   5.792474   4.779684
    32  H    4.718981   5.003806   4.423538   3.363075   2.926455
    33  H    6.269032   6.471905   5.865471   4.935387   4.669462
    34  H    5.934154   6.678457   6.450214   5.400655   4.451965
    35  H    6.480635   7.116569   6.964362   6.140570   5.394391
    36  C    4.630498   5.150324   5.563019   5.505590   5.023936
    37  H    4.714891   4.964799   5.369862   5.536858   5.314392
    38  H    5.681339   6.212514   6.540091   6.377552   5.863008
    39  H    4.453730   5.170333   5.824568   5.850477   5.229044
                   11         12         13         14         15
    11  H    0.000000
    12  H    1.777152   0.000000
    13  H    1.771113   1.779764   0.000000
    14  H    4.307407   3.737737   3.746126   0.000000
    15  H    3.726566   2.510262   3.169834   1.772933   0.000000
    16  H    3.752691   2.992871   2.544968   1.769309   1.766866
    17  H    4.184149   4.329463   3.153194   2.661032   3.662116
    18  H    5.686656   6.393274   5.006985   4.760942   6.014464
    19  H    5.929065   7.151324   5.963876   6.036478   7.226045
    20  H    4.760783   6.222452   5.520334   5.865526   6.714365
    21  H    2.775663   4.047100   3.898056   4.317958   4.699331
    22  C    5.580445   5.709602   5.789473   2.956138   4.322501
    23  C    6.323004   6.763354   6.822264   4.442961   5.717054
    24  C    5.027584   4.938477   5.473471   2.900634   3.664198
    25  H    4.926157   5.200718   4.995642   2.534218   4.018961
    26  C    5.816990   6.377349   6.687449   4.893374   5.769802
    27  H    7.335638   7.652851   7.800128   5.103281   6.393275
    28  H    6.529278   7.169953   6.971206   4.872543   6.271908
    29  C    5.595214   5.759751   6.425512   4.375216   4.939672
    30  H    3.804532   3.753034   4.333814   2.493442   2.894665
    31  H    5.476364   5.024704   5.742875   2.814616   3.356103
    32  H    5.019379   5.823470   6.008473   4.820547   5.601047
    33  H    6.686940   7.328597   7.678148   5.975162   6.816335
    34  H    5.228353   5.398821   6.276909   4.769191   4.965062
    35  H    6.631643   6.654122   7.402452   5.020799   5.599733
    36  C    6.726006   6.580787   6.623397   3.184941   4.706434
    37  H    7.318795   7.312301   7.124166   3.838640   5.505888
    38  H    7.471055   7.239480   7.480930   3.979925   5.296914
    39  H    6.531839   6.145868   6.193005   2.524537   4.026133
                   16         17         18         19         20
    16  H    0.000000
    17  H    2.165247   0.000000
    18  H    4.614118   2.449383   0.000000
    19  H    6.219944   4.271441   2.474388   0.000000
    20  H    6.256965   4.933609   4.278023   2.476536   0.000000
    21  H    4.728648   4.272426   4.932321   4.285430   2.472707
    22  C    4.573232   4.307530   5.163922   5.402269   4.857524
    23  C    5.963574   5.412471   5.727393   5.313478   4.500750
    24  C    4.476960   4.838993   6.158884   6.372612   5.351044
    25  H    3.903485   3.307842   4.118963   4.492269   4.166137
    26  C    6.289333   5.988300   6.490960   5.782575   4.297535
    27  H    6.737924   6.277732   6.570648   6.210476   5.511044
    28  H    6.233775   5.296541   5.144450   4.479652   3.928346
    29  C    5.844215   6.080969   7.117090   6.829998   5.371182
    30  H    3.723550   4.239524   5.777905   6.040443   4.893309
    31  H    4.430784   5.186776   6.773299   7.272072   6.381837
    32  H    5.977590   5.547153   5.971098   5.086232   3.339791
    33  H    7.376711   7.024687   7.342716   6.366708   4.757533
    34  H    6.038169   6.471454   7.644249   7.283814   5.558560
    35  H    6.604809   6.923054   7.950219   7.703653   6.334559
    36  C    4.873126   4.702306   5.581058   6.246583   6.158201
    37  H    5.371288   4.798503   5.231799   5.901519   6.173365
    38  H    5.723711   5.756731   6.660273   7.196546   6.934596
    39  H    4.157304   4.285101   5.531532   6.589192   6.633159
                   21         22         23         24         25
    21  H    0.000000
    22  C    3.923758   0.000000
    23  C    4.088407   1.542267   0.000000
    24  C    3.738632   1.532758   2.431282   0.000000
    25  H    3.355887   1.093113   2.152244   2.156076   0.000000
    26  C    3.486010   2.435771   1.529048   2.390835   2.943764
    27  H    5.154579   2.165526   1.095292   2.959097   3.004531
    28  H    4.127178   2.200177   1.090720   3.342932   2.357238
    29  C    3.880458   2.468948   2.388635   1.519726   3.183511
    30  H    2.896272   2.276828   3.214212   1.238046   2.322971
    31  H    4.643684   2.231584   3.308577   1.090883   2.884933
    32  H    2.498884   2.813180   2.160836   2.758731   2.923548
    33  H    4.248059   3.407435   2.201304   3.368470   3.966895
    34  H    3.769305   3.390459   3.373613   2.186680   3.927231
    35  H    4.971540   2.967993   2.760467   2.150602   3.893157
    36  C    5.364164   1.524104   2.564066   2.549485   2.134323
    37  H    5.804351   2.168011   2.815484   3.495545   2.487471
    38  H    6.061147   2.166826   2.832102   2.791878   3.051937
    39  H    5.622482   2.176124   3.514667   2.840112   2.478232
                   26         27         28         29         30
    26  C    0.000000
    27  H    2.157373   0.000000
    28  H    2.202710   1.763368   0.000000
    29  C    1.529721   2.765602   3.368083   0.000000
    30  H    2.912537   3.979235   3.912594   2.188082   0.000000
    31  H    3.375064   3.597639   4.257755   2.225243   1.811937
    32  H    1.092841   3.050873   2.459710   2.157096   2.811461
    33  H    1.090098   2.448692   2.691259   2.202561   3.936563
    34  H    2.210724   3.820354   4.258883   1.090807   2.342192
    35  H    2.163975   2.693495   3.815997   1.096321   3.084583
    36  C    3.746035   2.605232   3.091564   3.595241   3.421757
    37  H    4.237213   2.781369   2.980839   4.414752   4.288093
    38  H    3.887983   2.475274   3.545560   3.552625   3.887271
    39  H    4.540357   3.666232   4.024065   4.157912   3.472431
                   31         32         33         34         35
    31  H    0.000000
    32  H    3.827294   0.000000
    33  H    4.258908   1.765314   0.000000
    34  H    2.729688   2.466718   2.696701   0.000000
    35  H    2.464768   3.054330   2.463168   1.762286   0.000000
    36  C    2.640510   4.290450   4.566988   4.569409   3.718412
    37  H    3.716314   4.731483   4.968388   5.431277   4.544597
    38  H    2.670845   4.651253   4.542778   4.554296   3.345591
    39  H    2.626094   4.964735   5.449800   4.999721   4.340858
                   36         37         38         39
    36  C    0.000000
    37  H    1.091812   0.000000
    38  H    1.093022   1.766057   0.000000
    39  H    1.092049   1.765064   1.766875   0.000000
 Stoichiometry    C15H23O(2)
 Framework group  C1[X(C15H23O)]
 Deg. of freedom   111
 Full point group                 C1      NOp   1
 RotChk:  IX=0 Diff= 3.28D-02
 Largest Abelian subgroup         C1      NOp   1
 Largest concise Abelian subgroup C1      NOp   1
                         Standard orientation:                         
 ---------------------------------------------------------------------
 Center     Atomic      Atomic             Coordinates (Angstroms)
 Number     Number       Type             X           Y           Z
 ---------------------------------------------------------------------
      1          8           0       -0.136435   -1.840496   -0.940200
      2          6           0       -1.228006   -1.565927   -0.094261
      3          6           0       -2.401245   -2.300953   -0.762351
      4          6           0       -0.980202   -2.149939    1.295936
      5          6           0       -1.530515   -0.068076   -0.066419
      6          6           0       -2.095213    0.558871    1.039731
      7          6           0       -2.351595    1.924174    1.026931
      8          6           0       -2.050649    2.680894   -0.094888
      9          6           0       -1.502420    2.060145   -1.209566
     10          6           0       -1.248584    0.697423   -1.194632
     11          1           0       -2.546162   -1.933283   -1.777614
     12          1           0       -2.200022   -3.371731   -0.793072
     13          1           0       -3.313770   -2.120173   -0.192466
     14          1           0       -0.194707   -1.598814    1.815789
     15          1           0       -0.666108   -3.187445    1.185453
     16          1           0       -1.880310   -2.128198    1.910386
     17          1           0       -2.325760   -0.009372    1.931442
     18          1           0       -2.781759    2.396996    1.900869
     19          1           0       -2.242523    3.746008   -0.102125
     20          1           0       -1.266795    2.641556   -2.092445
     21          1           0       -0.807261    0.212200   -2.055874
     22          6           0        1.829686    0.325504    0.847496
     23          6           0        2.525529    1.402923   -0.008983
     24          6           0        2.032739   -0.976743    0.065019
     25          1           0        0.762322    0.557477    0.890170
     26          6           0        2.566487    0.818299   -1.421260
     27          1           0        3.548005    1.548263    0.355825
     28          1           0        2.016711    2.366099    0.046389
     29          6           0        2.867511   -0.659390   -1.164618
     30          1           0        0.950765   -1.373410   -0.387469
     31          1           0        2.358910   -1.833917    0.655689
     32          1           0        1.585141    0.915111   -1.892311
     33          1           0        3.298413    1.302757   -2.067711
     34          1           0        2.639956   -1.311657   -2.008791
     35          1           0        3.930468   -0.787945   -0.928997
     36          6           0        2.356682    0.251263    2.275662
     37          1           0        2.236212    1.209495    2.784909
     38          1           0        3.420258   -0.000645    2.282362
     39          1           0        1.828271   -0.506207    2.858409
 ---------------------------------------------------------------------
 Rotational constants (GHZ):           0.6276135           0.4365462           0.3587148
 Leave Link  202 at Sun Nov 30 20:45:51 2025, MaxMem=   104857600 cpu:               0.0 elap:               0.0
 (Enter /home/zhouoh/g16/l301.exe)
 Standard basis: STO-3G (5D, 7F)
 Ernie: Thresh=  0.10000D-02 Tol=  0.10000D-05 Strict=F.
 There are   103 symmetry adapted cartesian basis functions of A   symmetry.
 There are   103 symmetry adapted basis functions of A   symmetry.
   103 basis functions,   309 primitive gaussians,   103 cartesian basis functions
    61 alpha electrons       60 beta electrons
       nuclear repulsion energy      1169.5569910995 Hartrees.
 IExCor=    0 DFT=F Ex=HF Corr=None ExCW=0 ScaHFX=  1.000000
 ScaDFX=  1.000000  1.000000  1.000000  1.000000 ScalE2=  1.000000  1.000000
 IRadAn=      5 IRanWt=     -1 IRanGd=            0 ICorTp=0 IEmpDi=  4
 NAtoms=   39 NActive=   39 NUniq=   39 SFac= 1.00D+00 NAtFMM=   60 NAOKFM=F Big=F
 Integral buffers will be    131072 words long.
 Raffenetti 2 integral format.
 Two-electron integral symmetry is turned on.
 Leave Link  301 at Sun Nov 30 20:45:51 2025, MaxMem=   104857600 cpu:               0.0 elap:               0.0
 (Enter /home/zhouoh/g16/l402.exe)
 External calculation of energy, first and second derivatives.
 Running external command "python ../GauUMA_client.py R"
         input file       "/home/zhouoh/scratch/Gau-2707484.EIn"
         output file      "/home/zhouoh/scratch/Gau-2707484.EOu"
         message file     "/home/zhouoh/scratch/Gau-2707484.EMs"
         fchk file        "/home/zhouoh/scratch/Gau-2707484.EFC"
         mat. el file     "/home/zhouoh/scratch/Gau-2707484.EUF"
Sent job to server.
Received result from server:
SCF Done:  E(UMA) =  -660.5242766158136     A.U.
 Recovered energy= -660.524276616     dipole=      0.000000000000      0.000000000000      0.000000000000
 Energy=    -660.524277     NIter=   0.
 Dipole moment=       0.000000       0.000000       0.000000
 Leave Link  402 at Sun Nov 30 20:45:59 2025, MaxMem=   104857600 cpu:               0.0 elap:               8.0
 (Enter /home/zhouoh/g16/l716.exe)
 Dipole        = 0.00000000D+00 0.00000000D+00 0.00000000D+00
 ***** Axes restored to original set *****
 -------------------------------------------------------------------
 Center     Atomic                   Forces (Hartrees/Bohr)
 Number     Number              X              Y              Z
 -------------------------------------------------------------------
      1        8          -0.000028323    0.000014963    0.000065420
      2        6          -0.000020270    0.000011015   -0.000015952
      3        6           0.000007674   -0.000007064    0.000003813
      4        6          -0.000000665   -0.000003200   -0.000005353
      5        6           0.000035896   -0.000014076   -0.000030854
      6        6           0.000010249   -0.000006861   -0.000011723
      7        6           0.000009072    0.000005005   -0.000000352
      8        6          -0.000004300   -0.000011806    0.000012028
      9        6          -0.000025951    0.000015713    0.000016058
     10        6           0.000001643    0.000001959    0.000003164
     11        1          -0.000001801    0.000002648    0.000001111
     12        1          -0.000001712    0.000000680    0.000000081
     13        1           0.000002274   -0.000002189   -0.000001345
     14        1          -0.000026584    0.000010520    0.000062046
     15        1           0.000002410    0.000002936    0.000002781
     16        1          -0.000002687   -0.000000240    0.000004226
     17        1          -0.000002206    0.000000118    0.000001639
     18        1           0.000000758   -0.000000717    0.000001059
     19        1           0.000001173    0.000000103   -0.000000896
     20        1          -0.000000946   -0.000000850    0.000001481
     21        1          -0.000000989   -0.000006280   -0.000006612
     22        6          -0.000024883    0.000057172   -0.000033910
     23        6          -0.000074914    0.000017228   -0.000087729
     24        6          -0.000021999    0.000154831    0.000038398
     25        1          -0.000084084   -0.000052753    0.000055040
     26        6           0.000170355   -0.000145454   -0.000086047
     27        1           0.000000110    0.000006074    0.000011663
     28        1          -0.000021252    0.000031958    0.000047617
     29        6          -0.000098000   -0.000047908    0.000087524
     30        1           0.000064950    0.000014320   -0.000079934
     31        1           0.000048833   -0.000028292   -0.000090464
     32        1           0.000004170    0.000015898    0.000003513
     33        1           0.000029696    0.000004406    0.000005970
     34        1          -0.000049603    0.000008129    0.000000457
     35        1          -0.000025056    0.000004103    0.000015981
     36        6           0.000103988   -0.000027118    0.000038855
     37        1          -0.000007242   -0.000008412    0.000027330
     38        1           0.000004218    0.000010817   -0.000018955
     39        1           0.000025992   -0.000027372   -0.000037132
 -------------------------------------------------------------------
 Cartesian Forces:  Max     0.000170355 RMS     0.000041137
 FormGI is forming the generalized inverse of G from B-inverse, IUseBI=4.
 Leave Link  716 at Sun Nov 30 20:45:59 2025, MaxMem=   104857600 cpu:               0.0 elap:               0.0
 (Enter /home/zhouoh/g16/l103.exe)

 GradGradGradGradGradGradGradGradGradGradGradGradGradGradGradGradGradGrad
 Berny optimization.
 Red2BG is reusing G-inverse.
 Internal  Forces:  Max     0.000143873 RMS     0.000029192
 Search for a saddle point.
 Step number   3 out of a maximum of  233
 All quantities printed in internal units (Hartrees-Bohrs-Radians)
 Swapping is turned off.
 Second derivative matrix not updated -- analytic derivatives used.
 ITU=  0  0  0
     Eigenvalues ---   -0.06923   0.00039   0.00252   0.00282   0.00287
     Eigenvalues ---    0.00323   0.00391   0.00553   0.00975   0.01366
     Eigenvalues ---    0.01487   0.01591   0.01779   0.01816   0.02132
     Eigenvalues ---    0.02436   0.02467   0.02625   0.02835   0.02867
     Eigenvalues ---    0.02942   0.03073   0.03513   0.03718   0.03803
     Eigenvalues ---    0.03946   0.04000   0.04038   0.04326   0.04344
     Eigenvalues ---    0.04392   0.04417   0.04425   0.04508   0.04630
     Eigenvalues ---    0.04695   0.04748   0.05265   0.05817   0.05878
     Eigenvalues ---    0.06097   0.06117   0.06565   0.07577   0.08153
     Eigenvalues ---    0.08646   0.08898   0.09072   0.10478   0.10745
     Eigenvalues ---    0.11268   0.11505   0.11826   0.11921   0.12137
     Eigenvalues ---    0.12161   0.12480   0.12969   0.13830   0.13985
     Eigenvalues ---    0.14257   0.14458   0.15080   0.17169   0.17284
     Eigenvalues ---    0.18301   0.18603   0.19183   0.19300   0.19513
     Eigenvalues ---    0.20914   0.23153   0.23327   0.24155   0.26465
     Eigenvalues ---    0.26753   0.27955   0.28510   0.28772   0.29185
     Eigenvalues ---    0.29459   0.30035   0.31862   0.32570   0.32794
     Eigenvalues ---    0.33326   0.33454   0.33514   0.33956   0.34021
     Eigenvalues ---    0.34105   0.34136   0.34179   0.34301   0.34372
     Eigenvalues ---    0.34398   0.34536   0.34739   0.34891   0.35178
     Eigenvalues ---    0.35926   0.36102   0.36337   0.36522   0.36993
     Eigenvalues ---    0.41197   0.42651   0.43369   0.48197   0.48310
     Eigenvalues ---    0.52593
 Eigenvectors required to have negative eigenvalues:
                          R2        R31       D98       D66       D97
   1                   -0.82318   0.51570  -0.06708   0.05702  -0.05456
                          D99       D69       A53       R1        A55
   1                   -0.05256   0.05245  -0.05102   0.04971  -0.04940
 RFO step:  Lambda0=1.031957800D-07 Lambda=-7.84354652D-06.
 Linear search not attempted -- option 19 set.
 Iteration  1 RMS(Cart)=  0.00955130 RMS(Int)=  0.00003503
 Iteration  2 RMS(Cart)=  0.00008559 RMS(Int)=  0.00000459
 Iteration  3 RMS(Cart)=  0.00000000 RMS(Int)=  0.00000459
 ITry= 1 IFail=0 DXMaxC= 5.85D-02 DCOld= 1.00D+10 DXMaxT= 3.00D-01 DXLimC= 3.00D+00 Rises=F
 Variable       Old X    -DE/DX   Delta X   Delta X   Delta X     New X
                                 (Linear)    (Quad)   (Total)
    R1        2.66078   0.00000   0.00000   0.00014   0.00014   2.66092
    R2        2.46802   0.00011   0.00000  -0.00097  -0.00097   2.46704
    R3        2.90496  -0.00000   0.00000  -0.00003  -0.00003   2.90493
    R4        2.88771  -0.00003   0.00000  -0.00031  -0.00031   2.88741
    R5        2.88816  -0.00000   0.00000  -0.00008  -0.00008   2.88808
    R6        2.05880  -0.00000   0.00000  -0.00002  -0.00002   2.05878
    R7        2.05972  -0.00000   0.00000   0.00000   0.00000   2.05972
    R8        2.06158  -0.00000   0.00000  -0.00000  -0.00000   2.06158
    R9        2.06230  -0.00007   0.00000  -0.00010  -0.00010   2.06220
   R10        2.05909   0.00000   0.00000  -0.00001  -0.00001   2.05908
   R11        2.05990   0.00000   0.00000   0.00003   0.00003   2.05993
   R12        2.62904  -0.00000   0.00000  -0.00009  -0.00009   2.62895
   R13        2.63096   0.00001   0.00000   0.00008   0.00008   2.63104
   R14        2.62526  -0.00001   0.00000   0.00007   0.00007   2.62532
   R15        2.04510  -0.00000   0.00000  -0.00003  -0.00003   2.04507
   R16        2.61962   0.00001   0.00000  -0.00005  -0.00005   2.61957
   R17        2.04612  -0.00000   0.00000  -0.00000  -0.00000   2.04612
   R18        2.62420  -0.00001   0.00000   0.00004   0.00004   2.62424
   R19        2.04522  -0.00000   0.00000  -0.00000  -0.00000   2.04522
   R20        2.61962  -0.00000   0.00000  -0.00007  -0.00007   2.61955
   R21        2.04670   0.00000   0.00000   0.00001   0.00001   2.04671
   R22        2.04575  -0.00000   0.00000   0.00007   0.00007   2.04581
   R23        2.91446   0.00002   0.00000  -0.00034  -0.00034   2.91412
   R24        2.89649  -0.00002   0.00000  -0.00008  -0.00009   2.89641
   R25        2.06568   0.00006   0.00000   0.00029   0.00029   2.06597
   R26        2.88014   0.00002   0.00000  -0.00019  -0.00019   2.87994
   R27        2.88948   0.00005   0.00000  -0.00001  -0.00000   2.88948
   R28        2.06980  -0.00001   0.00000   0.00001   0.00001   2.06981
   R29        2.06116  -0.00001   0.00000  -0.00001  -0.00001   2.06115
   R30        2.87187   0.00008   0.00000   0.00088   0.00088   2.87274
   R31        2.33957   0.00001   0.00000   0.00066   0.00066   2.34022
   R32        2.06147   0.00001   0.00000   0.00008   0.00008   2.06154
   R33        2.89075  -0.00003   0.00000   0.00010   0.00011   2.89086
   R34        2.06517  -0.00000   0.00000   0.00004   0.00004   2.06521
   R35        2.05999  -0.00000   0.00000  -0.00002  -0.00002   2.05997
   R36        2.06133  -0.00000   0.00000   0.00004   0.00004   2.06137
   R37        2.07175  -0.00003   0.00000  -0.00026  -0.00026   2.07149
   R38        2.06323  -0.00002   0.00000  -0.00004  -0.00004   2.06318
   R39        2.06551   0.00000   0.00000  -0.00001  -0.00001   2.06550
   R40        2.06367  -0.00003   0.00000  -0.00010  -0.00010   2.06357
    A1        1.89795   0.00014   0.00000  -0.00008  -0.00008   1.89787
    A2        1.81041  -0.00000   0.00000   0.00000   0.00000   1.81041
    A3        1.92445   0.00001   0.00000  -0.00009  -0.00009   1.92437
    A4        1.93425  -0.00001   0.00000  -0.00035  -0.00035   1.93390
    A5        1.91390  -0.00003   0.00000  -0.00002  -0.00002   1.91388
    A6        1.90229   0.00000   0.00000   0.00001   0.00001   1.90230
    A7        1.97151   0.00002   0.00000   0.00042   0.00042   1.97193
    A8        1.92321   0.00000   0.00000   0.00013   0.00013   1.92333
    A9        1.91887   0.00000   0.00000  -0.00001  -0.00001   1.91886
   A10        1.90936  -0.00000   0.00000  -0.00003  -0.00003   1.90933
   A11        1.90692  -0.00000   0.00000  -0.00002  -0.00002   1.90690
   A12        1.89612  -0.00000   0.00000   0.00001   0.00001   1.89613
   A13        1.90916   0.00000   0.00000  -0.00008  -0.00008   1.90907
   A14        1.93593  -0.00000   0.00000  -0.00027  -0.00027   1.93566
   A15        1.89484   0.00000   0.00000  -0.00003  -0.00003   1.89481
   A16        1.95119  -0.00001   0.00000   0.00018   0.00018   1.95137
   A17        1.89829   0.00000   0.00000  -0.00010  -0.00010   1.89819
   A18        1.89205   0.00000   0.00000   0.00016   0.00016   1.89221
   A19        1.89038  -0.00000   0.00000   0.00005   0.00005   1.89044
   A20        2.13705  -0.00000   0.00000   0.00033   0.00033   2.13739
   A21        2.07604   0.00001   0.00000  -0.00034  -0.00034   2.07569
   A22        2.07000  -0.00000   0.00000   0.00000   0.00000   2.07000
   A23        2.10652   0.00000   0.00000  -0.00001  -0.00001   2.10651
   A24        2.10015   0.00000   0.00000   0.00001   0.00001   2.10016
   A25        2.07637  -0.00000   0.00000   0.00000   0.00000   2.07637
   A26        2.09887   0.00000   0.00000   0.00001   0.00001   2.09888
   A27        2.08868  -0.00000   0.00000  -0.00001  -0.00001   2.08867
   A28        2.09561  -0.00000   0.00000   0.00000   0.00000   2.09561
   A29        2.08435  -0.00000   0.00000   0.00000   0.00000   2.08435
   A30        2.09918   0.00000   0.00000   0.00001   0.00001   2.09919
   A31        2.09965   0.00000   0.00000  -0.00001  -0.00001   2.09964
   A32        2.09794   0.00000   0.00000  -0.00001  -0.00001   2.09794
   A33        2.09469  -0.00000   0.00000  -0.00002  -0.00002   2.09467
   A34        2.09054  -0.00000   0.00000   0.00002   0.00002   2.09056
   A35        2.10849   0.00000   0.00000   0.00001   0.00001   2.10850
   A36        2.07236   0.00001   0.00000   0.00009   0.00009   2.07245
   A37        2.10214  -0.00001   0.00000  -0.00011  -0.00011   2.10203
   A38        1.82375   0.00004   0.00000   0.00017   0.00015   1.82389
   A39        1.89018  -0.00002   0.00000  -0.00109  -0.00109   1.88910
   A40        1.98057  -0.00005   0.00000  -0.00020  -0.00019   1.98038
   A41        1.90666  -0.00002   0.00000  -0.00048  -0.00048   1.90618
   A42        1.97270  -0.00003   0.00000   0.00007   0.00008   1.97278
   A43        1.88745   0.00008   0.00000   0.00140   0.00140   1.88884
   A44        1.83165   0.00000   0.00000  -0.00032  -0.00033   1.83132
   A45        1.90596  -0.00002   0.00000   0.00003   0.00004   1.90599
   A46        1.95869   0.00000   0.00000  -0.00040  -0.00040   1.95829
   A47        1.91066  -0.00002   0.00000   0.00049   0.00049   1.91116
   A48        1.97907   0.00001   0.00000  -0.00027  -0.00027   1.97880
   A49        1.87695   0.00002   0.00000   0.00049   0.00048   1.87744
   A50        1.88431  -0.00004   0.00000   0.00090   0.00087   1.88518
   A51        1.92093   0.00005   0.00000   0.00170   0.00171   1.92263
   A52        2.01616  -0.00000   0.00000  -0.00114  -0.00113   2.01503
   A53        1.82475  -0.00003   0.00000   0.00021   0.00022   1.82497
   A54        2.02412   0.00002   0.00000  -0.00145  -0.00143   2.02268
   A55        1.77976   0.00001   0.00000   0.00007   0.00006   1.77982
   A56        1.79225  -0.00000   0.00000   0.00114   0.00113   1.79339
   A57        1.91792  -0.00002   0.00000  -0.00075  -0.00075   1.91717
   A58        1.97773   0.00003   0.00000   0.00023   0.00023   1.97796
   A59        1.91197  -0.00003   0.00000   0.00021   0.00021   1.91218
   A60        1.97868   0.00001   0.00000  -0.00076  -0.00076   1.97792
   A61        1.88383   0.00001   0.00000  -0.00005  -0.00005   1.88378
   A62        1.80223   0.00005   0.00000   0.00206   0.00203   1.80426
   A63        1.96786  -0.00001   0.00000  -0.00077  -0.00076   1.96710
   A64        1.91154  -0.00002   0.00000  -0.00011  -0.00011   1.91144
   A65        1.98968   0.00000   0.00000  -0.00110  -0.00109   1.98859
   A66        1.91784  -0.00005   0.00000   0.00021   0.00022   1.91806
   A67        1.87389   0.00002   0.00000  -0.00022  -0.00022   1.87366
   A68        1.93495  -0.00005   0.00000  -0.00008  -0.00008   1.93487
   A69        1.93203   0.00003   0.00000  -0.00019  -0.00019   1.93184
   A70        1.94606   0.00006   0.00000   0.00060   0.00060   1.94665
   A71        1.88260   0.00000   0.00000  -0.00004  -0.00004   1.88257
   A72        1.88228  -0.00000   0.00000  -0.00011  -0.00011   1.88217
   A73        1.88358  -0.00003   0.00000  -0.00020  -0.00020   1.88337
   A74        3.21364   0.00012   0.00000   0.00232   0.00232   3.21595
   A75        3.17803   0.00014   0.00000   0.00736   0.00735   3.18538
    D1       -3.02833  -0.00001   0.00000  -0.00472  -0.00472  -3.03306
    D2       -0.98028  -0.00005   0.00000  -0.00479  -0.00479  -0.98507
    D3        1.21576  -0.00001   0.00000  -0.00457  -0.00457   1.21119
    D4       -0.60727  -0.00005   0.00000   0.01041   0.01039  -0.59688
    D5       -2.62613   0.00001   0.00000   0.00990   0.00990  -2.61622
    D6        1.55698   0.00002   0.00000   0.01195   0.01195   1.56893
    D7       -1.02553   0.00000   0.00000  -0.00043  -0.00043  -1.02596
    D8        1.07730   0.00000   0.00000  -0.00038  -0.00038   1.07692
    D9       -3.10903   0.00000   0.00000  -0.00051  -0.00051  -3.10953
   D10       -3.08093   0.00000   0.00000  -0.00032  -0.00032  -3.08125
   D11       -0.97810   0.00000   0.00000  -0.00027  -0.00027  -0.97837
   D12        1.11876   0.00000   0.00000  -0.00040  -0.00040   1.11836
   D13        1.03583  -0.00001   0.00000  -0.00083  -0.00083   1.03500
   D14        3.13866  -0.00001   0.00000  -0.00078  -0.00078   3.13788
   D15       -1.04767  -0.00001   0.00000  -0.00091  -0.00091  -1.04857
   D16        1.22501   0.00001   0.00000  -0.00166  -0.00166   1.22336
   D17       -0.85980   0.00001   0.00000  -0.00135  -0.00135  -0.86115
   D18       -2.94412   0.00001   0.00000  -0.00151  -0.00151  -2.94563
   D19       -3.07528  -0.00000   0.00000  -0.00172  -0.00172  -3.07700
   D20        1.12309  -0.00000   0.00000  -0.00141  -0.00141   1.12168
   D21       -0.96123  -0.00000   0.00000  -0.00157  -0.00157  -0.96280
   D22       -0.94981  -0.00001   0.00000  -0.00144  -0.00144  -0.95124
   D23       -3.03462  -0.00001   0.00000  -0.00113  -0.00113  -3.03575
   D24        1.16425  -0.00001   0.00000  -0.00129  -0.00129   1.16295
   D25       -2.63448  -0.00000   0.00000   0.00601   0.00601  -2.62847
   D26        0.52266   0.00001   0.00000   0.00635   0.00635   0.52900
   D27        1.66698   0.00000   0.00000   0.00620   0.00620   1.67318
   D28       -1.45906   0.00002   0.00000   0.00653   0.00653  -1.45253
   D29       -0.46502   0.00003   0.00000   0.00594   0.00594  -0.45908
   D30        2.69213   0.00005   0.00000   0.00627   0.00627   2.69840
   D31        3.13848   0.00002   0.00000   0.00078   0.00078   3.13925
   D32        0.01548   0.00002   0.00000   0.00065   0.00065   0.01613
   D33       -0.01862   0.00000   0.00000   0.00044   0.00044  -0.01818
   D34        3.14158  -0.00000   0.00000   0.00031   0.00031  -3.14130
   D35       -3.13696  -0.00003   0.00000  -0.00112  -0.00112  -3.13808
   D36       -0.01713  -0.00002   0.00000  -0.00123  -0.00123  -0.01835
   D37        0.01958  -0.00001   0.00000  -0.00080  -0.00080   0.01878
   D38        3.13941   0.00000   0.00000  -0.00091  -0.00091   3.13851
   D39        0.00382   0.00001   0.00000   0.00017   0.00017   0.00399
   D40       -3.13025  -0.00000   0.00000  -0.00000  -0.00000  -3.13026
   D41        3.12706   0.00001   0.00000   0.00030   0.00030   3.12736
   D42       -0.00701   0.00000   0.00000   0.00012   0.00012  -0.00689
   D43        0.01035  -0.00001   0.00000  -0.00044  -0.00044   0.00991
   D44       -3.13256  -0.00000   0.00000  -0.00026  -0.00026  -3.13282
   D45       -3.13880   0.00000   0.00000  -0.00026  -0.00026  -3.13905
   D46        0.00149   0.00000   0.00000  -0.00008  -0.00008   0.00140
   D47       -0.00941  -0.00000   0.00000   0.00008   0.00008  -0.00933
   D48        3.13788   0.00000   0.00000   0.00029   0.00029   3.13818
   D49        3.13349  -0.00000   0.00000  -0.00009  -0.00009   3.13340
   D50       -0.00240  -0.00000   0.00000   0.00012   0.00012  -0.00228
   D51       -0.00572   0.00001   0.00000   0.00055   0.00055  -0.00517
   D52       -3.12518  -0.00000   0.00000   0.00065   0.00065  -3.12453
   D53        3.13019   0.00001   0.00000   0.00034   0.00034   3.13053
   D54        0.01072  -0.00001   0.00000   0.00044   0.00044   0.01117
   D55        0.39204  -0.00002   0.00000   0.00788   0.00788   0.39992
   D56       -1.65488   0.00001   0.00000   0.00747   0.00747  -1.64741
   D57        2.54876  -0.00001   0.00000   0.00709   0.00709   2.55585
   D58       -1.63884  -0.00001   0.00000   0.00885   0.00885  -1.63000
   D59        2.59742   0.00002   0.00000   0.00843   0.00844   2.60585
   D60        0.51788   0.00001   0.00000   0.00806   0.00806   0.52594
   D61        2.54854  -0.00006   0.00000   0.00796   0.00796   2.55650
   D62        0.50161  -0.00003   0.00000   0.00755   0.00755   0.50916
   D63       -1.57793  -0.00004   0.00000   0.00717   0.00717  -1.57076
   D64        0.04050  -0.00002   0.00000  -0.01289  -0.01288   0.02761
   D65       -1.94133   0.00001   0.00000  -0.01450  -0.01450  -1.95583
   D66        2.33868  -0.00004   0.00000  -0.01506  -0.01506   2.32362
   D67        2.05992  -0.00003   0.00000  -0.01428  -0.01428   2.04564
   D68        0.07809   0.00000   0.00000  -0.01589  -0.01589   0.06220
   D69       -1.92508  -0.00005   0.00000  -0.01645  -0.01645  -1.94153
   D70       -2.12106   0.00003   0.00000  -0.01279  -0.01279  -2.13385
   D71        2.18030   0.00006   0.00000  -0.01441  -0.01441   2.16589
   D72        0.17712   0.00002   0.00000  -0.01496  -0.01497   0.16216
   D73        1.02321   0.00000   0.00000   0.00265   0.00265   1.02586
   D74       -1.06538   0.00002   0.00000   0.00286   0.00287  -1.06251
   D75        3.12068   0.00000   0.00000   0.00285   0.00286   3.12353
   D76        3.09591  -0.00000   0.00000   0.00277   0.00276   3.09867
   D77        1.00732   0.00001   0.00000   0.00299   0.00298   1.01030
   D78       -1.08981  -0.00000   0.00000   0.00297   0.00297  -1.08684
   D79       -1.07415   0.00000   0.00000   0.00318   0.00318  -1.07097
   D80        3.12045   0.00001   0.00000   0.00339   0.00339   3.12384
   D81        1.02332   0.00000   0.00000   0.00338   0.00338   1.02670
   D82       -0.67501   0.00006   0.00000  -0.00019  -0.00019  -0.67520
   D83        1.35828   0.00001   0.00000   0.00031   0.00031   1.35859
   D84       -2.81599   0.00003   0.00000  -0.00014  -0.00014  -2.81613
   D85        1.36870   0.00003   0.00000  -0.00009  -0.00009   1.36861
   D86       -2.88120  -0.00002   0.00000   0.00041   0.00041  -2.88079
   D87       -0.77229   0.00000   0.00000  -0.00004  -0.00004  -0.77232
   D88       -2.81863   0.00005   0.00000   0.00069   0.00069  -2.81794
   D89       -0.78535   0.00000   0.00000   0.00119   0.00119  -0.78415
   D90        1.32357   0.00002   0.00000   0.00074   0.00075   1.32432
   D91       -0.45456   0.00004   0.00000   0.01287   0.01287  -0.44168
   D92       -2.61006   0.00001   0.00000   0.01329   0.01329  -2.59677
   D93        1.58785   0.00000   0.00000   0.01414   0.01413   1.60198
   D94        1.59052   0.00007   0.00000   0.01534   0.01534   1.60586
   D95       -0.56499   0.00003   0.00000   0.01576   0.01576  -0.54923
   D96       -2.65027   0.00003   0.00000   0.01661   0.01660  -2.63366
   D97       -2.74841   0.00007   0.00000   0.01488   0.01488  -2.73352
   D98        1.37927   0.00004   0.00000   0.01530   0.01530   1.39457
   D99       -0.70601   0.00003   0.00000   0.01614   0.01614  -0.68986
   D100       0.68962  -0.00006   0.00000  -0.00762  -0.00763   0.68199
   D101       2.83065  -0.00003   0.00000  -0.00779  -0.00780   2.82285
   D102      -1.34833  -0.00003   0.00000  -0.00867  -0.00867  -1.35700
   D103      -1.34792  -0.00002   0.00000  -0.00744  -0.00744  -1.35536
   D104       0.79312   0.00001   0.00000  -0.00761  -0.00761   0.78550
   D105       2.89731   0.00000   0.00000  -0.00849  -0.00848   2.88883
   D106       2.82997  -0.00002   0.00000  -0.00701  -0.00701   2.82295
   D107      -1.31219   0.00001   0.00000  -0.00718  -0.00719  -1.31937
   D108       0.79201   0.00000   0.00000  -0.00806  -0.00806   0.78396
         Item               Value     Threshold  Converged?
 Maximum Force            0.000144     0.000450     YES
 RMS     Force            0.000029     0.000300     YES
 Maximum Displacement     0.058520     0.001800     NO 
 RMS     Displacement     0.009540     0.001200     NO 
 Predicted change in Energy=-3.893396D-06
 GradGradGradGradGradGradGradGradGradGradGradGradGradGradGradGradGradGrad

 Leave Link  103 at Sun Nov 30 20:45:59 2025, MaxMem=   104857600 cpu:               0.0 elap:               0.0
 (Enter /home/zhouoh/g16/l202.exe)
                          Input orientation:                          
 ---------------------------------------------------------------------
 Center     Atomic      Atomic             Coordinates (Angstroms)
 Number     Number       Type             X           Y           Z
 ---------------------------------------------------------------------
      1          8           0        0.955341   -0.485714    5.092985
      2          6           0        0.066325    0.567944    4.806293
      3          6           0       -0.523990    0.930792    6.178488
      4          6           0        0.829523    1.765412    4.242175
      5          6           0       -1.060714    0.093057    3.889786
      6          6           0       -1.699932    0.941182    2.991192
      7          6           0       -2.718832    0.469581    2.172973
      8          6           0       -3.115825   -0.856579    2.245734
      9          6           0       -2.494379   -1.706034    3.151649
     10          6           0       -1.478439   -1.232814    3.967430
     11          1           0       -1.018262    0.064272    6.616393
     12          1           0        0.268311    1.268422    6.846520
     13          1           0       -1.259386    1.727451    6.057341
     14          1           0        1.202376    1.552057    3.239014
     15          1           0        1.677274    1.974776    4.893905
     16          1           0        0.205198    2.657736    4.194956
     17          1           0       -1.397620    1.976942    2.907657
     18          1           0       -3.197871    1.141618    1.472078
     19          1           0       -3.904009   -1.226252    1.602737
     20          1           0       -2.799165   -2.743165    3.218758
     21          1           0       -0.980645   -1.895536    4.663864
     22          6           0        1.488385   -0.991108    1.741457
     23          6           0        1.257611   -2.439266    1.264367
     24          6           0        2.297077   -1.137512    3.035207
     25          1           0        0.516085   -0.548136    1.973059
     26          6           0        1.399101   -3.295877    2.523011
     27          1           0        2.039484   -2.711257    0.547169
     28          1           0        0.295774   -2.560176    0.764460
     29          6           0        2.552837   -2.618358    3.264684
     30          1           0        1.615126   -0.785042    4.006972
     31          1           0        3.167145   -0.484981    3.120628
     32          1           0        0.488120   -3.227303    3.122812
     33          1           0        1.582221   -4.349153    2.310013
     34          1           0        2.611055   -2.876581    4.322909
     35          1           0        3.507799   -2.900414    2.806301
     36          6           0        2.177249   -0.112791    0.703862
     37          1           0        1.592768   -0.067914   -0.217211
     38          1           0        3.164506   -0.510637    0.455419
     39          1           0        2.308476    0.908690    1.066914
 ---------------------------------------------------------------------
                    Distance matrix (angstroms):
                    1          2          3          4          5
     1  O    0.000000
     2  C    1.408097   0.000000
     3  C    2.318022   1.537222   0.000000
     4  C    2.409830   1.527950   2.505573   0.000000
     5  C    2.418086   1.528306   2.495601   2.548322   0.000000
     6  C    3.674784   2.559992   3.397323   2.939805   1.391182
     7  C    4.789426   3.834207   4.590664   4.307157   2.416314
     8  C    4.981844   4.325714   5.037743   5.140660   2.797892
     9  C    4.142286   3.803423   4.471804   4.928337   2.415982
    10  C    2.783580   2.516489   3.237428   3.793618   1.392285
    11  H    2.553109   2.169442   1.089459   3.456169   2.727089
    12  H    2.573691   2.166563   1.089955   2.710087   3.448198
    13  H    3.276141   2.160345   1.090940   2.767637   2.721949
    14  H    2.765999   2.171509   3.465085   1.091271   2.770155
    15  H    2.571932   2.140563   2.754200   1.089618   3.470691
    16  H    3.354169   2.181800   2.729185   1.090070   2.876324
    17  H    4.046821   2.780869   3.543444   2.604967   2.151071
    18  H    5.745289   4.701177   5.417045   4.927723   3.392968
    19  H    6.028557   5.407907   6.083983   6.190558   3.880141
    20  H    4.764990   4.657762   5.237784   5.877247   3.393619
    21  H    2.433060   2.680515   3.238942   4.105736   2.135441
    22  C    3.431079   3.721036   5.237422   3.779695   3.505515
    23  C    4.308834   4.796635   6.219323   5.170099   4.322050
    24  C    2.541563   3.319875   4.702819   3.469503   3.676868
    25  H    3.151314   3.078170   4.577621   3.255708   2.563448
    26  C    3.833889   4.681749   5.909781   5.375555   4.404956
    27  H    5.176182   5.725963   7.179671   5.929388   5.352429
    28  H    4.845054   5.116072   6.493886   5.575850   4.318260
    29  C    3.231540   4.325716   5.527530   4.810691   4.560732
    30  H    1.305503   2.206415   3.497911   2.679050   2.818671
    31  H    2.963490   3.683096   4.997939   3.433163   4.335957
    32  H    3.408252   4.173238   5.258447   5.128034   3.743251
    33  H    4.802507   5.719020   6.875975   6.456602   5.405000
    34  H    3.008430   4.309763   5.269513   4.972773   4.742176
    35  H    4.192224   5.279509   6.504237   5.568198   5.568314
    36  C    4.571273   4.663619   6.193326   4.226544   4.547185
    37  H    5.364612   5.288661   6.810510   4.881573   4.892270
    38  H    5.136931   5.449052   6.959615   4.997206   5.478304
    39  H    4.470412   4.373362   5.843932   3.606044   4.470493
                    6          7          8          9         10
     6  C    0.000000
     7  C    1.389261   0.000000
     8  C    2.406742   1.386217   0.000000
     9  C    2.768509   2.396139   1.388686   0.000000
    10  C    2.393399   2.767092   2.405581   1.386207   0.000000
    11  H    3.791534   4.774955   4.934612   4.161413   2.985164
    12  H    4.341039   5.603857   6.093869   5.489255   4.194816
    13  H    3.195867   4.335958   4.965070   4.664447   3.630273
    14  H    2.976234   4.205243   5.043311   4.928365   3.933556
    15  H    4.011752   5.384685   6.164672   5.829795   4.594074
    16  H    2.832865   4.174493   5.213355   5.236286   4.245325
    17  H    1.082205   2.134829   3.379232   3.850548   3.381151
    18  H    2.142826   1.082759   2.144311   3.380086   3.849825
    19  H    3.388736   2.146080   1.082283   2.148575   3.387507
    20  H    3.851560   3.379623   2.146219   1.083070   2.141492
    21  H    3.370782   3.849624   3.389067   2.148045   1.082598
    22  C    3.932040   4.474426   4.633696   4.285110   3.716910
    23  C    4.812111   5.009895   4.753412   4.263437   4.030887
    24  C    4.505439   5.337184   5.477380   4.826471   3.890069
    25  H    2.857515   3.397116   3.655168   3.434049   2.902486
    26  C    5.270281   5.590936   5.139222   4.252290   3.823978
    27  H    5.770337   5.950003   5.736041   5.324444   5.124428
    28  H    4.604420   4.500131   4.090895   3.770037   3.894706
    29  C    5.552582   6.206262   6.022944   5.130254   4.320275
    30  H    3.873146   4.870402   5.048660   4.297422   3.126053
    31  H    5.073374   6.037711   6.354465   5.791786   4.780981
    32  H    4.709687   4.985346   4.402046   3.348192   2.925529
    33  H    6.262921   6.460498   5.854386   4.930832   4.671856
    34  H    5.910447   6.650317   6.418116   5.367261   4.421798
    35  H    6.473986   7.108368   6.954415   6.129596   5.384392
    36  C    4.623339   5.144808   5.563022   5.509464   5.026866
    37  H    4.706804   4.959010   5.372052   5.544135   5.319824
    38  H    5.674564   6.206810   6.539684   6.381349   5.866234
    39  H    4.446486   5.166237   5.824846   5.852377   5.228743
                   11         12         13         14         15
    11  H    0.000000
    12  H    1.777134   0.000000
    13  H    1.771114   1.779711   0.000000
    14  H    4.307137   3.737249   3.746199   0.000000
    15  H    3.725977   2.509346   3.168395   1.772819   0.000000
    16  H    3.753168   2.994156   2.545372   1.769382   1.766910
    17  H    4.190101   4.334971   3.162573   2.655241   3.660623
    18  H    5.689934   6.396493   5.012540   4.759484   6.014158
    19  H    5.927034   7.150448   5.963378   6.039169   7.226969
    20  H    4.753656   6.217950   5.514969   5.870406   6.715921
    21  H    2.766701   4.041597   3.891723   4.322230   4.700719
    22  C    5.582303   5.714519   5.793760   2.965158   4.332444
    23  C    6.331784   6.773928   6.831501   4.453419   5.730046
    24  C    5.025997   4.942723   5.476288   2.910960   3.677669
    25  H    4.928470   5.206908   5.001195   2.546457   4.030482
    26  C    5.821513   6.387819   6.692747   4.904470   5.786043
    27  H    7.340903   7.658768   7.806835   5.111030   6.401892
    28  H    6.546720   7.186819   6.986906   4.884240   6.287022
    29  C    5.584193   5.758096   6.420128   4.383693   4.951551
    30  H    3.803307   3.754152   4.333527   2.494425   2.899502
    31  H    5.480847   5.035864   5.754417   2.832641   3.378554
    32  H    5.030781   5.841734   6.017875   4.833833   5.622498
    33  H    6.692215   7.339169   7.683900   5.985951   6.832102
    34  H    5.203905   5.388702   6.259846   4.772006   4.973293
    35  H    6.617506   6.648071   7.396786   5.032565   5.610382
    36  C    6.723144   6.579061   6.622439   3.185764   4.707906
    37  H    7.316632   7.310012   7.122368   3.836952   5.504837
    38  H    7.468847   7.238728   7.480735   3.981591   5.299934
    39  H    6.525101   6.139668   6.189053   2.520991   4.022538
                   16         17         18         19         20
    16  H    0.000000
    17  H    2.165559   0.000000
    18  H    4.614494   2.449398   0.000000
    19  H    6.220172   4.271445   2.474371   0.000000
    20  H    6.256908   4.933611   4.278014   2.476536   0.000000
    21  H    4.728465   4.272495   4.932331   4.285382   2.472615
    22  C    4.580424   4.300973   5.155781   5.399300   4.861605
    23  C    5.972885   5.408655   5.719895   5.313023   4.513251
    24  C    4.486076   4.833930   6.150793   6.365006   5.346353
    25  H    3.912939   3.303295   4.110927   4.487116   4.166630
    26  C    6.298119   5.980988   6.475181   5.766561   4.291269
    27  H    6.745150   6.274137   6.567343   6.216476   5.527290
    28  H    6.245247   5.295877   5.139023   4.485558   3.954201
    29  C    5.849272   6.070450   7.100810   6.811086   5.353654
    30  H    3.725044   4.232457   5.770844   6.036212   4.893004
    31  H    4.450166   5.190713   6.773253   7.270122   6.380116
    32  H    5.988590   5.539537   5.949699   5.060200   3.324129
    33  H    7.385506   7.018270   7.328027   6.352281   4.754110
    34  H    6.035990   6.452062   7.616875   7.250446   5.523353
    35  H    6.612758   6.918238   7.942555   7.693262   6.322392
    36  C    4.873658   4.690777   5.572756   6.247356   6.165084
    37  H    5.368588   4.784210   5.221771   5.904957   6.184814
    38  H    5.725402   5.745826   6.651570   7.196690   6.941585
    39  H    4.155428   4.273716   5.526144   6.590906   6.637354
                   21         22         23         24         25
    21  H    0.000000
    22  C    3.931228   0.000000
    23  C    4.106338   1.542087   0.000000
    24  C    3.737724   1.532712   2.431240   0.000000
    25  H    3.360969   1.093266   2.151390   2.155795   0.000000
    26  C    3.493908   2.435315   1.529048   2.393166   2.938069
    27  H    5.170470   2.165398   1.095298   2.955227   3.005496
    28  H    4.156481   2.199731   1.090714   3.344470   2.357447
    29  C    3.868549   2.470065   2.389760   1.520191   3.178439
    30  H    2.898746   2.278395   3.222756   1.238393   2.323966
    31  H    4.644933   2.230810   3.303218   1.090922   2.889467
    32  H    2.511118   2.812337   2.160310   2.765362   2.915587
    33  H    4.257832   3.407129   2.201458   3.369208   3.962060
    34  H    3.738851   3.388110   3.373090   2.186577   3.915655
    35  H    4.960488   2.976135   2.766507   2.150831   3.895877
    36  C    5.369552   1.524001   2.563666   2.549428   2.135381
    37  H    5.812706   2.167848   2.816152   3.495471   2.487397
    38  H    6.067226   2.166594   2.830239   2.792976   3.052667
    39  H    5.623170   2.176416   3.514557   2.839234   2.481150
                   26         27         28         29         30
    26  C    0.000000
    27  H    2.157736   0.000000
    28  H    2.202519   1.763680   0.000000
    29  C    1.529777   2.767137   3.368804   0.000000
    30  H    2.924568   3.982540   3.925006   2.188913   0.000000
    31  H    3.374057   3.584775   4.254730   2.224730   1.812293
    32  H    1.092863   3.050733   2.458430   2.157313   2.831345
    33  H    1.090088   2.449370   2.691490   2.202077   3.947612
    34  H    2.210039   3.822334   4.257135   1.090829   2.337996
    35  H    2.164082   2.701001   3.821254   1.096185   3.081983
    36  C    3.747914   2.606829   3.087607   3.602325   3.417374
    37  H    4.238640   2.787668   2.976112   4.421548   4.284681
    38  H    3.892192   2.473220   3.539172   3.564912   3.884509
    39  H    4.541537   3.666948   4.021875   4.162928   3.463149
                   31         32         33         34         35
    31  H    0.000000
    32  H    3.833733   0.000000
    33  H    4.254516   1.765290   0.000000
    34  H    2.733947   2.463756   2.697910   0.000000
    35  H    2.459505   3.053768   2.460284   1.762049   0.000000
    36  C    2.638025   4.290066   4.569523   4.574301   3.736504
    37  H    3.713997   4.728397   4.971517   5.434906   4.564211
    38  H    2.665334   4.653848   4.547235   4.567437   3.369797
    39  H    2.626284   4.964559   5.451390   5.002132   4.355814
                   36         37         38         39
    36  C    0.000000
    37  H    1.091790   0.000000
    38  H    1.093016   1.766011   0.000000
    39  H    1.091994   1.764928   1.766693   0.000000
 Stoichiometry    C15H23O(2)
 Framework group  C1[X(C15H23O)]
 Deg. of freedom   111
 Full point group                 C1      NOp   1
 RotChk:  IX=0 Diff= 1.02D-02
 Largest Abelian subgroup         C1      NOp   1
 Largest concise Abelian subgroup C1      NOp   1
                         Standard orientation:                         
 ---------------------------------------------------------------------
 Center     Atomic      Atomic             Coordinates (Angstroms)
 Number     Number       Type             X           Y           Z
 ---------------------------------------------------------------------
      1          8           0       -0.147780   -1.842206   -0.940088
      2          6           0       -1.238635   -1.561434   -0.095139
      3          6           0       -2.416284   -2.286120   -0.766721
      4          6           0       -0.997296   -2.150560    1.293860
      5          6           0       -1.529723   -0.061412   -0.064789
      6          6           0       -2.084839    0.569238    1.044045
      7          6           0       -2.331671    1.936348    1.032665
      8          6           0       -2.030820    2.691122   -0.090458
      9          6           0       -1.491848    2.066810   -1.207683
     10          6           0       -1.247151    0.702440   -1.194011
     11          1           0       -2.557264   -1.914813   -1.781205
     12          1           0       -2.222834   -3.358256   -0.799965
     13          1           0       -3.328201   -2.100252   -0.197503
     14          1           0       -0.207329   -1.607482    1.815290
     15          1           0       -0.692147   -3.190510    1.181368
     16          1           0       -1.897647   -2.122259    1.907716
     17          1           0       -2.315345    0.002438    1.936667
     18          1           0       -2.754440    2.411995    1.908675
     19          1           0       -2.215453    3.757521   -0.096708
     20          1           0       -1.256142    2.646771   -2.091498
     21          1           0       -0.812450    0.214533   -2.057145
     22          6           0        1.833984    0.313452    0.848222
     23          6           0        2.540432    1.391042    0.001013
     24          6           0        2.027244   -0.984766    0.056713
     25          1           0        0.768443    0.554637    0.889246
     26          6           0        2.568445    0.821036   -1.417541
     27          1           0        3.565902    1.519555    0.363743
     28          1           0        2.043525    2.359643    0.068471
     29          6           0        2.851527   -0.663356   -1.179504
     30          1           0        0.940754   -1.379567   -0.387461
     31          1           0        2.359166   -1.844660    0.640256
     32          1           0        1.586438    0.936171   -1.883111
     33          1           0        3.303952    1.302809   -2.061914
     34          1           0        2.604606   -1.302665   -2.028164
     35          1           0        3.915227   -0.809552   -0.958617
     36          6           0        2.357824    0.224532    2.276600
     37          1           0        2.242044    1.179323    2.793297
     38          1           0        3.419923   -0.033515    2.282983
     39          1           0        1.824385   -0.534448    2.852658
 ---------------------------------------------------------------------
 Rotational constants (GHZ):           0.6267266           0.4368674           0.3589762
 Leave Link  202 at Sun Nov 30 20:45:59 2025, MaxMem=   104857600 cpu:               0.0 elap:               0.0
 (Enter /home/zhouoh/g16/l301.exe)
 Standard basis: STO-3G (5D, 7F)
 Ernie: Thresh=  0.10000D-02 Tol=  0.10000D-05 Strict=F.
 There are   103 symmetry adapted cartesian basis functions of A   symmetry.
 There are   103 symmetry adapted basis functions of A   symmetry.
   103 basis functions,   309 primitive gaussians,   103 cartesian basis functions
    61 alpha electrons       60 beta electrons
       nuclear repulsion energy      1169.4914090985 Hartrees.
 IExCor=    0 DFT=F Ex=HF Corr=None ExCW=0 ScaHFX=  1.000000
 ScaDFX=  1.000000  1.000000  1.000000  1.000000 ScalE2=  1.000000  1.000000
 IRadAn=      5 IRanWt=     -1 IRanGd=            0 ICorTp=0 IEmpDi=  4
 NAtoms=   39 NActive=   39 NUniq=   39 SFac= 1.00D+00 NAtFMM=   60 NAOKFM=F Big=F
 Integral buffers will be    131072 words long.
 Raffenetti 2 integral format.
 Two-electron integral symmetry is turned on.
 Leave Link  301 at Sun Nov 30 20:45:59 2025, MaxMem=   104857600 cpu:               0.0 elap:               0.0
 (Enter /home/zhouoh/g16/l402.exe)
 External calculation of energy, first and second derivatives.
 Running external command "python ../GauUMA_client.py R"
         input file       "/home/zhouoh/scratch/Gau-2707484.EIn"
         output file      "/home/zhouoh/scratch/Gau-2707484.EOu"
         message file     "/home/zhouoh/scratch/Gau-2707484.EMs"
         fchk file        "/home/zhouoh/scratch/Gau-2707484.EFC"
         mat. el file     "/home/zhouoh/scratch/Gau-2707484.EUF"
Sent job to server.
Received result from server:
SCF Done:  E(UMA) =  -660.5242805585882     A.U.
 Recovered energy= -660.524280559     dipole=      0.000000000000      0.000000000000      0.000000000000
 Energy=    -660.524281     NIter=   0.
 Dipole moment=       0.000000       0.000000       0.000000
 Leave Link  402 at Sun Nov 30 20:46:07 2025, MaxMem=   104857600 cpu:               0.0 elap:               8.0
 (Enter /home/zhouoh/g16/l716.exe)
 Dipole        = 0.00000000D+00 0.00000000D+00 0.00000000D+00
 ***** Axes restored to original set *****
 -------------------------------------------------------------------
 Center     Atomic                   Forces (Hartrees/Bohr)
 Number     Number              X              Y              Z
 -------------------------------------------------------------------
      1        8          -0.000001438    0.000000877    0.000001699
      2        6          -0.000000684    0.000000661    0.000000278
      3        6           0.000000198   -0.000000080   -0.000000084
      4        6          -0.000000040    0.000000601   -0.000000170
      5        6           0.000000648   -0.000000595   -0.000000279
      6        6           0.000000526    0.000000270   -0.000000233
      7        6           0.000000286   -0.000000149    0.000000068
      8        6          -0.000000089    0.000000114   -0.000000106
      9        6          -0.000000217   -0.000000160    0.000000396
     10        6           0.000000645    0.000000093   -0.000000643
     11        1          -0.000000045    0.000000114    0.000000050
     12        1          -0.000000053    0.000000064    0.000000102
     13        1          -0.000000120    0.000000070    0.000000042
     14        1          -0.000000520    0.000000607    0.000000519
     15        1          -0.000000029    0.000000231   -0.000000085
     16        1          -0.000000480    0.000000045    0.000000082
     17        1           0.000000012    0.000000095    0.000000115
     18        1          -0.000000007   -0.000000220   -0.000000005
     19        1           0.000000085    0.000000194    0.000000119
     20        1           0.000000026    0.000000163    0.000000268
     21        1          -0.000000230   -0.000000421   -0.000000119
     22        6          -0.000003186    0.000002805    0.000001965
     23        6          -0.000000517   -0.000000610   -0.000000428
     24        6           0.000004451    0.000002690   -0.000002064
     25        1          -0.000001324   -0.000000668    0.000001117
     26        6           0.000001597   -0.000003944   -0.000003704
     27        1           0.000000174   -0.000000307    0.000000131
     28        1          -0.000000789    0.000000372   -0.000000368
     29        6          -0.000000631   -0.000000756    0.000004777
     30        1           0.000001996   -0.000000334   -0.000001940
     31        1           0.000000522   -0.000001094   -0.000002412
     32        1           0.000000716   -0.000000199    0.000000240
     33        1           0.000000428   -0.000000400   -0.000001267
     34        1          -0.000002184    0.000000363    0.000000254
     35        1          -0.000000889    0.000000233    0.000000573
     36        6           0.000001076   -0.000000245    0.000000772
     37        1          -0.000000102   -0.000000242    0.000000362
     38        1           0.000000046    0.000000087   -0.000000220
     39        1           0.000000135   -0.000000324    0.000000201
 -------------------------------------------------------------------
 Cartesian Forces:  Max     0.000004777 RMS     0.000001138
 FormGI is forming the generalized inverse of G from B-inverse, IUseBI=4.
 Leave Link  716 at Sun Nov 30 20:46:07 2025, MaxMem=   104857600 cpu:               0.0 elap:               0.0
 (Enter /home/zhouoh/g16/l103.exe)

 GradGradGradGradGradGradGradGradGradGradGradGradGradGradGradGradGradGrad
 Berny optimization.
 Red2BG is reusing G-inverse.
 Internal  Forces:  Max     0.000003037 RMS     0.000000801
 Search for a saddle point.
 Step number   4 out of a maximum of  233
 All quantities printed in internal units (Hartrees-Bohrs-Radians)
 Swapping is turned off.
 Second derivative matrix not updated -- analytic derivatives used.
 ITU=  0  0  0  0
     Eigenvalues ---   -0.06952   0.00036   0.00253   0.00280   0.00285
     Eigenvalues ---    0.00323   0.00394   0.00545   0.00959   0.01366
     Eigenvalues ---    0.01486   0.01596   0.01779   0.01816   0.02132
     Eigenvalues ---    0.02437   0.02469   0.02626   0.02835   0.02865
     Eigenvalues ---    0.02942   0.03066   0.03510   0.03714   0.03803
     Eigenvalues ---    0.03945   0.04000   0.04033   0.04324   0.04344
     Eigenvalues ---    0.04389   0.04419   0.04424   0.04507   0.04624
     Eigenvalues ---    0.04694   0.04752   0.05267   0.05805   0.05888
     Eigenvalues ---    0.06096   0.06119   0.06569   0.07581   0.08126
     Eigenvalues ---    0.08654   0.08901   0.09056   0.10494   0.10745
     Eigenvalues ---    0.11270   0.11507   0.11826   0.11922   0.12138
     Eigenvalues ---    0.12162   0.12478   0.12963   0.13804   0.13986
     Eigenvalues ---    0.14254   0.14457   0.15085   0.17165   0.17286
     Eigenvalues ---    0.18277   0.18559   0.19181   0.19297   0.19504
     Eigenvalues ---    0.20909   0.23166   0.23338   0.24158   0.26482
     Eigenvalues ---    0.26774   0.27969   0.28526   0.28759   0.29187
     Eigenvalues ---    0.29466   0.30043   0.31893   0.32581   0.32794
     Eigenvalues ---    0.33332   0.33450   0.33522   0.33946   0.34020
     Eigenvalues ---    0.34107   0.34131   0.34178   0.34299   0.34374
     Eigenvalues ---    0.34404   0.34537   0.34742   0.34891   0.35189
     Eigenvalues ---    0.35927   0.36104   0.36337   0.36511   0.36999
     Eigenvalues ---    0.41314   0.42648   0.43380   0.48200   0.48313
     Eigenvalues ---    0.52594
 Eigenvectors required to have negative eigenvalues:
                          R2        R31       D98       D66       D97
   1                   -0.82272   0.51664  -0.06696   0.05721  -0.05471
                          D99       D69       A53       R1        A55
   1                   -0.05251   0.05230  -0.05137   0.04970  -0.04942
 RFO step:  Lambda0=7.133524327D-11 Lambda=-3.25733009D-08.
 Linear search not attempted -- option 19 set.
 Iteration  1 RMS(Cart)=  0.00119528 RMS(Int)=  0.00000053
 Iteration  2 RMS(Cart)=  0.00000101 RMS(Int)=  0.00000007
 Iteration  3 RMS(Cart)=  0.00000000 RMS(Int)=  0.00000007
 ITry= 1 IFail=0 DXMaxC= 6.28D-03 DCOld= 1.00D+10 DXMaxT= 3.00D-01 DXLimC= 3.00D+00 Rises=F
 Variable       Old X    -DE/DX   Delta X   Delta X   Delta X     New X
                                 (Linear)    (Quad)   (Total)
    R1        2.66092   0.00000   0.00000  -0.00000  -0.00000   2.66092
    R2        2.46704   0.00000   0.00000  -0.00002  -0.00002   2.46703
    R3        2.90493   0.00000   0.00000  -0.00000  -0.00000   2.90493
    R4        2.88741   0.00000   0.00000  -0.00001  -0.00001   2.88740
    R5        2.88808  -0.00000   0.00000  -0.00000  -0.00000   2.88807
    R6        2.05878  -0.00000   0.00000  -0.00000  -0.00000   2.05878
    R7        2.05972   0.00000   0.00000   0.00000   0.00000   2.05972
    R8        2.06158   0.00000   0.00000   0.00000   0.00000   2.06158
    R9        2.06220  -0.00000   0.00000  -0.00000  -0.00000   2.06220
   R10        2.05908  -0.00000   0.00000  -0.00000  -0.00000   2.05908
   R11        2.05993   0.00000   0.00000   0.00000   0.00000   2.05994
   R12        2.62895  -0.00000   0.00000  -0.00000  -0.00000   2.62895
   R13        2.63104   0.00000   0.00000   0.00000   0.00000   2.63104
   R14        2.62532  -0.00000   0.00000   0.00000   0.00000   2.62533
   R15        2.04507   0.00000   0.00000  -0.00000  -0.00000   2.04507
   R16        2.61957  -0.00000   0.00000  -0.00000  -0.00000   2.61957
   R17        2.04612  -0.00000   0.00000  -0.00000  -0.00000   2.04612
   R18        2.62424   0.00000   0.00000   0.00000   0.00000   2.62424
   R19        2.04522  -0.00000   0.00000  -0.00000  -0.00000   2.04522
   R20        2.61955  -0.00000   0.00000  -0.00000  -0.00000   2.61955
   R21        2.04671  -0.00000   0.00000   0.00000   0.00000   2.04671
   R22        2.04581   0.00000   0.00000   0.00000   0.00000   2.04582
   R23        2.91412   0.00000   0.00000  -0.00007  -0.00007   2.91405
   R24        2.89641  -0.00000   0.00000   0.00001   0.00001   2.89642
   R25        2.06597   0.00000   0.00000   0.00002   0.00002   2.06599
   R26        2.87994  -0.00000   0.00000  -0.00003  -0.00003   2.87991
   R27        2.88948   0.00000   0.00000  -0.00004  -0.00004   2.88945
   R28        2.06981   0.00000   0.00000   0.00001   0.00001   2.06983
   R29        2.06115   0.00000   0.00000   0.00001   0.00001   2.06116
   R30        2.87274   0.00000   0.00000   0.00009   0.00009   2.87283
   R31        2.34022   0.00000   0.00000   0.00003   0.00003   2.34025
   R32        2.06154  -0.00000   0.00000   0.00000   0.00000   2.06155
   R33        2.89086   0.00000   0.00000   0.00004   0.00004   2.89090
   R34        2.06521  -0.00000   0.00000   0.00000   0.00000   2.06521
   R35        2.05997   0.00000   0.00000   0.00000   0.00000   2.05997
   R36        2.06137   0.00000   0.00000   0.00000   0.00000   2.06137
   R37        2.07149  -0.00000   0.00000  -0.00002  -0.00002   2.07147
   R38        2.06318  -0.00000   0.00000  -0.00000  -0.00000   2.06318
   R39        2.06550   0.00000   0.00000  -0.00000  -0.00000   2.06550
   R40        2.06357  -0.00000   0.00000  -0.00000  -0.00000   2.06357
    A1        1.89787   0.00000   0.00000   0.00003   0.00003   1.89791
    A2        1.81041  -0.00000   0.00000  -0.00000  -0.00000   1.81041
    A3        1.92437   0.00000   0.00000   0.00000   0.00000   1.92437
    A4        1.93390  -0.00000   0.00000  -0.00002  -0.00002   1.93388
    A5        1.91388  -0.00000   0.00000   0.00000   0.00000   1.91388
    A6        1.90230   0.00000   0.00000   0.00000   0.00000   1.90230
    A7        1.97193  -0.00000   0.00000   0.00001   0.00001   1.97194
    A8        1.92333   0.00000   0.00000   0.00000   0.00000   1.92334
    A9        1.91886   0.00000   0.00000   0.00000   0.00000   1.91886
   A10        1.90933   0.00000   0.00000  -0.00000  -0.00000   1.90933
   A11        1.90690  -0.00000   0.00000   0.00000   0.00000   1.90690
   A12        1.89613  -0.00000   0.00000   0.00000   0.00000   1.89613
   A13        1.90907  -0.00000   0.00000  -0.00001  -0.00001   1.90907
   A14        1.93566   0.00000   0.00000  -0.00001  -0.00001   1.93565
   A15        1.89481   0.00000   0.00000   0.00000   0.00000   1.89481
   A16        1.95137  -0.00000   0.00000   0.00001   0.00001   1.95138
   A17        1.89819  -0.00000   0.00000  -0.00000  -0.00000   1.89819
   A18        1.89221  -0.00000   0.00000   0.00000   0.00000   1.89222
   A19        1.89044   0.00000   0.00000   0.00000   0.00000   1.89044
   A20        2.13739  -0.00000   0.00000   0.00000   0.00000   2.13739
   A21        2.07569   0.00000   0.00000  -0.00000  -0.00000   2.07569
   A22        2.07000   0.00000   0.00000   0.00000   0.00000   2.07000
   A23        2.10651  -0.00000   0.00000  -0.00000  -0.00000   2.10651
   A24        2.10016   0.00000   0.00000   0.00000   0.00000   2.10016
   A25        2.07637   0.00000   0.00000   0.00000   0.00000   2.07637
   A26        2.09888   0.00000   0.00000   0.00000   0.00000   2.09888
   A27        2.08867   0.00000   0.00000   0.00000   0.00000   2.08867
   A28        2.09561  -0.00000   0.00000  -0.00000  -0.00000   2.09561
   A29        2.08435   0.00000   0.00000   0.00000   0.00000   2.08435
   A30        2.09919  -0.00000   0.00000  -0.00000  -0.00000   2.09919
   A31        2.09964   0.00000   0.00000   0.00000   0.00000   2.09964
   A32        2.09794  -0.00000   0.00000   0.00000   0.00000   2.09794
   A33        2.09467   0.00000   0.00000   0.00000   0.00000   2.09467
   A34        2.09056  -0.00000   0.00000  -0.00000  -0.00000   2.09056
   A35        2.10850  -0.00000   0.00000  -0.00000  -0.00000   2.10850
   A36        2.07245   0.00000   0.00000   0.00000   0.00000   2.07245
   A37        2.10203  -0.00000   0.00000  -0.00000  -0.00000   2.10203
   A38        1.82389   0.00000   0.00000  -0.00005  -0.00005   1.82385
   A39        1.88910   0.00000   0.00000  -0.00013  -0.00013   1.88897
   A40        1.98038  -0.00000   0.00000   0.00005   0.00005   1.98043
   A41        1.90618  -0.00000   0.00000  -0.00007  -0.00007   1.90611
   A42        1.97278  -0.00000   0.00000   0.00010   0.00010   1.97289
   A43        1.88884   0.00000   0.00000   0.00006   0.00006   1.88890
   A44        1.83132   0.00000   0.00000  -0.00011  -0.00011   1.83121
   A45        1.90599  -0.00000   0.00000   0.00001   0.00001   1.90600
   A46        1.95829   0.00000   0.00000   0.00001   0.00001   1.95830
   A47        1.91116  -0.00000   0.00000   0.00002   0.00002   1.91118
   A48        1.97880   0.00000   0.00000   0.00005   0.00005   1.97885
   A49        1.87744   0.00000   0.00000   0.00002   0.00002   1.87746
   A50        1.88518  -0.00000   0.00000   0.00007   0.00007   1.88526
   A51        1.92263  -0.00000   0.00000   0.00011   0.00011   1.92275
   A52        2.01503   0.00000   0.00000  -0.00007  -0.00007   2.01496
   A53        1.82497   0.00000   0.00000   0.00009   0.00009   1.82506
   A54        2.02268   0.00000   0.00000  -0.00012  -0.00012   2.02257
   A55        1.77982   0.00000   0.00000  -0.00006  -0.00006   1.77976
   A56        1.79339  -0.00000   0.00000   0.00001   0.00001   1.79340
   A57        1.91717  -0.00000   0.00000  -0.00004  -0.00004   1.91713
   A58        1.97796   0.00000   0.00000   0.00002   0.00002   1.97798
   A59        1.91218  -0.00000   0.00000   0.00006   0.00006   1.91224
   A60        1.97792   0.00000   0.00000  -0.00004  -0.00004   1.97788
   A61        1.88378   0.00000   0.00000  -0.00000  -0.00000   1.88378
   A62        1.80426   0.00000   0.00000   0.00015   0.00015   1.80441
   A63        1.96710   0.00000   0.00000  -0.00006  -0.00006   1.96705
   A64        1.91144  -0.00000   0.00000  -0.00000  -0.00000   1.91144
   A65        1.98859  -0.00000   0.00000  -0.00006  -0.00006   1.98852
   A66        1.91806  -0.00000   0.00000  -0.00000  -0.00000   1.91806
   A67        1.87366   0.00000   0.00000  -0.00002  -0.00002   1.87364
   A68        1.93487  -0.00000   0.00000   0.00001   0.00001   1.93489
   A69        1.93184   0.00000   0.00000  -0.00002  -0.00002   1.93183
   A70        1.94665  -0.00000   0.00000   0.00003   0.00003   1.94668
   A71        1.88257   0.00000   0.00000   0.00001   0.00001   1.88257
   A72        1.88217   0.00000   0.00000  -0.00001  -0.00001   1.88216
   A73        1.88337  -0.00000   0.00000  -0.00002  -0.00002   1.88336
   A74        3.21595  -0.00000   0.00000   0.00014   0.00014   3.21610
   A75        3.18538   0.00000   0.00000   0.00037   0.00037   3.18575
    D1       -3.03306  -0.00000   0.00000  -0.00036  -0.00036  -3.03342
    D2       -0.98507  -0.00000   0.00000  -0.00036  -0.00036  -0.98543
    D3        1.21119  -0.00000   0.00000  -0.00036  -0.00036   1.21083
    D4       -0.59688  -0.00000   0.00000   0.00120   0.00120  -0.59567
    D5       -2.61622   0.00000   0.00000   0.00107   0.00107  -2.61515
    D6        1.56893  -0.00000   0.00000   0.00123   0.00123   1.57016
    D7       -1.02596   0.00000   0.00000  -0.00002  -0.00002  -1.02598
    D8        1.07692   0.00000   0.00000  -0.00002  -0.00002   1.07690
    D9       -3.10953   0.00000   0.00000  -0.00002  -0.00002  -3.10956
   D10       -3.08125  -0.00000   0.00000  -0.00003  -0.00003  -3.08128
   D11       -0.97837  -0.00000   0.00000  -0.00002  -0.00002  -0.97839
   D12        1.11836  -0.00000   0.00000  -0.00003  -0.00003   1.11833
   D13        1.03500  -0.00000   0.00000  -0.00004  -0.00004   1.03496
   D14        3.13788  -0.00000   0.00000  -0.00004  -0.00004   3.13784
   D15       -1.04857  -0.00000   0.00000  -0.00004  -0.00004  -1.04862
   D16        1.22336   0.00000   0.00000  -0.00006  -0.00006   1.22329
   D17       -0.86115  -0.00000   0.00000  -0.00006  -0.00006  -0.86121
   D18       -2.94563  -0.00000   0.00000  -0.00006  -0.00006  -2.94569
   D19       -3.07700   0.00000   0.00000  -0.00006  -0.00006  -3.07706
   D20        1.12168  -0.00000   0.00000  -0.00005  -0.00005   1.12162
   D21       -0.96280  -0.00000   0.00000  -0.00006  -0.00006  -0.96286
   D22       -0.95124   0.00000   0.00000  -0.00005  -0.00005  -0.95130
   D23       -3.03575   0.00000   0.00000  -0.00004  -0.00004  -3.03580
   D24        1.16295   0.00000   0.00000  -0.00005  -0.00005   1.16290
   D25       -2.62847  -0.00000   0.00000   0.00012   0.00012  -2.62835
   D26        0.52900  -0.00000   0.00000   0.00011   0.00011   0.52911
   D27        1.67318  -0.00000   0.00000   0.00013   0.00013   1.67331
   D28       -1.45253  -0.00000   0.00000   0.00012   0.00012  -1.45241
   D29       -0.45908   0.00000   0.00000   0.00012   0.00012  -0.45895
   D30        2.69840   0.00000   0.00000   0.00011   0.00011   2.69851
   D31        3.13925   0.00000   0.00000   0.00000   0.00000   3.13925
   D32        0.01613   0.00000   0.00000  -0.00000  -0.00000   0.01613
   D33       -0.01818   0.00000   0.00000   0.00002   0.00002  -0.01816
   D34       -3.14130   0.00000   0.00000   0.00002   0.00002  -3.14128
   D35       -3.13808  -0.00000   0.00000  -0.00002  -0.00002  -3.13810
   D36       -0.01835  -0.00000   0.00000  -0.00004  -0.00004  -0.01839
   D37        0.01878  -0.00000   0.00000  -0.00003  -0.00003   0.01874
   D38        3.13851  -0.00000   0.00000  -0.00005  -0.00005   3.13845
   D39        0.00399   0.00000   0.00000   0.00001   0.00001   0.00400
   D40       -3.13026  -0.00000   0.00000   0.00000   0.00000  -3.13026
   D41        3.12736   0.00000   0.00000   0.00001   0.00001   3.12737
   D42       -0.00689   0.00000   0.00000   0.00000   0.00000  -0.00689
   D43        0.00991  -0.00000   0.00000  -0.00002  -0.00002   0.00989
   D44       -3.13282  -0.00000   0.00000  -0.00001  -0.00001  -3.13283
   D45       -3.13905  -0.00000   0.00000  -0.00001  -0.00001  -3.13907
   D46        0.00140  -0.00000   0.00000  -0.00001  -0.00001   0.00140
   D47       -0.00933  -0.00000   0.00000   0.00000   0.00000  -0.00933
   D48        3.13818  -0.00000   0.00000   0.00001   0.00001   3.13819
   D49        3.13340  -0.00000   0.00000  -0.00000  -0.00000   3.13340
   D50       -0.00228  -0.00000   0.00000   0.00001   0.00001  -0.00228
   D51       -0.00517   0.00000   0.00000   0.00002   0.00002  -0.00515
   D52       -3.12453  -0.00000   0.00000   0.00005   0.00005  -3.12448
   D53        3.13053   0.00000   0.00000   0.00001   0.00001   3.13054
   D54        0.01117  -0.00000   0.00000   0.00004   0.00004   0.01120
   D55        0.39992   0.00000   0.00000   0.00129   0.00129   0.40122
   D56       -1.64741   0.00000   0.00000   0.00133   0.00133  -1.64609
   D57        2.55585   0.00000   0.00000   0.00128   0.00128   2.55714
   D58       -1.63000  -0.00000   0.00000   0.00145   0.00145  -1.62855
   D59        2.60585   0.00000   0.00000   0.00148   0.00148   2.60733
   D60        0.52594   0.00000   0.00000   0.00144   0.00144   0.52737
   D61        2.55650  -0.00000   0.00000   0.00142   0.00142   2.55792
   D62        0.50916  -0.00000   0.00000   0.00146   0.00146   0.51062
   D63       -1.57076  -0.00000   0.00000   0.00141   0.00141  -1.56934
   D64        0.02761  -0.00000   0.00000  -0.00164  -0.00164   0.02597
   D65       -1.95583  -0.00000   0.00000  -0.00185  -0.00185  -1.95768
   D66        2.32362  -0.00000   0.00000  -0.00180  -0.00180   2.32182
   D67        2.04564  -0.00000   0.00000  -0.00184  -0.00184   2.04380
   D68        0.06220  -0.00000   0.00000  -0.00205  -0.00205   0.06015
   D69       -1.94153  -0.00000   0.00000  -0.00200  -0.00200  -1.94353
   D70       -2.13385  -0.00000   0.00000  -0.00174  -0.00174  -2.13560
   D71        2.16589  -0.00000   0.00000  -0.00195  -0.00195   2.16394
   D72        0.16216  -0.00000   0.00000  -0.00190  -0.00190   0.16026
   D73        1.02586   0.00000   0.00000   0.00014   0.00014   1.02600
   D74       -1.06251   0.00000   0.00000   0.00013   0.00013  -1.06238
   D75        3.12353   0.00000   0.00000   0.00015   0.00015   3.12368
   D76        3.09867   0.00000   0.00000   0.00019   0.00019   3.09887
   D77        1.01030   0.00000   0.00000   0.00019   0.00019   1.01049
   D78       -1.08684   0.00000   0.00000   0.00020   0.00020  -1.08664
   D79       -1.07097  -0.00000   0.00000   0.00022   0.00022  -1.07075
   D80        3.12384  -0.00000   0.00000   0.00021   0.00021   3.12406
   D81        1.02670  -0.00000   0.00000   0.00023   0.00023   1.02693
   D82       -0.67520   0.00000   0.00000  -0.00048  -0.00048  -0.67568
   D83        1.35859   0.00000   0.00000  -0.00043  -0.00043   1.35816
   D84       -2.81613   0.00000   0.00000  -0.00045  -0.00045  -2.81658
   D85        1.36861   0.00000   0.00000  -0.00052  -0.00052   1.36808
   D86       -2.88079  -0.00000   0.00000  -0.00047  -0.00047  -2.88126
   D87       -0.77232  -0.00000   0.00000  -0.00049  -0.00049  -0.77281
   D88       -2.81794   0.00000   0.00000  -0.00045  -0.00045  -2.81838
   D89       -0.78415  -0.00000   0.00000  -0.00039  -0.00039  -0.78454
   D90        1.32432  -0.00000   0.00000  -0.00041  -0.00041   1.32390
   D91       -0.44168   0.00000   0.00000   0.00137   0.00137  -0.44031
   D92       -2.59677   0.00000   0.00000   0.00138   0.00138  -2.59539
   D93        1.60198   0.00000   0.00000   0.00144   0.00144   1.60342
   D94        1.60586   0.00000   0.00000   0.00158   0.00158   1.60744
   D95       -0.54923  -0.00000   0.00000   0.00159   0.00159  -0.54764
   D96       -2.63366  -0.00000   0.00000   0.00165   0.00165  -2.63201
   D97       -2.73352   0.00000   0.00000   0.00150   0.00150  -2.73202
   D98        1.39457   0.00000   0.00000   0.00151   0.00151   1.39609
   D99       -0.68986   0.00000   0.00000   0.00158   0.00158  -0.68828
   D100       0.68199  -0.00000   0.00000  -0.00053  -0.00053   0.68146
   D101       2.82285  -0.00000   0.00000  -0.00054  -0.00054   2.82232
   D102      -1.35700  -0.00000   0.00000  -0.00061  -0.00061  -1.35762
   D103      -1.35536  -0.00000   0.00000  -0.00052  -0.00052  -1.35587
   D104       0.78550  -0.00000   0.00000  -0.00052  -0.00052   0.78499
   D105       2.88883  -0.00000   0.00000  -0.00059  -0.00059   2.88824
   D106       2.82295  -0.00000   0.00000  -0.00053  -0.00053   2.82243
   D107      -1.31937  -0.00000   0.00000  -0.00053  -0.00053  -1.31990
   D108       0.78396  -0.00000   0.00000  -0.00060  -0.00060   0.78335
         Item               Value     Threshold  Converged?
 Maximum Force            0.000003     0.000450     YES
 RMS     Force            0.000001     0.000300     YES
 Maximum Displacement     0.006285     0.001800     NO 
 RMS     Displacement     0.001195     0.001200     YES
 Predicted change in Energy=-1.625098D-08
 Optimization completed on the basis of negligible forces.
    -- Stationary point found.
                           ----------------------------
                           !   Optimized Parameters   !
                           ! (Angstroms and Degrees)  !
 --------------------------                            --------------------------
 ! Name  Definition              Value          Derivative Info.                !
 --------------------------------------------------------------------------------
 ! R1    R(1,2)                  1.4081         -DE/DX =    0.0                 !
 ! R2    R(1,30)                 1.3055         -DE/DX =    0.0                 !
 ! R3    R(2,3)                  1.5372         -DE/DX =    0.0                 !
 ! R4    R(2,4)                  1.528          -DE/DX =    0.0                 !
 ! R5    R(2,5)                  1.5283         -DE/DX =    0.0                 !
 ! R6    R(3,11)                 1.0895         -DE/DX =    0.0                 !
 ! R7    R(3,12)                 1.09           -DE/DX =    0.0                 !
 ! R8    R(3,13)                 1.0909         -DE/DX =    0.0                 !
 ! R9    R(4,14)                 1.0913         -DE/DX =    0.0                 !
 ! R10   R(4,15)                 1.0896         -DE/DX =    0.0                 !
 ! R11   R(4,16)                 1.0901         -DE/DX =    0.0                 !
 ! R12   R(5,6)                  1.3912         -DE/DX =    0.0                 !
 ! R13   R(5,10)                 1.3923         -DE/DX =    0.0                 !
 ! R14   R(6,7)                  1.3893         -DE/DX =    0.0                 !
 ! R15   R(6,17)                 1.0822         -DE/DX =    0.0                 !
 ! R16   R(7,8)                  1.3862         -DE/DX =    0.0                 !
 ! R17   R(7,18)                 1.0828         -DE/DX =    0.0                 !
 ! R18   R(8,9)                  1.3887         -DE/DX =    0.0                 !
 ! R19   R(8,19)                 1.0823         -DE/DX =    0.0                 !
 ! R20   R(9,10)                 1.3862         -DE/DX =    0.0                 !
 ! R21   R(9,20)                 1.0831         -DE/DX =    0.0                 !
 ! R22   R(10,21)                1.0826         -DE/DX =    0.0                 !
 ! R23   R(22,23)                1.5421         -DE/DX =    0.0                 !
 ! R24   R(22,24)                1.5327         -DE/DX =    0.0                 !
 ! R25   R(22,25)                1.0933         -DE/DX =    0.0                 !
 ! R26   R(22,36)                1.524          -DE/DX =    0.0                 !
 ! R27   R(23,26)                1.529          -DE/DX =    0.0                 !
 ! R28   R(23,27)                1.0953         -DE/DX =    0.0                 !
 ! R29   R(23,28)                1.0907         -DE/DX =    0.0                 !
 ! R30   R(24,29)                1.5202         -DE/DX =    0.0                 !
 ! R31   R(24,30)                1.2384         -DE/DX =    0.0                 !
 ! R32   R(24,31)                1.0909         -DE/DX =    0.0                 !
 ! R33   R(26,29)                1.5298         -DE/DX =    0.0                 !
 ! R34   R(26,32)                1.0929         -DE/DX =    0.0                 !
 ! R35   R(26,33)                1.0901         -DE/DX =    0.0                 !
 ! R36   R(29,34)                1.0908         -DE/DX =    0.0                 !
 ! R37   R(29,35)                1.0962         -DE/DX =    0.0                 !
 ! R38   R(36,37)                1.0918         -DE/DX =    0.0                 !
 ! R39   R(36,38)                1.093          -DE/DX =    0.0                 !
 ! R40   R(36,39)                1.092          -DE/DX =    0.0                 !
 ! A1    A(2,1,30)             108.7402         -DE/DX =    0.0                 !
 ! A2    A(1,2,3)              103.7291         -DE/DX =    0.0                 !
 ! A3    A(1,2,4)              110.2581         -DE/DX =    0.0                 !
 ! A4    A(1,2,5)              110.8043         -DE/DX =    0.0                 !
 ! A5    A(3,2,4)              109.657          -DE/DX =    0.0                 !
 ! A6    A(3,2,5)              108.9937         -DE/DX =    0.0                 !
 ! A7    A(4,2,5)              112.9833         -DE/DX =    0.0                 !
 ! A8    A(2,3,11)             110.1988         -DE/DX =    0.0                 !
 ! A9    A(2,3,12)             109.9424         -DE/DX =    0.0                 !
 ! A10   A(2,3,13)             109.3966         -DE/DX =    0.0                 !
 ! A11   A(11,3,12)            109.2574         -DE/DX =    0.0                 !
 ! A12   A(11,3,13)            108.6403         -DE/DX =    0.0                 !
 ! A13   A(12,3,13)            109.3818         -DE/DX =    0.0                 !
 ! A14   A(2,4,14)             110.9054         -DE/DX =    0.0                 !
 ! A15   A(2,4,15)             108.5646         -DE/DX =    0.0                 !
 ! A16   A(2,4,16)             111.8053         -DE/DX =    0.0                 !
 ! A17   A(14,4,15)            108.7581         -DE/DX =    0.0                 !
 ! A18   A(14,4,16)            108.4158         -DE/DX =    0.0                 !
 ! A19   A(15,4,16)            108.3141         -DE/DX =    0.0                 !
 ! A20   A(2,5,6)              122.4632         -DE/DX =    0.0                 !
 ! A21   A(2,5,10)             118.9284         -DE/DX =    0.0                 !
 ! A22   A(6,5,10)             118.6023         -DE/DX =    0.0                 !
 ! A23   A(5,6,7)              120.6943         -DE/DX =    0.0                 !
 ! A24   A(5,6,17)             120.3303         -DE/DX =    0.0                 !
 ! A25   A(7,6,17)             118.9671         -DE/DX =    0.0                 !
 ! A26   A(6,7,8)              120.257          -DE/DX =    0.0                 !
 ! A27   A(6,7,18)             119.6719         -DE/DX =    0.0                 !
 ! A28   A(8,7,18)             120.0698         -DE/DX =    0.0                 !
 ! A29   A(7,8,9)              119.4245         -DE/DX =    0.0                 !
 ! A30   A(7,8,19)             120.2748         -DE/DX =    0.0                 !
 ! A31   A(9,8,19)             120.3006         -DE/DX =    0.0                 !
 ! A32   A(8,9,10)             120.2029         -DE/DX =    0.0                 !
 ! A33   A(8,9,20)             120.0159         -DE/DX =    0.0                 !
 ! A34   A(10,9,20)            119.7803         -DE/DX =    0.0                 !
 ! A35   A(5,10,9)             120.808          -DE/DX =    0.0                 !
 ! A36   A(5,10,21)            118.7426         -DE/DX =    0.0                 !
 ! A37   A(9,10,21)            120.4375         -DE/DX =    0.0                 !
 ! A38   A(23,22,24)           104.5013         -DE/DX =    0.0                 !
 ! A39   A(23,22,25)           108.2372         -DE/DX =    0.0                 !
 ! A40   A(23,22,36)           113.4673         -DE/DX =    0.0                 !
 ! A41   A(24,22,25)           109.2159         -DE/DX =    0.0                 !
 ! A42   A(24,22,36)           113.0322         -DE/DX =    0.0                 !
 ! A43   A(25,22,36)           108.2228         -DE/DX =    0.0                 !
 ! A44   A(22,23,26)           104.9269         -DE/DX =    0.0                 !
 ! A45   A(22,23,27)           109.2053         -DE/DX =    0.0                 !
 ! A46   A(22,23,28)           112.2017         -DE/DX =    0.0                 !
 ! A47   A(26,23,27)           109.5012         -DE/DX =    0.0                 !
 ! A48   A(26,23,28)           113.3767         -DE/DX =    0.0                 !
 ! A49   A(27,23,28)           107.5692         -DE/DX =    0.0                 !
 ! A50   A(22,24,29)           108.013          -DE/DX =    0.0                 !
 ! A51   A(22,24,30)           110.1588         -DE/DX =    0.0                 !
 ! A52   A(22,24,31)           115.4526         -DE/DX =    0.0                 !
 ! A53   A(29,24,30)           104.5631         -DE/DX =    0.0                 !
 ! A54   A(29,24,31)           115.8912         -DE/DX =    0.0                 !
 ! A55   A(30,24,31)           101.9762         -DE/DX =    0.0                 !
 ! A56   A(23,26,29)           102.7535         -DE/DX =    0.0                 !
 ! A57   A(23,26,32)           109.8458         -DE/DX =    0.0                 !
 ! A58   A(23,26,33)           113.329          -DE/DX =    0.0                 !
 ! A59   A(29,26,32)           109.5598         -DE/DX =    0.0                 !
 ! A60   A(29,26,33)           113.3265         -DE/DX =    0.0                 !
 ! A61   A(32,26,33)           107.9326         -DE/DX =    0.0                 !
 ! A62   A(24,29,26)           103.3768         -DE/DX =    0.0                 !
 ! A63   A(24,29,34)           112.7067         -DE/DX =    0.0                 !
 ! A64   A(24,29,35)           109.5174         -DE/DX =    0.0                 !
 ! A65   A(26,29,34)           113.9377         -DE/DX =    0.0                 !
 ! A66   A(26,29,35)           109.897          -DE/DX =    0.0                 !
 ! A67   A(34,29,35)           107.3531         -DE/DX =    0.0                 !
 ! A68   A(22,36,37)           110.8601         -DE/DX =    0.0                 !
 ! A69   A(22,36,38)           110.6864         -DE/DX =    0.0                 !
 ! A70   A(22,36,39)           111.5351         -DE/DX =    0.0                 !
 ! A71   A(37,36,38)           107.8632         -DE/DX =    0.0                 !
 ! A72   A(37,36,39)           107.8403         -DE/DX =    0.0                 !
 ! A73   A(38,36,39)           107.9093         -DE/DX =    0.0                 !
 ! A74   L(1,30,24,7,-1)       184.2606         -DE/DX =    0.0                 !
 ! A75   L(1,30,24,7,-2)       182.509          -DE/DX =    0.0                 !
 ! D1    D(30,1,2,3)          -173.7814         -DE/DX =    0.0                 !
 ! D2    D(30,1,2,4)           -56.4404         -DE/DX =    0.0                 !
 ! D3    D(30,1,2,5)            69.3959         -DE/DX =    0.0                 !
 ! D4    D(2,1,24,22)          -34.1985         -DE/DX =    0.0                 !
 ! D5    D(2,1,24,29)         -149.8985         -DE/DX =    0.0                 !
 ! D6    D(2,1,24,31)           89.8932         -DE/DX =    0.0                 !
 ! D7    D(1,2,3,11)           -58.7832         -DE/DX =    0.0                 !
 ! D8    D(1,2,3,12)            61.7029         -DE/DX =    0.0                 !
 ! D9    D(1,2,3,13)          -178.1632         -DE/DX =    0.0                 !
 ! D10   D(4,2,3,11)          -176.5427         -DE/DX =    0.0                 !
 ! D11   D(4,2,3,12)           -56.0565         -DE/DX =    0.0                 !
 ! D12   D(4,2,3,13)            64.0774         -DE/DX =    0.0                 !
 ! D13   D(5,2,3,11)            59.3011         -DE/DX =    0.0                 !
 ! D14   D(5,2,3,12)           179.7872         -DE/DX =    0.0                 !
 ! D15   D(5,2,3,13)           -60.0789         -DE/DX =    0.0                 !
 ! D16   D(1,2,4,14)            70.0933         -DE/DX =    0.0                 !
 ! D17   D(1,2,4,15)           -49.3404         -DE/DX =    0.0                 !
 ! D18   D(1,2,4,16)          -168.7721         -DE/DX =    0.0                 !
 ! D19   D(3,2,4,14)          -176.299          -DE/DX =    0.0                 !
 ! D20   D(3,2,4,15)            64.2674         -DE/DX =    0.0                 !
 ! D21   D(3,2,4,16)           -55.1643         -DE/DX =    0.0                 !
 ! D22   D(5,2,4,14)           -54.5023         -DE/DX =    0.0                 !
 ! D23   D(5,2,4,15)          -173.9359         -DE/DX =    0.0                 !
 ! D24   D(5,2,4,16)            66.6324         -DE/DX =    0.0                 !
 ! D25   D(1,2,5,6)           -150.6005         -DE/DX =    0.0                 !
 ! D26   D(1,2,5,10)            30.3097         -DE/DX =    0.0                 !
 ! D27   D(3,2,5,6)             95.866          -DE/DX =    0.0                 !
 ! D28   D(3,2,5,10)           -83.2238         -DE/DX =    0.0                 !
 ! D29   D(4,2,5,6)            -26.3032         -DE/DX =    0.0                 !
 ! D30   D(4,2,5,10)           154.607          -DE/DX =    0.0                 !
 ! D31   D(2,5,6,7)            179.8659         -DE/DX =    0.0                 !
 ! D32   D(2,5,6,17)             0.9243         -DE/DX =    0.0                 !
 ! D33   D(10,5,6,7)            -1.0414         -DE/DX =    0.0                 !
 ! D34   D(10,5,6,17)         -179.983          -DE/DX =    0.0                 !
 ! D35   D(2,5,10,9)          -179.7989         -DE/DX =    0.0                 !
 ! D36   D(2,5,10,21)           -1.0515         -DE/DX =    0.0                 !
 ! D37   D(6,5,10,9)             1.0758         -DE/DX =    0.0                 !
 ! D38   D(6,5,10,21)          179.8233         -DE/DX =    0.0                 !
 ! D39   D(5,6,7,8)              0.2288         -DE/DX =    0.0                 !
 ! D40   D(5,6,7,18)          -179.3506         -DE/DX =    0.0                 !
 ! D41   D(17,6,7,8)           179.1846         -DE/DX =    0.0                 !
 ! D42   D(17,6,7,18)           -0.3948         -DE/DX =    0.0                 !
 ! D43   D(6,7,8,9)              0.5678         -DE/DX =    0.0                 !
 ! D44   D(6,7,8,19)          -179.4973         -DE/DX =    0.0                 !
 ! D45   D(18,7,8,9)          -179.8545         -DE/DX =    0.0                 !
 ! D46   D(18,7,8,19)            0.0804         -DE/DX =    0.0                 !
 ! D47   D(7,8,9,10)            -0.5346         -DE/DX =    0.0                 !
 ! D48   D(7,8,9,20)           179.8042         -DE/DX =    0.0                 !
 ! D49   D(19,8,9,10)          179.5306         -DE/DX =    0.0                 !
 ! D50   D(19,8,9,20)           -0.1307         -DE/DX =    0.0                 !
 ! D51   D(8,9,10,5)            -0.2961         -DE/DX =    0.0                 !
 ! D52   D(8,9,10,21)         -179.0223         -DE/DX =    0.0                 !
 ! D53   D(20,9,10,5)          179.3659         -DE/DX =    0.0                 !
 ! D54   D(20,9,10,21)           0.6397         -DE/DX =    0.0                 !
 ! D55   D(24,22,23,26)         22.9139         -DE/DX =    0.0                 !
 ! D56   D(24,22,23,27)        -94.3898         -DE/DX =    0.0                 !
 ! D57   D(24,22,23,28)        146.4397         -DE/DX =    0.0                 !
 ! D58   D(25,22,23,26)        -93.3919         -DE/DX =    0.0                 !
 ! D59   D(25,22,23,27)        149.3045         -DE/DX =    0.0                 !
 ! D60   D(25,22,23,28)         30.1339         -DE/DX =    0.0                 !
 ! D61   D(36,22,23,26)        146.4766         -DE/DX =    0.0                 !
 ! D62   D(36,22,23,27)         29.1729         -DE/DX =    0.0                 !
 ! D63   D(36,22,23,28)        -89.9977         -DE/DX =    0.0                 !
 ! D64   D(23,22,24,29)          1.5821         -DE/DX =    0.0                 !
 ! D65   D(23,22,24,30)       -112.0608         -DE/DX =    0.0                 !
 ! D66   D(23,22,24,31)        133.1338         -DE/DX =    0.0                 !
 ! D67   D(25,22,24,29)        117.2066         -DE/DX =    0.0                 !
 ! D68   D(25,22,24,30)          3.5637         -DE/DX =    0.0                 !
 ! D69   D(25,22,24,31)       -111.2417         -DE/DX =    0.0                 !
 ! D70   D(36,22,24,29)       -122.2607         -DE/DX =    0.0                 !
 ! D71   D(36,22,24,30)        124.0964         -DE/DX =    0.0                 !
 ! D72   D(36,22,24,31)          9.2909         -DE/DX =    0.0                 !
 ! D73   D(23,22,36,37)         58.7776         -DE/DX =    0.0                 !
 ! D74   D(23,22,36,38)        -60.8772         -DE/DX =    0.0                 !
 ! D75   D(23,22,36,39)        178.9653         -DE/DX =    0.0                 !
 ! D76   D(24,22,36,37)        177.5409         -DE/DX =    0.0                 !
 ! D77   D(24,22,36,38)         57.8861         -DE/DX =    0.0                 !
 ! D78   D(24,22,36,39)        -62.2713         -DE/DX =    0.0                 !
 ! D79   D(25,22,36,37)        -61.3622         -DE/DX =    0.0                 !
 ! D80   D(25,22,36,38)        178.983          -DE/DX =    0.0                 !
 ! D81   D(25,22,36,39)         58.8255         -DE/DX =    0.0                 !
 ! D82   D(22,23,26,29)        -38.6861         -DE/DX =    0.0                 !
 ! D83   D(22,23,26,32)         77.8412         -DE/DX =    0.0                 !
 ! D84   D(22,23,26,33)       -161.3525         -DE/DX =    0.0                 !
 ! D85   D(27,23,26,29)         78.4154         -DE/DX =    0.0                 !
 ! D86   D(27,23,26,32)       -165.0572         -DE/DX =    0.0                 !
 ! D87   D(27,23,26,33)        -44.251          -DE/DX =    0.0                 !
 ! D88   D(28,23,26,29)       -161.456          -DE/DX =    0.0                 !
 ! D89   D(28,23,26,32)        -44.9286         -DE/DX =    0.0                 !
 ! D90   D(28,23,26,33)         75.8777         -DE/DX =    0.0                 !
 ! D91   D(22,24,29,26)        -25.3066         -DE/DX =    0.0                 !
 ! D92   D(22,24,29,34)       -148.784          -DE/DX =    0.0                 !
 ! D93   D(22,24,29,35)         91.7866         -DE/DX =    0.0                 !
 ! D94   D(30,24,29,26)         92.009          -DE/DX =    0.0                 !
 ! D95   D(30,24,29,34)        -31.4683         -DE/DX =    0.0                 !
 ! D96   D(30,24,29,35)       -150.8978         -DE/DX =    0.0                 !
 ! D97   D(31,24,29,26)       -156.6194         -DE/DX =    0.0                 !
 ! D98   D(31,24,29,34)         79.9032         -DE/DX =    0.0                 !
 ! D99   D(31,24,29,35)        -39.5262         -DE/DX =    0.0                 !
 ! D100  D(23,26,29,24)         39.0752         -DE/DX =    0.0                 !
 ! D101  D(23,26,29,34)        161.7375         -DE/DX =    0.0                 !
 ! D102  D(23,26,29,35)        -77.7506         -DE/DX =    0.0                 !
 ! D103  D(32,26,29,24)        -77.6564         -DE/DX =    0.0                 !
 ! D104  D(32,26,29,34)         45.006          -DE/DX =    0.0                 !
 ! D105  D(32,26,29,35)        165.5178         -DE/DX =    0.0                 !
 ! D106  D(33,26,29,24)        161.7432         -DE/DX =    0.0                 !
 ! D107  D(33,26,29,34)        -75.5944         -DE/DX =    0.0                 !
 ! D108  D(33,26,29,35)         44.9174         -DE/DX =    0.0                 !
 --------------------------------------------------------------------------------
 Largest change from initial coordinates is atom   28       0.257 Angstoms.
 GradGradGradGradGradGradGradGradGradGradGradGradGradGradGradGradGradGrad

 Leave Link  103 at Sun Nov 30 20:46:07 2025, MaxMem=   104857600 cpu:               0.0 elap:               0.0
 (Enter /home/zhouoh/g16/l202.exe)
                          Input orientation:                          
 ---------------------------------------------------------------------
 Center     Atomic      Atomic             Coordinates (Angstroms)
 Number     Number       Type             X           Y           Z
 ---------------------------------------------------------------------
      1          8           0        0.955341   -0.485714    5.092985
      2          6           0        0.066325    0.567944    4.806293
      3          6           0       -0.523990    0.930792    6.178488
      4          6           0        0.829523    1.765412    4.242175
      5          6           0       -1.060714    0.093057    3.889786
      6          6           0       -1.699932    0.941182    2.991192
      7          6           0       -2.718832    0.469581    2.172973
      8          6           0       -3.115825   -0.856579    2.245734
      9          6           0       -2.494379   -1.706034    3.151649
     10          6           0       -1.478439   -1.232814    3.967430
     11          1           0       -1.018262    0.064272    6.616393
     12          1           0        0.268311    1.268422    6.846520
     13          1           0       -1.259386    1.727451    6.057341
     14          1           0        1.202376    1.552057    3.239014
     15          1           0        1.677274    1.974776    4.893905
     16          1           0        0.205198    2.657736    4.194956
     17          1           0       -1.397620    1.976942    2.907657
     18          1           0       -3.197871    1.141618    1.472078
     19          1           0       -3.904009   -1.226252    1.602737
     20          1           0       -2.799165   -2.743165    3.218758
     21          1           0       -0.980645   -1.895536    4.663864
     22          6           0        1.488385   -0.991108    1.741457
     23          6           0        1.257611   -2.439266    1.264367
     24          6           0        2.297077   -1.137512    3.035207
     25          1           0        0.516085   -0.548136    1.973059
     26          6           0        1.399101   -3.295877    2.523011
     27          1           0        2.039484   -2.711257    0.547169
     28          1           0        0.295774   -2.560176    0.764460
     29          6           0        2.552837   -2.618358    3.264684
     30          1           0        1.615126   -0.785042    4.006972
     31          1           0        3.167145   -0.484981    3.120628
     32          1           0        0.488120   -3.227303    3.122812
     33          1           0        1.582221   -4.349153    2.310013
     34          1           0        2.611055   -2.876581    4.322909
     35          1           0        3.507799   -2.900414    2.806301
     36          6           0        2.177249   -0.112791    0.703862
     37          1           0        1.592768   -0.067914   -0.217211
     38          1           0        3.164506   -0.510637    0.455419
     39          1           0        2.308476    0.908690    1.066914
 ---------------------------------------------------------------------
                    Distance matrix (angstroms):
                    1          2          3          4          5
     1  O    0.000000
     2  C    1.408097   0.000000
     3  C    2.318022   1.537222   0.000000
     4  C    2.409830   1.527950   2.505573   0.000000
     5  C    2.418086   1.528306   2.495601   2.548322   0.000000
     6  C    3.674784   2.559992   3.397323   2.939805   1.391182
     7  C    4.789426   3.834207   4.590664   4.307157   2.416314
     8  C    4.981844   4.325714   5.037743   5.140660   2.797892
     9  C    4.142286   3.803423   4.471804   4.928337   2.415982
    10  C    2.783580   2.516489   3.237428   3.793618   1.392285
    11  H    2.553109   2.169442   1.089459   3.456169   2.727089
    12  H    2.573691   2.166563   1.089955   2.710087   3.448198
    13  H    3.276141   2.160345   1.090940   2.767637   2.721949
    14  H    2.765999   2.171509   3.465085   1.091271   2.770155
    15  H    2.571932   2.140563   2.754200   1.089618   3.470691
    16  H    3.354169   2.181800   2.729185   1.090070   2.876324
    17  H    4.046821   2.780869   3.543444   2.604967   2.151071
    18  H    5.745289   4.701177   5.417045   4.927723   3.392968
    19  H    6.028557   5.407907   6.083983   6.190558   3.880141
    20  H    4.764990   4.657762   5.237784   5.877247   3.393619
    21  H    2.433060   2.680515   3.238942   4.105736   2.135441
    22  C    3.431079   3.721036   5.237422   3.779695   3.505515
    23  C    4.308834   4.796635   6.219323   5.170099   4.322050
    24  C    2.541563   3.319875   4.702819   3.469503   3.676868
    25  H    3.151314   3.078170   4.577621   3.255708   2.563448
    26  C    3.833889   4.681749   5.909781   5.375555   4.404956
    27  H    5.176182   5.725963   7.179671   5.929388   5.352429
    28  H    4.845054   5.116072   6.493886   5.575850   4.318260
    29  C    3.231540   4.325716   5.527530   4.810691   4.560732
    30  H    1.305503   2.206415   3.497911   2.679050   2.818671
    31  H    2.963490   3.683096   4.997939   3.433163   4.335957
    32  H    3.408252   4.173238   5.258447   5.128034   3.743251
    33  H    4.802507   5.719020   6.875975   6.456602   5.405000
    34  H    3.008430   4.309763   5.269513   4.972773   4.742176
    35  H    4.192224   5.279509   6.504237   5.568198   5.568314
    36  C    4.571273   4.663619   6.193326   4.226544   4.547185
    37  H    5.364612   5.288661   6.810510   4.881573   4.892270
    38  H    5.136931   5.449052   6.959615   4.997206   5.478304
    39  H    4.470412   4.373362   5.843932   3.606044   4.470493
                    6          7          8          9         10
     6  C    0.000000
     7  C    1.389261   0.000000
     8  C    2.406742   1.386217   0.000000
     9  C    2.768509   2.396139   1.388686   0.000000
    10  C    2.393399   2.767092   2.405581   1.386207   0.000000
    11  H    3.791534   4.774955   4.934612   4.161413   2.985164
    12  H    4.341039   5.603857   6.093869   5.489255   4.194816
    13  H    3.195867   4.335958   4.965070   4.664447   3.630273
    14  H    2.976234   4.205243   5.043311   4.928365   3.933556
    15  H    4.011752   5.384685   6.164672   5.829795   4.594074
    16  H    2.832865   4.174493   5.213355   5.236286   4.245325
    17  H    1.082205   2.134829   3.379232   3.850548   3.381151
    18  H    2.142826   1.082759   2.144311   3.380086   3.849825
    19  H    3.388736   2.146080   1.082283   2.148575   3.387507
    20  H    3.851560   3.379623   2.146219   1.083070   2.141492
    21  H    3.370782   3.849624   3.389067   2.148045   1.082598
    22  C    3.932040   4.474426   4.633696   4.285110   3.716910
    23  C    4.812111   5.009895   4.753412   4.263437   4.030887
    24  C    4.505439   5.337184   5.477380   4.826471   3.890069
    25  H    2.857515   3.397116   3.655168   3.434049   2.902486
    26  C    5.270281   5.590936   5.139222   4.252290   3.823978
    27  H    5.770337   5.950003   5.736041   5.324444   5.124428
    28  H    4.604420   4.500131   4.090895   3.770037   3.894706
    29  C    5.552582   6.206262   6.022944   5.130254   4.320275
    30  H    3.873146   4.870402   5.048660   4.297422   3.126053
    31  H    5.073374   6.037711   6.354465   5.791786   4.780981
    32  H    4.709687   4.985346   4.402046   3.348192   2.925529
    33  H    6.262921   6.460498   5.854386   4.930832   4.671856
    34  H    5.910447   6.650317   6.418116   5.367261   4.421798
    35  H    6.473986   7.108368   6.954415   6.129596   5.384392
    36  C    4.623339   5.144808   5.563022   5.509464   5.026866
    37  H    4.706804   4.959010   5.372052   5.544135   5.319824
    38  H    5.674564   6.206810   6.539684   6.381349   5.866234
    39  H    4.446486   5.166237   5.824846   5.852377   5.228743
                   11         12         13         14         15
    11  H    0.000000
    12  H    1.777134   0.000000
    13  H    1.771114   1.779711   0.000000
    14  H    4.307137   3.737249   3.746199   0.000000
    15  H    3.725977   2.509346   3.168395   1.772819   0.000000
    16  H    3.753168   2.994156   2.545372   1.769382   1.766910
    17  H    4.190101   4.334971   3.162573   2.655241   3.660623
    18  H    5.689934   6.396493   5.012540   4.759484   6.014158
    19  H    5.927034   7.150448   5.963378   6.039169   7.226969
    20  H    4.753656   6.217950   5.514969   5.870406   6.715921
    21  H    2.766701   4.041597   3.891723   4.322230   4.700719
    22  C    5.582303   5.714519   5.793760   2.965158   4.332444
    23  C    6.331784   6.773928   6.831501   4.453419   5.730046
    24  C    5.025997   4.942723   5.476288   2.910960   3.677669
    25  H    4.928470   5.206908   5.001195   2.546457   4.030482
    26  C    5.821513   6.387819   6.692747   4.904470   5.786043
    27  H    7.340903   7.658768   7.806835   5.111030   6.401892
    28  H    6.546720   7.186819   6.986906   4.884240   6.287022
    29  C    5.584193   5.758096   6.420128   4.383693   4.951551
    30  H    3.803307   3.754152   4.333527   2.494425   2.899502
    31  H    5.480847   5.035864   5.754417   2.832641   3.378554
    32  H    5.030781   5.841734   6.017875   4.833833   5.622498
    33  H    6.692215   7.339169   7.683900   5.985951   6.832102
    34  H    5.203905   5.388702   6.259846   4.772006   4.973293
    35  H    6.617506   6.648071   7.396786   5.032565   5.610382
    36  C    6.723144   6.579061   6.622439   3.185764   4.707906
    37  H    7.316632   7.310012   7.122368   3.836952   5.504837
    38  H    7.468847   7.238728   7.480735   3.981591   5.299934
    39  H    6.525101   6.139668   6.189053   2.520991   4.022538
                   16         17         18         19         20
    16  H    0.000000
    17  H    2.165559   0.000000
    18  H    4.614494   2.449398   0.000000
    19  H    6.220172   4.271445   2.474371   0.000000
    20  H    6.256908   4.933611   4.278014   2.476536   0.000000
    21  H    4.728465   4.272495   4.932331   4.285382   2.472615
    22  C    4.580424   4.300973   5.155781   5.399300   4.861605
    23  C    5.972885   5.408655   5.719895   5.313023   4.513251
    24  C    4.486076   4.833930   6.150793   6.365006   5.346353
    25  H    3.912939   3.303295   4.110927   4.487116   4.166630
    26  C    6.298119   5.980988   6.475181   5.766561   4.291269
    27  H    6.745150   6.274137   6.567343   6.216476   5.527290
    28  H    6.245247   5.295877   5.139023   4.485558   3.954201
    29  C    5.849272   6.070450   7.100810   6.811086   5.353654
    30  H    3.725044   4.232457   5.770844   6.036212   4.893004
    31  H    4.450166   5.190713   6.773253   7.270122   6.380116
    32  H    5.988590   5.539537   5.949699   5.060200   3.324129
    33  H    7.385506   7.018270   7.328027   6.352281   4.754110
    34  H    6.035990   6.452062   7.616875   7.250446   5.523353
    35  H    6.612758   6.918238   7.942555   7.693262   6.322392
    36  C    4.873658   4.690777   5.572756   6.247356   6.165084
    37  H    5.368588   4.784210   5.221771   5.904957   6.184814
    38  H    5.725402   5.745826   6.651570   7.196690   6.941585
    39  H    4.155428   4.273716   5.526144   6.590906   6.637354
                   21         22         23         24         25
    21  H    0.000000
    22  C    3.931228   0.000000
    23  C    4.106338   1.542087   0.000000
    24  C    3.737724   1.532712   2.431240   0.000000
    25  H    3.360969   1.093266   2.151390   2.155795   0.000000
    26  C    3.493908   2.435315   1.529048   2.393166   2.938069
    27  H    5.170470   2.165398   1.095298   2.955227   3.005496
    28  H    4.156481   2.199731   1.090714   3.344470   2.357447
    29  C    3.868549   2.470065   2.389760   1.520191   3.178439
    30  H    2.898746   2.278395   3.222756   1.238393   2.323966
    31  H    4.644933   2.230810   3.303218   1.090922   2.889467
    32  H    2.511118   2.812337   2.160310   2.765362   2.915587
    33  H    4.257832   3.407129   2.201458   3.369208   3.962060
    34  H    3.738851   3.388110   3.373090   2.186577   3.915655
    35  H    4.960488   2.976135   2.766507   2.150831   3.895877
    36  C    5.369552   1.524001   2.563666   2.549428   2.135381
    37  H    5.812706   2.167848   2.816152   3.495471   2.487397
    38  H    6.067226   2.166594   2.830239   2.792976   3.052667
    39  H    5.623170   2.176416   3.514557   2.839234   2.481150
                   26         27         28         29         30
    26  C    0.000000
    27  H    2.157736   0.000000
    28  H    2.202519   1.763680   0.000000
    29  C    1.529777   2.767137   3.368804   0.000000
    30  H    2.924568   3.982540   3.925006   2.188913   0.000000
    31  H    3.374057   3.584775   4.254730   2.224730   1.812293
    32  H    1.092863   3.050733   2.458430   2.157313   2.831345
    33  H    1.090088   2.449370   2.691490   2.202077   3.947612
    34  H    2.210039   3.822334   4.257135   1.090829   2.337996
    35  H    2.164082   2.701001   3.821254   1.096185   3.081983
    36  C    3.747914   2.606829   3.087607   3.602325   3.417374
    37  H    4.238640   2.787668   2.976112   4.421548   4.284681
    38  H    3.892192   2.473220   3.539172   3.564912   3.884509
    39  H    4.541537   3.666948   4.021875   4.162928   3.463149
                   31         32         33         34         35
    31  H    0.000000
    32  H    3.833733   0.000000
    33  H    4.254516   1.765290   0.000000
    34  H    2.733947   2.463756   2.697910   0.000000
    35  H    2.459505   3.053768   2.460284   1.762049   0.000000
    36  C    2.638025   4.290066   4.569523   4.574301   3.736504
    37  H    3.713997   4.728397   4.971517   5.434906   4.564211
    38  H    2.665334   4.653848   4.547235   4.567437   3.369797
    39  H    2.626284   4.964559   5.451390   5.002132   4.355814
                   36         37         38         39
    36  C    0.000000
    37  H    1.091790   0.000000
    38  H    1.093016   1.766011   0.000000
    39  H    1.091994   1.764928   1.766693   0.000000
 Stoichiometry    C15H23O(2)
 Framework group  C1[X(C15H23O)]
 Deg. of freedom   111
 Full point group                 C1      NOp   1
 RotChk:  IX=0 Diff= 6.05D-16
 Largest Abelian subgroup         C1      NOp   1
 Largest concise Abelian subgroup C1      NOp   1
                         Standard orientation:                         
 ---------------------------------------------------------------------
 Center     Atomic      Atomic             Coordinates (Angstroms)
 Number     Number       Type             X           Y           Z
 ---------------------------------------------------------------------
      1          8           0       -0.147780   -1.842206   -0.940088
      2          6           0       -1.238635   -1.561434   -0.095139
      3          6           0       -2.416284   -2.286120   -0.766721
      4          6           0       -0.997296   -2.150560    1.293860
      5          6           0       -1.529723   -0.061412   -0.064789
      6          6           0       -2.084839    0.569238    1.044045
      7          6           0       -2.331671    1.936348    1.032665
      8          6           0       -2.030820    2.691122   -0.090458
      9          6           0       -1.491848    2.066810   -1.207683
     10          6           0       -1.247151    0.702440   -1.194011
     11          1           0       -2.557264   -1.914813   -1.781205
     12          1           0       -2.222834   -3.358256   -0.799965
     13          1           0       -3.328201   -2.100252   -0.197503
     14          1           0       -0.207329   -1.607482    1.815290
     15          1           0       -0.692147   -3.190510    1.181368
     16          1           0       -1.897647   -2.122259    1.907716
     17          1           0       -2.315345    0.002438    1.936667
     18          1           0       -2.754440    2.411995    1.908675
     19          1           0       -2.215453    3.757521   -0.096708
     20          1           0       -1.256142    2.646771   -2.091498
     21          1           0       -0.812450    0.214533   -2.057145
     22          6           0        1.833984    0.313452    0.848222
     23          6           0        2.540432    1.391042    0.001013
     24          6           0        2.027244   -0.984766    0.056713
     25          1           0        0.768443    0.554637    0.889246
     26          6           0        2.568445    0.821036   -1.417541
     27          1           0        3.565902    1.519555    0.363743
     28          1           0        2.043525    2.359643    0.068471
     29          6           0        2.851527   -0.663356   -1.179504
     30          1           0        0.940754   -1.379567   -0.387461
     31          1           0        2.359166   -1.844660    0.640256
     32          1           0        1.586438    0.936171   -1.883111
     33          1           0        3.303952    1.302809   -2.061914
     34          1           0        2.604606   -1.302665   -2.028164
     35          1           0        3.915227   -0.809552   -0.958617
     36          6           0        2.357824    0.224532    2.276600
     37          1           0        2.242044    1.179323    2.793297
     38          1           0        3.419923   -0.033515    2.282983
     39          1           0        1.824385   -0.534448    2.852658
 ---------------------------------------------------------------------
 Rotational constants (GHZ):           0.6267266           0.4368674           0.3589762
 Leave Link  202 at Sun Nov 30 20:46:07 2025, MaxMem=   104857600 cpu:               0.0 elap:               0.0
 (Enter /home/zhouoh/g16/l601.exe)
 Leave Link  601 at Sun Nov 30 20:46:07 2025, MaxMem=   104857600 cpu:               0.0 elap:               0.0
 (Enter /home/zhouoh/g16/l716.exe)
 Rotating derivatives to standard orientation.
 Dipole        = 0.00000000D+00 0.00000000D+00 0.00000000D+00
 Full mass-weighted force constant matrix:
 Low frequencies ----1744.8911   -3.8878   -2.7813   -0.2627    3.9765    4.7225
 Low frequencies ---    4.8444   22.6661   36.3113
 ******    1 imaginary frequencies (negative Signs) ****** 
 Diagonal vibrational polarizability:
        0.0000000       0.0000000       0.0000000
 Harmonic frequencies (cm**-1), IR intensities (KM/Mole), Raman scattering
 activities (A**4/AMU), depolarization ratios for plane and unpolarized
 incident light, reduced masses (AMU), force constants (mDyne/A),
 and normal coordinates:
                      1                      2                      3
                      A                      A                      A
 Frequencies --  -1744.8911                22.6572                36.3069
 Red. masses --      1.1029                 3.2489                 4.3888
 Frc consts  --      1.9785                 0.0010                 0.0034
 IR Inten    --      0.0000                 0.0000                 0.0000
  Atom  AN      X      Y      Z        X      Y      Z        X      Y      Z
     1   8    -0.06  -0.02  -0.02     0.02   0.04  -0.03     0.00  -0.07   0.02
     2   6     0.01   0.01   0.00    -0.00   0.01  -0.04    -0.03  -0.06  -0.02
     3   6     0.00  -0.01  -0.01     0.02   0.02  -0.09    -0.02  -0.01  -0.08
     4   6     0.00  -0.00   0.00    -0.02  -0.04  -0.06    -0.10  -0.09  -0.02
     5   6     0.00   0.00  -0.00    -0.01   0.00   0.01     0.02  -0.05  -0.01
     6   6    -0.00  -0.00   0.00    -0.03  -0.04   0.02     0.18  -0.00   0.04
     7   6    -0.00  -0.00  -0.00    -0.03  -0.04   0.07     0.28   0.02   0.06
     8   6     0.00  -0.00  -0.00    -0.01   0.00   0.11     0.23  -0.01   0.03
     9   6    -0.00  -0.00  -0.00     0.01   0.05   0.09     0.07  -0.06  -0.03
    10   6    -0.00  -0.00   0.00     0.01   0.05   0.04    -0.03  -0.08  -0.04
    11   1    -0.01  -0.00  -0.00     0.04   0.06  -0.08     0.03   0.01  -0.08
    12   1    -0.01  -0.00   0.00     0.02   0.03  -0.13    -0.04  -0.02  -0.10
    13   1     0.02   0.02   0.01     0.00  -0.00  -0.10    -0.04  -0.01  -0.11
    14   1    -0.00  -0.00  -0.00    -0.04  -0.05  -0.02    -0.09  -0.14   0.01
    15   1     0.00  -0.00   0.00    -0.01  -0.03  -0.09    -0.14  -0.10  -0.03
    16   1    -0.00   0.00  -0.01    -0.04  -0.07  -0.08    -0.12  -0.06  -0.05
    17   1     0.00   0.00   0.00    -0.04  -0.08  -0.00     0.23   0.02   0.07
    18   1     0.00  -0.00   0.00    -0.05  -0.08   0.08     0.40   0.05   0.10
    19   1     0.00  -0.00   0.00    -0.01   0.00   0.15     0.31   0.00   0.04
    20   1     0.00  -0.00   0.00     0.02   0.08   0.12     0.02  -0.08  -0.05
    21   1     0.00   0.01  -0.00     0.02   0.08   0.03    -0.14  -0.11  -0.08
    22   6     0.01   0.00   0.01    -0.03   0.06  -0.04    -0.09   0.06   0.00
    23   6     0.00   0.00   0.00    -0.05  -0.00  -0.14    -0.12   0.07  -0.01
    24   6    -0.04  -0.02  -0.01    -0.01  -0.01   0.08    -0.05   0.06   0.02
    25   1     0.01   0.01   0.01    -0.03   0.04  -0.04    -0.10   0.03  -0.01
    26   6     0.00  -0.00   0.00     0.05  -0.17  -0.07    -0.11   0.06  -0.00
    27   1     0.00   0.00  -0.00    -0.07   0.10  -0.11    -0.12   0.10  -0.01
    28   1     0.00   0.01  -0.00    -0.11  -0.02  -0.28    -0.14   0.06  -0.02
    29   6     0.02   0.00   0.00     0.09  -0.13   0.12    -0.06   0.07   0.01
    30   1     0.82   0.34   0.42     0.01   0.01   0.02    -0.03  -0.00   0.03
    31   1     0.15   0.07   0.04    -0.09   0.02   0.17    -0.01   0.08   0.04
    32   1    -0.00   0.00   0.00     0.08  -0.26  -0.14    -0.11   0.02   0.00
    33   1    -0.00   0.01  -0.00     0.07  -0.22  -0.08    -0.12   0.07  -0.01
    34   1     0.00   0.01  -0.00     0.18  -0.24   0.17    -0.05   0.05   0.02
    35   1     0.02   0.02  -0.03     0.07  -0.07   0.23    -0.06   0.10   0.01
    36   6     0.00   0.00  -0.00    -0.00   0.19  -0.04    -0.11   0.10   0.01
    37   1     0.01  -0.00   0.01    -0.00   0.24  -0.12    -0.15   0.11  -0.01
    38   1    -0.00  -0.00  -0.00    -0.00   0.20  -0.03    -0.10   0.13   0.03
    39   1     0.00  -0.00  -0.00     0.01   0.24   0.04    -0.10   0.09   0.02
                      4                      5                      6
                      A                      A                      A
 Frequencies --     41.1778                54.1098                77.1776
 Red. masses --      2.7188                 3.9107                 3.1072
 Frc consts  --      0.0027                 0.0067                 0.0109
 IR Inten    --      0.0000                 0.0000                 0.0000
  Atom  AN      X      Y      Z        X      Y      Z        X      Y      Z
     1   8    -0.02  -0.02   0.01    -0.03  -0.06   0.03     0.03  -0.01   0.10
     2   6    -0.02  -0.02   0.01    -0.02  -0.03   0.02    -0.04  -0.02  -0.00
     3   6    -0.02  -0.02   0.01    -0.04  -0.02   0.04     0.02   0.02  -0.15
     4   6    -0.01  -0.02   0.01    -0.03  -0.01   0.04    -0.19  -0.06   0.00
     5   6    -0.02  -0.02   0.02     0.00  -0.03   0.01    -0.02  -0.02   0.01
     6   6    -0.02  -0.03   0.02    -0.17  -0.05  -0.07    -0.03  -0.01   0.00
     7   6    -0.01  -0.03   0.03    -0.11  -0.04  -0.06    -0.04  -0.01  -0.01
     8   6     0.01  -0.02   0.04     0.13  -0.01   0.03    -0.04  -0.02  -0.02
     9   6     0.01  -0.01   0.04     0.29   0.02   0.10    -0.02  -0.02  -0.01
    10   6     0.00  -0.01   0.03     0.22   0.00   0.08    -0.01  -0.02   0.01
    11   1    -0.02  -0.02   0.01    -0.03  -0.03   0.04     0.13   0.06  -0.15
    12   1    -0.01  -0.02   0.01    -0.05  -0.03   0.05     0.00   0.02  -0.17
    13   1    -0.02  -0.03   0.01    -0.03  -0.01   0.04    -0.04   0.01  -0.24
    14   1    -0.01  -0.02   0.01    -0.02  -0.00   0.02    -0.21  -0.11   0.08
    15   1    -0.01  -0.02   0.01    -0.04  -0.01   0.06    -0.23  -0.07   0.01
    16   1    -0.01  -0.02   0.02    -0.02   0.02   0.04    -0.24  -0.04  -0.07
    17   1    -0.04  -0.03   0.01    -0.35  -0.07  -0.13    -0.03  -0.00   0.01
    18   1    -0.02  -0.03   0.03    -0.24  -0.06  -0.11    -0.04  -0.01  -0.02
    19   1     0.02  -0.02   0.04     0.18   0.00   0.04    -0.05  -0.02  -0.03
    20   1     0.03  -0.01   0.05     0.47   0.04   0.16    -0.02  -0.03  -0.01
    21   1     0.02  -0.01   0.03     0.33   0.01   0.13    -0.01  -0.03   0.01
    22   6     0.01   0.08  -0.08    -0.03   0.02  -0.02     0.12   0.06   0.05
    23   6     0.23  -0.01  -0.01    -0.08   0.05  -0.03     0.13   0.01  -0.00
    24   6    -0.02   0.05  -0.04    -0.03   0.03  -0.04     0.03   0.04   0.06
    25   1     0.03   0.19  -0.24    -0.03  -0.00   0.02     0.13   0.10   0.10
    26   6     0.14   0.03  -0.02    -0.06   0.05  -0.04    -0.05   0.01  -0.01
    27   1     0.24  -0.23   0.02    -0.09   0.10  -0.04     0.17  -0.08  -0.10
    28   1     0.41   0.08   0.03    -0.12   0.03  -0.03     0.21   0.05   0.05
    29   6    -0.04  -0.01  -0.07    -0.05   0.05  -0.05    -0.10  -0.00  -0.04
    30   1    -0.03   0.02   0.01    -0.03   0.00  -0.02    -0.01   0.03   0.16
    31   1    -0.00   0.07  -0.01    -0.00   0.03  -0.05     0.08   0.05   0.04
    32   1     0.14   0.17  -0.00    -0.05   0.06  -0.05    -0.09   0.07   0.10
    33   1     0.19  -0.04  -0.02    -0.05   0.06  -0.02    -0.09  -0.02  -0.08
    34   1    -0.15   0.04  -0.07    -0.05   0.06  -0.05    -0.24   0.01  -0.01
    35   1    -0.04  -0.15  -0.12    -0.05   0.06  -0.06    -0.08  -0.06  -0.17
    36   6    -0.21   0.06   0.00     0.03   0.02  -0.04     0.20   0.05   0.02
    37   1    -0.21   0.08  -0.04     0.03   0.01  -0.03     0.28   0.06   0.01
    38   1    -0.24  -0.03   0.16     0.03   0.04  -0.09     0.19  -0.00  -0.04
    39   1    -0.37   0.12  -0.06     0.07  -0.00  -0.03     0.20   0.09   0.06
                      7                      8                      9
                      A                      A                      A
 Frequencies --    121.9148               134.3398               160.4175
 Red. masses --      2.9484                 3.0969                 3.1855
 Frc consts  --      0.0258                 0.0329                 0.0483
 IR Inten    --      0.0000                 0.0000                 0.0000
  Atom  AN      X      Y      Z        X      Y      Z        X      Y      Z
     1   8    -0.09  -0.00  -0.05    -0.01  -0.09   0.07    -0.02  -0.03  -0.09
     2   6    -0.08  -0.03  -0.02    -0.00  -0.01   0.06     0.04  -0.01  -0.03
     3   6    -0.09  -0.08   0.05    -0.06   0.15  -0.03    -0.10   0.15   0.06
     4   6    -0.00  -0.01  -0.02    -0.13  -0.09   0.04     0.12  -0.10  -0.08
     5   6    -0.08  -0.04  -0.03     0.08   0.01   0.08     0.13   0.00   0.02
     6   6    -0.03  -0.02  -0.01     0.06   0.02   0.06     0.10  -0.01   0.01
     7   6     0.04  -0.01   0.00    -0.03   0.01  -0.01    -0.02  -0.04  -0.03
     8   6     0.06  -0.01   0.00    -0.10  -0.03  -0.05    -0.09  -0.05  -0.06
     9   6    -0.01  -0.03  -0.02    -0.03  -0.04  -0.01     0.01  -0.02  -0.03
    10   6    -0.07  -0.05  -0.03     0.06  -0.02   0.05     0.12  -0.00   0.02
    11   1    -0.16  -0.09   0.05     0.02   0.23  -0.01    -0.18   0.24   0.10
    12   1    -0.05  -0.07   0.05    -0.18   0.13  -0.08    -0.21   0.13  -0.04
    13   1    -0.06  -0.11   0.10    -0.06   0.23  -0.05    -0.01   0.20   0.18
    14   1     0.00   0.02  -0.06    -0.07  -0.22   0.08     0.24  -0.20  -0.14
    15   1     0.02  -0.00  -0.02    -0.28  -0.13   0.01     0.01  -0.12  -0.16
    16   1     0.02  -0.02   0.02    -0.15   0.02   0.02     0.20  -0.03   0.03
    17   1    -0.04  -0.02  -0.01     0.09   0.05   0.08     0.13  -0.02   0.02
    18   1     0.09   0.01   0.02    -0.07   0.02  -0.03    -0.07  -0.04  -0.05
    19   1     0.12  -0.00   0.02    -0.20  -0.05  -0.11    -0.21  -0.07  -0.10
    20   1     0.00  -0.04  -0.02    -0.07  -0.06  -0.04    -0.03  -0.03  -0.04
    21   1    -0.10  -0.06  -0.04     0.09  -0.04   0.07     0.15   0.00   0.03
    22   6     0.00   0.08   0.02    -0.02  -0.02  -0.06    -0.02   0.06   0.05
    23   6     0.04   0.07   0.02    -0.06   0.05  -0.02     0.03  -0.00   0.02
    24   6    -0.13   0.09  -0.02     0.04   0.01  -0.08    -0.12   0.03   0.06
    25   1     0.02   0.15   0.14    -0.03  -0.07  -0.05    -0.00   0.13   0.09
    26   6     0.18   0.04   0.04     0.14   0.05  -0.02    -0.06  -0.02   0.03
    27   1     0.00   0.11   0.10    -0.11   0.17   0.08     0.05  -0.08  -0.01
    28   1     0.01   0.06  -0.05    -0.17  -0.01  -0.08     0.11   0.04   0.03
    29   6     0.06   0.03   0.09     0.15   0.05  -0.00    -0.13  -0.03   0.04
    30   1    -0.14   0.18  -0.14     0.03  -0.01  -0.10    -0.10   0.04  -0.00
    31   1    -0.30   0.02  -0.02     0.02   0.00  -0.08    -0.16   0.02   0.06
    32   1     0.24   0.09  -0.09     0.19   0.02  -0.15    -0.06   0.04   0.06
    33   1     0.29  -0.01   0.12     0.21   0.07   0.08    -0.05  -0.07  -0.01
    34   1     0.15   0.03   0.06     0.26   0.05  -0.04    -0.20  -0.03   0.05
    35   1     0.02  -0.03   0.25     0.13   0.08   0.11    -0.13  -0.08   0.01
    36   6     0.16  -0.03  -0.04    -0.03  -0.05  -0.06     0.03   0.06   0.03
    37   1     0.34  -0.03   0.01    -0.09  -0.08  -0.02     0.18   0.10  -0.01
    38   1     0.13  -0.15  -0.18    -0.01   0.02  -0.07    -0.00  -0.08  -0.00
    39   1     0.14   0.02   0.00     0.01  -0.11  -0.10    -0.04   0.16   0.10
                     10                     11                     12
                      A                      A                      A
 Frequencies --    214.3444               245.0200               252.3487
 Red. masses --      1.8102                 1.1182                 1.8205
 Frc consts  --      0.0490                 0.0396                 0.0683
 IR Inten    --      0.0000                 0.0000                 0.0000
  Atom  AN      X      Y      Z        X      Y      Z        X      Y      Z
     1   8    -0.01   0.11  -0.02    -0.01   0.01  -0.01    -0.01   0.03  -0.02
     2   6    -0.01  -0.00   0.03    -0.01  -0.00  -0.01    -0.02  -0.01  -0.01
     3   6     0.01  -0.01  -0.02    -0.04   0.01   0.02    -0.10   0.07   0.04
     4   6     0.04  -0.10  -0.03     0.01  -0.01  -0.02     0.02  -0.05  -0.03
     5   6    -0.06  -0.01   0.08    -0.01  -0.00  -0.01    -0.04  -0.02   0.01
     6   6    -0.07   0.05   0.04    -0.01  -0.01  -0.01    -0.06  -0.02  -0.01
     7   6    -0.02   0.07  -0.03     0.00  -0.01  -0.00    -0.01  -0.01  -0.01
     8   6     0.04   0.01  -0.05     0.01  -0.01   0.00     0.05  -0.02   0.00
     9   6     0.03  -0.05  -0.02    -0.00  -0.00  -0.00     0.01  -0.03  -0.01
    10   6    -0.03  -0.06   0.05    -0.01  -0.00  -0.01    -0.05  -0.04  -0.01
    11   1    -0.24   0.31   0.13    -0.04  -0.01   0.01     0.09  -0.15  -0.06
    12   1     0.23   0.05  -0.41    -0.08   0.01   0.05    -0.36   0.01   0.33
    13   1     0.07  -0.39   0.20    -0.02   0.07   0.03    -0.11   0.43  -0.10
    14   1     0.21  -0.27  -0.12     0.01  -0.01  -0.02     0.01  -0.04  -0.03
    15   1    -0.17  -0.16  -0.10     0.02  -0.00  -0.03     0.05  -0.03  -0.08
    16   1     0.12   0.06   0.08     0.02  -0.02  -0.00     0.03  -0.10  -0.01
    17   1    -0.10   0.10   0.07    -0.01  -0.02  -0.01    -0.09  -0.02  -0.02
    18   1    -0.02   0.12  -0.06     0.01  -0.01   0.00    -0.01   0.01  -0.02
    19   1     0.09   0.02  -0.09     0.02  -0.00   0.01     0.11  -0.01   0.01
    20   1     0.06  -0.10  -0.04    -0.01   0.00  -0.00     0.02  -0.04  -0.01
    21   1    -0.04  -0.11   0.08    -0.01  -0.00  -0.01    -0.07  -0.06  -0.01
    22   6     0.02  -0.01  -0.00     0.02  -0.00   0.01     0.06  -0.01  -0.00
    23   6     0.01  -0.01  -0.00     0.01   0.00   0.01     0.06  -0.01   0.00
    24   6     0.03  -0.01  -0.00     0.01  -0.00   0.01     0.07  -0.01  -0.01
    25   1     0.01  -0.02  -0.02     0.01  -0.02   0.02     0.06  -0.01  -0.05
    26   6    -0.02  -0.00  -0.00     0.04   0.00   0.01    -0.08   0.00  -0.00
    27   1     0.02  -0.01  -0.02    -0.00   0.03   0.03     0.10  -0.10  -0.08
    28   1     0.01  -0.01   0.01    -0.01  -0.00  -0.01     0.13   0.02   0.08
    29   6     0.03   0.00  -0.00    -0.03  -0.02  -0.02     0.11   0.05   0.03
    30   1     0.02   0.02   0.00    -0.01  -0.01   0.03     0.02   0.00  -0.06
    31   1     0.03  -0.01  -0.01     0.02  -0.00   0.01     0.04  -0.03  -0.03
    32   1    -0.03  -0.03   0.03     0.06   0.05  -0.03    -0.17  -0.13   0.16
    33   1    -0.05   0.01  -0.03     0.09  -0.02   0.04    -0.24   0.08  -0.12
    34   1     0.05  -0.01  -0.00    -0.11   0.01  -0.02     0.28  -0.02   0.03
    35   1     0.03   0.04   0.00    -0.03  -0.09  -0.07     0.12   0.22   0.12
    36   6    -0.01   0.01   0.01     0.02   0.04   0.02    -0.00   0.04   0.02
    37   1    -0.07  -0.00   0.01    -0.49  -0.11   0.17    -0.02   0.06  -0.03
    38   1     0.00   0.06   0.04     0.15   0.58   0.01    -0.01   0.02   0.09
    39   1     0.01  -0.02  -0.01     0.39  -0.33  -0.12    -0.04   0.07   0.04
                     13                     14                     15
                      A                      A                      A
 Frequencies --    258.2558               272.1065               287.2898
 Red. masses --      1.7761                 1.7427                 1.1504
 Frc consts  --      0.0698                 0.0760                 0.0559
 IR Inten    --      0.0000                 0.0000                 0.0000
  Atom  AN      X      Y      Z        X      Y      Z        X      Y      Z
     1   8    -0.01   0.10  -0.02     0.01   0.00   0.00    -0.01   0.03  -0.01
     2   6     0.01   0.01   0.03    -0.00  -0.00  -0.01    -0.00   0.01   0.00
     3   6     0.07  -0.02  -0.05    -0.04   0.02   0.02    -0.03   0.06   0.00
     4   6     0.05  -0.06  -0.01     0.02  -0.02  -0.02    -0.01   0.01   0.01
     5   6    -0.02   0.00   0.08    -0.02  -0.00  -0.02    -0.00  -0.01   0.01
     6   6    -0.02   0.05   0.06    -0.04  -0.01  -0.02    -0.00  -0.02   0.01
     7   6    -0.01   0.06  -0.01     0.00  -0.00   0.00     0.00  -0.02  -0.00
     8   6     0.00   0.00  -0.05     0.03   0.01   0.02     0.01  -0.03  -0.01
     9   6     0.02  -0.05  -0.01    -0.02   0.00  -0.00     0.01  -0.03  -0.01
    10   6     0.01  -0.04   0.07    -0.04  -0.00  -0.02     0.00  -0.03  -0.00
    11   1     0.41  -0.29  -0.20    -0.01  -0.03  -0.00    -0.17   0.23   0.09
    12   1    -0.08  -0.05   0.31    -0.11   0.00   0.09     0.02   0.07  -0.21
    13   1    -0.06   0.29  -0.36    -0.03   0.12   0.00     0.03  -0.09   0.14
    14   1    -0.07   0.03   0.07     0.14  -0.12  -0.10    -0.36   0.33   0.22
    15   1     0.23  -0.00  -0.08    -0.14  -0.06  -0.04     0.48   0.16  -0.01
    16   1     0.01  -0.26  -0.06     0.08   0.12   0.06    -0.15  -0.43  -0.17
    17   1    -0.02   0.08   0.09    -0.05  -0.01  -0.03     0.00  -0.03   0.00
    18   1    -0.01   0.11  -0.04     0.01  -0.00   0.01     0.00  -0.01  -0.01
    19   1     0.00   0.00  -0.10     0.07   0.01   0.04     0.02  -0.03  -0.01
    20   1     0.04  -0.09  -0.03    -0.02   0.01  -0.00     0.01  -0.03  -0.01
    21   1     0.03  -0.08   0.10    -0.05  -0.00  -0.03    -0.00  -0.04   0.01
    22   6    -0.03   0.01  -0.00     0.01  -0.08   0.02     0.01  -0.02   0.00
    23   6    -0.04   0.01  -0.01    -0.07  -0.02   0.05    -0.01  -0.01   0.01
    24   6    -0.04   0.01   0.01     0.07  -0.07  -0.00     0.02  -0.02  -0.00
    25   1    -0.03   0.01   0.02    -0.01  -0.16   0.01     0.00  -0.04  -0.00
    26   6     0.04  -0.01  -0.00     0.09   0.04   0.03     0.01   0.01   0.00
    27   1    -0.06   0.05   0.03    -0.11   0.09   0.13    -0.02   0.01   0.02
    28   1    -0.07  -0.01  -0.05    -0.18  -0.08   0.03    -0.03  -0.02   0.01
    29   6    -0.06  -0.03  -0.01    -0.03  -0.01  -0.07     0.00   0.00  -0.02
    30   1    -0.01   0.03   0.03     0.04  -0.11   0.05     0.01  -0.01   0.00
    31   1    -0.04   0.02   0.02     0.17  -0.06  -0.04     0.03  -0.02  -0.02
    32   1     0.08   0.06  -0.08     0.17   0.15  -0.11     0.02   0.02  -0.01
    33   1     0.12  -0.04   0.06     0.22   0.03   0.17     0.03   0.01   0.03
    34   1    -0.14   0.00  -0.01    -0.21   0.09  -0.10    -0.02   0.02  -0.02
    35   1    -0.06  -0.12  -0.06    -0.02  -0.15  -0.22     0.00  -0.01  -0.04
    36   6    -0.01  -0.03  -0.02     0.03   0.12   0.02     0.00   0.02   0.01
    37   1     0.03  -0.05   0.02     0.19   0.27  -0.22     0.03   0.06  -0.05
    38   1    -0.01  -0.06  -0.05    -0.01  -0.04   0.06    -0.00  -0.01   0.02
    39   1    -0.01  -0.04  -0.03    -0.07   0.35   0.24    -0.02   0.07   0.05
                     16                     17                     18
                      A                      A                      A
 Frequencies --    306.0164               336.3031               359.2338
 Red. masses --      2.7162                 2.4070                 3.2835
 Frc consts  --      0.1499                 0.1604                 0.2497
 IR Inten    --      0.0000                 0.0000                 0.0000
  Atom  AN      X      Y      Z        X      Y      Z        X      Y      Z
     1   8     0.05  -0.03   0.06    -0.08  -0.02  -0.06     0.00   0.22  -0.05
     2   6     0.05   0.02   0.03    -0.04  -0.00  -0.01    -0.04   0.04  -0.05
     3   6     0.02   0.19  -0.09     0.02   0.01  -0.13    -0.07  -0.02   0.04
     4   6     0.11   0.10   0.05     0.03   0.17   0.04    -0.10   0.14  -0.02
     5   6    -0.02  -0.02   0.00    -0.02  -0.02   0.05    -0.02  -0.02  -0.01
     6   6    -0.10  -0.06  -0.03     0.03  -0.00   0.07     0.06  -0.07   0.04
     7   6    -0.02  -0.05   0.01     0.01  -0.01   0.02     0.04  -0.09   0.03
     8   6     0.10  -0.04   0.04    -0.03  -0.06  -0.02    -0.04  -0.13  -0.02
     9   6    -0.03  -0.06  -0.01     0.03  -0.06   0.02     0.05  -0.08  -0.00
    10   6    -0.10  -0.07  -0.04     0.04  -0.05   0.05     0.08  -0.06   0.01
    11   1     0.13   0.37  -0.04     0.16   0.06  -0.13    -0.16  -0.10   0.02
    12   1    -0.12   0.17  -0.24     0.05   0.01  -0.17    -0.08  -0.02   0.13
    13   1     0.01   0.24  -0.12    -0.06  -0.04  -0.25    -0.03   0.03   0.10
    14   1     0.21   0.09  -0.10     0.09   0.25  -0.14    -0.00   0.07  -0.09
    15   1     0.01   0.06   0.13    -0.02   0.14   0.23    -0.32   0.06   0.14
    16   1     0.19   0.24   0.16     0.09   0.33   0.11    -0.10   0.40  -0.02
    17   1    -0.17  -0.08  -0.06     0.05   0.03   0.09     0.11  -0.07   0.05
    18   1    -0.01  -0.04   0.00     0.02   0.02   0.01     0.07  -0.06   0.03
    19   1     0.24  -0.02   0.09    -0.09  -0.07  -0.07    -0.12  -0.14  -0.05
    20   1    -0.05  -0.05  -0.02     0.05  -0.08   0.01     0.06  -0.06   0.02
    21   1    -0.15  -0.09  -0.05     0.07  -0.08   0.09     0.14  -0.08   0.05
    22   6    -0.02   0.05  -0.00    -0.03  -0.06  -0.01     0.07   0.03   0.02
    23   6    -0.02   0.03  -0.03     0.03  -0.07   0.05    -0.03   0.06  -0.05
    24   6    -0.02   0.03   0.04    -0.06  -0.04  -0.07     0.08   0.02   0.05
    25   1    -0.02   0.06   0.01    -0.02  -0.04  -0.00     0.06  -0.01   0.01
    26   6     0.02  -0.02  -0.02    -0.02   0.02   0.03     0.01  -0.02  -0.04
    27   1    -0.03   0.07  -0.01     0.04  -0.19   0.05    -0.05   0.25  -0.06
    28   1    -0.04   0.03  -0.09     0.12  -0.03   0.14    -0.18  -0.01  -0.13
    29   6    -0.04  -0.03   0.01     0.03   0.02  -0.00    -0.01  -0.02  -0.02
    30   1     0.03   0.00   0.08    -0.07   0.02  -0.14     0.04   0.04   0.10
    31   1     0.02   0.08   0.08    -0.13  -0.10  -0.11     0.11   0.04   0.05
    32   1     0.04   0.01  -0.05    -0.04   0.01   0.08     0.03  -0.02  -0.07
    33   1     0.05  -0.06  -0.00    -0.05   0.06   0.03     0.03  -0.04  -0.03
    34   1    -0.11  -0.03   0.03     0.15   0.03  -0.04    -0.12  -0.02   0.01
    35   1    -0.04  -0.08  -0.03     0.01   0.09   0.10     0.01  -0.07  -0.12
    36   6    -0.01  -0.09  -0.02     0.03   0.10  -0.02    -0.03  -0.07   0.06
    37   1     0.04  -0.15   0.11    -0.07   0.17  -0.15     0.01  -0.10   0.13
    38   1    -0.03  -0.16  -0.06     0.06   0.25  -0.03    -0.06  -0.19   0.16
    39   1    -0.05  -0.13  -0.11     0.15   0.12   0.12    -0.18  -0.05  -0.05
                     19                     20                     21
                      A                      A                      A
 Frequencies --    398.9510               415.7254               445.5054
 Red. masses --      2.8268                 2.8973                 2.4220
 Frc consts  --      0.2651                 0.2950                 0.2832
 IR Inten    --      0.0000                 0.0000                 0.0000
  Atom  AN      X      Y      Z        X      Y      Z        X      Y      Z
     1   8     0.03   0.13  -0.06    -0.01  -0.00   0.00    -0.05  -0.04  -0.09
     2   6     0.11   0.07   0.04    -0.01  -0.01  -0.00     0.07   0.01   0.03
     3   6     0.11   0.05   0.11    -0.01  -0.01  -0.01     0.09   0.02   0.02
     4   6    -0.12  -0.02   0.05     0.01  -0.00   0.00    -0.04  -0.01   0.05
     5   6     0.07   0.02  -0.00     0.01   0.00   0.00     0.08   0.01   0.03
     6   6    -0.03  -0.05  -0.03    -0.19  -0.03  -0.07    -0.02  -0.00  -0.01
     7   6    -0.01  -0.06  -0.00     0.19   0.04   0.07    -0.04  -0.00  -0.01
     8   6     0.07  -0.05   0.03    -0.00   0.01  -0.00     0.06   0.01   0.02
     9   6    -0.03  -0.03  -0.03    -0.19  -0.03  -0.07    -0.04  -0.01  -0.01
    10   6    -0.01  -0.02  -0.05     0.20   0.04   0.08    -0.03  -0.01  -0.01
    11   1     0.05  -0.00   0.10    -0.00   0.00  -0.00     0.13   0.02   0.02
    12   1     0.13   0.05   0.16     0.00  -0.01  -0.02     0.12   0.03   0.02
    13   1     0.15   0.07   0.15    -0.01  -0.02  -0.01     0.07  -0.00  -0.01
    14   1    -0.12  -0.21   0.25    -0.01   0.02  -0.01    -0.08  -0.06   0.16
    15   1    -0.32  -0.08   0.05     0.03   0.00   0.00    -0.11  -0.04   0.09
    16   1    -0.24   0.10  -0.14     0.01  -0.02   0.01    -0.12   0.04  -0.07
    17   1    -0.07  -0.09  -0.06    -0.43  -0.08  -0.16    -0.09  -0.01  -0.03
    18   1    -0.04  -0.07  -0.01     0.41   0.08   0.15    -0.10  -0.02  -0.04
    19   1     0.13  -0.04   0.07    -0.02   0.00  -0.01     0.12   0.02   0.04
    20   1    -0.09  -0.01  -0.03    -0.42  -0.07  -0.16    -0.10  -0.02  -0.04
    21   1    -0.04  -0.03  -0.05     0.41   0.08   0.17    -0.10  -0.02  -0.04
    22   6    -0.13  -0.02  -0.04     0.01  -0.00   0.00     0.13  -0.03   0.07
    23   6     0.01  -0.07   0.05     0.00  -0.00  -0.00    -0.01   0.02  -0.04
    24   6    -0.07  -0.02  -0.02     0.00  -0.00  -0.00    -0.09   0.02  -0.09
    25   1    -0.12   0.01  -0.03     0.01   0.00   0.00     0.14   0.00   0.13
    26   6    -0.01   0.01   0.04    -0.01   0.00  -0.01     0.00  -0.02  -0.05
    27   1     0.03  -0.31   0.09     0.01  -0.00  -0.01    -0.02   0.24  -0.10
    28   1     0.20   0.02   0.13     0.00  -0.00   0.00    -0.19  -0.07  -0.09
    29   6    -0.01   0.01   0.02     0.00   0.00   0.00    -0.01  -0.01  -0.05
    30   1     0.04   0.03  -0.04    -0.01  -0.00   0.00    -0.09   0.24  -0.22
    31   1    -0.07   0.00   0.01    -0.00  -0.00  -0.01    -0.32  -0.16  -0.22
    32   1    -0.01   0.03   0.05    -0.01  -0.00  -0.00     0.01  -0.02  -0.07
    33   1    -0.01   0.02   0.05    -0.01   0.00  -0.01     0.01  -0.01  -0.04
    34   1     0.03   0.01  -0.00     0.02  -0.00   0.00     0.05  -0.02  -0.06
    35   1    -0.02   0.02   0.06     0.00   0.02   0.01    -0.02  -0.00   0.04
    36   6     0.02   0.03  -0.11    -0.00  -0.00   0.01    -0.01   0.02   0.17
    37   1     0.04   0.05  -0.13    -0.01   0.00   0.00    -0.14   0.05   0.08
    38   1     0.04   0.12  -0.29    -0.00  -0.00   0.02    -0.01   0.03   0.42
    39   1     0.18   0.01   0.01    -0.01   0.00   0.00    -0.14   0.06   0.11
                     22                     23                     24
                      A                      A                      A
 Frequencies --    464.6466               542.1307               561.7431
 Red. masses --      3.6082                 2.0257                 2.9446
 Frc consts  --      0.4590                 0.3508                 0.5475
 IR Inten    --      0.0000                 0.0000                 0.0000
  Atom  AN      X      Y      Z        X      Y      Z        X      Y      Z
     1   8    -0.13   0.15   0.17    -0.06   0.00  -0.04    -0.06  -0.04   0.09
     2   6    -0.10   0.06   0.15    -0.01  -0.01   0.02    -0.09   0.12  -0.02
     3   6     0.02   0.02  -0.04    -0.00  -0.01  -0.01    -0.02  -0.05  -0.01
     4   6     0.07  -0.10   0.10     0.00  -0.01   0.04    -0.01   0.06  -0.14
     5   6    -0.02   0.03  -0.12     0.05   0.00   0.01     0.16   0.12   0.08
     6   6     0.06  -0.06  -0.09     0.01  -0.00  -0.01     0.02   0.01   0.07
     7   6     0.04  -0.09   0.00    -0.01  -0.01  -0.01    -0.10  -0.03   0.01
     8   6    -0.04  -0.07   0.01     0.02   0.01   0.01     0.14  -0.07   0.05
     9   6     0.04   0.04  -0.03    -0.02   0.01  -0.01    -0.06  -0.05  -0.07
    10   6     0.05   0.04  -0.13     0.01   0.01  -0.01     0.05  -0.01  -0.02
    11   1     0.22   0.08  -0.04     0.05   0.01  -0.02    -0.06  -0.23  -0.07
    12   1     0.12   0.04  -0.08     0.03  -0.00  -0.03     0.26  -0.00   0.13
    13   1    -0.11  -0.09  -0.22    -0.04  -0.04  -0.06    -0.07  -0.22  -0.05
    14   1     0.20  -0.19   0.01     0.00  -0.00   0.03     0.05   0.03  -0.21
    15   1     0.09  -0.06  -0.19     0.00  -0.01   0.05     0.05   0.10  -0.34
    16   1     0.22  -0.26   0.33     0.01  -0.01   0.05     0.09  -0.08   0.00
    17   1     0.16  -0.16  -0.13    -0.03  -0.01  -0.03    -0.14  -0.09  -0.03
    18   1     0.09  -0.13   0.05    -0.07  -0.03  -0.03    -0.36  -0.01  -0.12
    19   1    -0.09  -0.08   0.06     0.02   0.01   0.02     0.16  -0.07   0.04
    20   1     0.06   0.14   0.04    -0.08  -0.00  -0.03    -0.34  -0.04  -0.14
    21   1     0.10   0.09  -0.13    -0.04   0.01  -0.03    -0.14  -0.12  -0.05
    22   6     0.02  -0.03   0.01     0.05   0.03  -0.07     0.01  -0.01  -0.01
    23   6    -0.01  -0.02  -0.01     0.04   0.12   0.07     0.01   0.00  -0.01
    24   6    -0.05  -0.00  -0.05     0.03  -0.03  -0.02     0.01  -0.02   0.03
    25   1     0.02  -0.02   0.03     0.05   0.03  -0.12     0.01  -0.01  -0.02
    26   6    -0.00  -0.00  -0.02    -0.00  -0.05   0.17    -0.00   0.02  -0.02
    27   1    -0.00  -0.01  -0.02    -0.04   0.41   0.16     0.01  -0.01  -0.02
    28   1    -0.02  -0.03   0.01    -0.23  -0.00  -0.08     0.01   0.00   0.02
    29   6     0.01   0.01  -0.02     0.03  -0.08  -0.01    -0.02   0.02   0.02
    30   1    -0.08   0.17  -0.01    -0.03  -0.01  -0.07    -0.04  -0.12   0.07
    31   1    -0.14  -0.08  -0.11    -0.07  -0.02   0.05     0.10   0.01   0.04
    32   1     0.00  -0.00  -0.03    -0.17  -0.21   0.46     0.03   0.06  -0.06
    33   1     0.01   0.02   0.00    -0.30   0.02  -0.11     0.05  -0.02   0.02
    34   1     0.10  -0.01  -0.03    -0.21   0.09  -0.07     0.06  -0.01   0.02
    35   1    -0.00   0.04   0.07     0.04  -0.28  -0.18    -0.02   0.08   0.07
    36   6    -0.00   0.01   0.03    -0.02   0.01  -0.10    -0.00  -0.00  -0.01
    37   1    -0.05   0.03  -0.02    -0.02   0.02  -0.10    -0.01  -0.01  -0.01
    38   1     0.00   0.03   0.09    -0.02   0.01  -0.07    -0.00  -0.01  -0.00
    39   1    -0.02   0.03   0.05    -0.03   0.02  -0.11    -0.01  -0.00  -0.02
                     25                     26                     27
                      A                      A                      A
 Frequencies --    569.8543               602.0365               631.4862
 Red. masses --      3.2120                 2.6109                 5.5629
 Frc consts  --      0.6145                 0.5576                 1.3070
 IR Inten    --      0.0000                 0.0000                 0.0000
  Atom  AN      X      Y      Z        X      Y      Z        X      Y      Z
     1   8    -0.05   0.11  -0.09     0.06   0.03   0.07     0.07   0.04   0.09
     2   6    -0.03  -0.15   0.03    -0.01  -0.02  -0.02     0.01  -0.02  -0.03
     3   6    -0.11  -0.07  -0.07    -0.06  -0.04  -0.03    -0.03  -0.02  -0.01
     4   6     0.02  -0.04   0.16     0.00   0.01  -0.02     0.00   0.02  -0.02
     5   6     0.16  -0.06   0.03     0.05  -0.01   0.02    -0.03  -0.03   0.12
     6   6     0.08   0.00  -0.07     0.02   0.00   0.00    -0.01  -0.21   0.17
     7   6    -0.05  -0.01  -0.08    -0.02  -0.00  -0.02     0.11  -0.20  -0.21
     8   6     0.07   0.11   0.04     0.03   0.02   0.01     0.05   0.03  -0.11
     9   6    -0.08   0.03   0.01    -0.03  -0.00  -0.00     0.02   0.22  -0.18
    10   6     0.02   0.02   0.03     0.02   0.01   0.02    -0.10   0.19   0.19
    11   1     0.00   0.04  -0.05    -0.11  -0.05  -0.02    -0.10  -0.03  -0.00
    12   1    -0.21  -0.09  -0.18    -0.10  -0.04  -0.01    -0.10  -0.03   0.01
    13   1    -0.15  -0.05  -0.14    -0.02  -0.00   0.02     0.03   0.05   0.06
    14   1    -0.01   0.11   0.06     0.01   0.06  -0.08     0.01   0.05  -0.07
    15   1     0.05  -0.06   0.40     0.04   0.02   0.01     0.01   0.01   0.04
    16   1     0.02   0.07   0.16     0.03   0.01   0.02     0.01   0.05  -0.00
    17   1    -0.09   0.02  -0.10    -0.04   0.00  -0.01    -0.08  -0.06   0.24
    18   1    -0.27  -0.13  -0.12    -0.11  -0.03  -0.05     0.08  -0.10  -0.28
    19   1     0.07   0.11   0.06     0.02   0.02   0.01    -0.08   0.01   0.24
    20   1    -0.27  -0.05  -0.08    -0.11  -0.03  -0.05     0.05   0.07  -0.28
    21   1    -0.13   0.09  -0.09    -0.05   0.00  -0.01    -0.13   0.08   0.24
    22   6    -0.02  -0.00   0.00    -0.13   0.06   0.08     0.05  -0.04  -0.03
    23   6    -0.00  -0.02  -0.03    -0.06  -0.08   0.03     0.01   0.00   0.01
    24   6     0.06  -0.02   0.07     0.02   0.15  -0.09    -0.08  -0.03  -0.04
    25   1    -0.02  -0.03  -0.01    -0.13   0.02   0.13     0.06  -0.00  -0.02
    26   6    -0.00   0.03  -0.05     0.02  -0.08   0.01    -0.01   0.01   0.02
    27   1     0.02  -0.13  -0.06    -0.05  -0.24   0.08    -0.00   0.10   0.01
    28   1     0.09   0.02   0.04     0.13   0.03  -0.06    -0.10  -0.05   0.03
    29   6    -0.02   0.04   0.03     0.13  -0.06  -0.13    -0.04   0.00   0.02
    30   1    -0.00  -0.16   0.08     0.05   0.38  -0.12     0.01   0.17   0.07
    31   1     0.20   0.05   0.09    -0.23   0.06  -0.10    -0.13  -0.08  -0.08
    32   1     0.07   0.11  -0.17    -0.05  -0.27   0.10    -0.00   0.05   0.02
    33   1     0.13  -0.03   0.05    -0.16   0.15  -0.02     0.02  -0.03   0.01
    34   1     0.04  -0.03   0.06    -0.18   0.01  -0.09     0.09  -0.00  -0.01
    35   1    -0.01   0.12   0.04     0.14  -0.26  -0.33    -0.06   0.05   0.15
    36   6     0.00  -0.01  -0.00     0.01   0.01   0.08    -0.01   0.00  -0.04
    37   1     0.03  -0.03   0.03     0.10  -0.01   0.13    -0.07   0.03  -0.11
    38   1    -0.00  -0.03  -0.04     0.01  -0.00  -0.08    -0.00   0.03   0.05
    39   1     0.01  -0.02  -0.01     0.09  -0.01   0.13    -0.04   0.03  -0.03
                     28                     29                     30
                      A                      A                      A
 Frequencies --    636.9813               721.2561               732.3053
 Red. masses --      3.2406                 1.6456                 4.7321
 Frc consts  --      0.7747                 0.5044                 1.4952
 IR Inten    --      0.0000                 0.0000                 0.0000
  Atom  AN      X      Y      Z        X      Y      Z        X      Y      Z
     1   8     0.17   0.10   0.15     0.00  -0.01  -0.01    -0.12   0.01   0.06
     2   6     0.03  -0.05  -0.05     0.01  -0.00   0.00    -0.05   0.06   0.03
     3   6    -0.06  -0.04  -0.03     0.00   0.00   0.00     0.12   0.09   0.08
     4   6     0.01   0.01  -0.05     0.00  -0.00   0.01    -0.04   0.08  -0.16
     5   6     0.04  -0.04  -0.02    -0.09  -0.01  -0.03     0.02  -0.18  -0.00
     6   6     0.04   0.06  -0.07     0.05   0.01   0.03     0.08  -0.06  -0.17
     7   6    -0.04   0.07   0.02    -0.13  -0.02  -0.04     0.07  -0.06  -0.19
     8   6     0.00   0.05   0.04     0.06   0.00   0.02    -0.03   0.21   0.00
     9   6    -0.04  -0.08   0.08    -0.12  -0.02  -0.05    -0.07  -0.09   0.18
    10   6     0.04  -0.06  -0.01     0.07   0.02   0.02    -0.04  -0.08   0.17
    11   1    -0.21  -0.04  -0.01     0.01   0.02   0.01     0.18   0.04   0.05
    12   1    -0.22  -0.07  -0.01    -0.02  -0.00  -0.01     0.29   0.12   0.13
    13   1     0.06   0.10   0.13     0.01   0.02   0.00     0.06  -0.02   0.01
    14   1    -0.00   0.09  -0.12     0.00  -0.01   0.02     0.00   0.04  -0.18
    15   1     0.04   0.01   0.04    -0.00  -0.00   0.00    -0.01   0.11  -0.34
    16   1     0.01   0.07  -0.05    -0.01  -0.00  -0.00     0.00  -0.02  -0.10
    17   1     0.00   0.06  -0.08     0.48   0.09   0.19     0.07   0.09  -0.08
    18   1    -0.10  -0.02   0.04     0.18   0.05   0.07     0.09  -0.32  -0.05
    19   1     0.03   0.06  -0.07     0.55   0.09   0.21     0.01   0.22   0.02
    20   1    -0.09  -0.09   0.06     0.16   0.04   0.06     0.04  -0.32   0.06
    21   1     0.01   0.01  -0.06     0.44   0.08   0.17    -0.01   0.09   0.09
    22   6     0.09  -0.08  -0.06    -0.00   0.00   0.00    -0.02   0.01   0.01
    23   6     0.02  -0.00   0.02     0.00   0.00  -0.00     0.00   0.01  -0.01
    24   6    -0.15  -0.04  -0.08    -0.00  -0.00  -0.00     0.02  -0.01   0.01
    25   1     0.11  -0.00  -0.03    -0.00   0.00  -0.00    -0.02   0.01  -0.00
    26   6    -0.01   0.01   0.03    -0.00  -0.00   0.00     0.01   0.00  -0.00
    27   1    -0.01   0.18   0.02     0.00   0.01  -0.00     0.00  -0.01   0.00
    28   1    -0.18  -0.10   0.05     0.00   0.00  -0.00     0.02   0.02  -0.02
    29   6    -0.07  -0.01   0.03     0.00  -0.00  -0.00     0.01   0.00  -0.01
    30   1     0.05   0.38   0.14    -0.00  -0.01  -0.01    -0.05  -0.13   0.00
    31   1    -0.28  -0.15  -0.17     0.00  -0.00  -0.00     0.08   0.03   0.03
    32   1    -0.01   0.08   0.05    -0.00  -0.00   0.01    -0.00  -0.02   0.01
    33   1     0.01  -0.05   0.02    -0.01  -0.00  -0.01    -0.01   0.01  -0.02
    34   1     0.16  -0.01  -0.03     0.00  -0.00  -0.00     0.01   0.01  -0.02
    35   1    -0.11   0.08   0.27     0.00   0.00  -0.00     0.01  -0.01  -0.02
    36   6    -0.02   0.00  -0.07     0.00   0.00   0.00     0.00   0.00   0.02
    37   1    -0.14   0.06  -0.21     0.00  -0.00   0.00     0.03  -0.01   0.04
    38   1    -0.00   0.06   0.10     0.00  -0.00   0.00     0.00  -0.01  -0.02
    39   1    -0.07   0.06  -0.05     0.00  -0.00   0.00     0.02  -0.01   0.02
                     31                     32                     33
                      A                      A                      A
 Frequencies --    784.3962               789.2726               859.2713
 Red. masses --      1.5756                 1.9948                 2.0144
 Frc consts  --      0.5712                 0.7321                 0.8763
 IR Inten    --      0.0000                 0.0000                 0.0000
  Atom  AN      X      Y      Z        X      Y      Z        X      Y      Z
     1   8    -0.02  -0.02  -0.01     0.00   0.02   0.01     0.00  -0.01  -0.02
     2   6    -0.00   0.01   0.00     0.00   0.02   0.00    -0.01   0.00   0.00
     3   6     0.00   0.00   0.00    -0.06  -0.03  -0.03     0.00   0.01   0.01
     4   6    -0.00   0.00  -0.00    -0.00   0.00  -0.00    -0.00  -0.00   0.01
     5   6     0.02   0.00   0.01     0.21   0.04   0.08    -0.00  -0.00  -0.00
     6   6    -0.01  -0.00  -0.01    -0.08  -0.02  -0.04     0.01   0.00   0.00
     7   6     0.00  -0.00  -0.01     0.01  -0.00  -0.01     0.01  -0.00   0.00
     8   6    -0.01   0.00  -0.01    -0.12  -0.01  -0.04    -0.00   0.00   0.00
     9   6    -0.00  -0.00   0.01     0.01  -0.00   0.01    -0.00  -0.00  -0.00
    10   6    -0.01  -0.00   0.00    -0.08  -0.02  -0.02    -0.01  -0.00  -0.00
    11   1     0.02  -0.01  -0.00    -0.07  -0.11  -0.06     0.03   0.00   0.00
    12   1     0.04   0.01   0.01     0.05  -0.01   0.03     0.03   0.01   0.00
    13   1    -0.01  -0.02  -0.02    -0.08  -0.11  -0.04    -0.03  -0.03  -0.02
    14   1     0.00  -0.00  -0.00    -0.00   0.03  -0.03     0.00  -0.00  -0.00
    15   1     0.00   0.01  -0.02     0.02   0.01   0.02     0.00   0.00  -0.01
    16   1     0.00  -0.01   0.01     0.01   0.01   0.01     0.01  -0.01   0.02
    17   1     0.02   0.00   0.00     0.05   0.01   0.01    -0.04  -0.01  -0.02
    18   1     0.07   0.00   0.03     0.53   0.08   0.20    -0.03  -0.01  -0.01
    19   1     0.06   0.02   0.02     0.45   0.09   0.17    -0.00   0.00   0.00
    20   1     0.06   0.00   0.02     0.48   0.07   0.19     0.03   0.01   0.01
    21   1    -0.00  -0.00   0.00    -0.01  -0.00  -0.00     0.04   0.00   0.02
    22   6     0.10  -0.01  -0.02    -0.01   0.00   0.00     0.07   0.11  -0.00
    23   6    -0.07  -0.04   0.01     0.01   0.00  -0.00    -0.05  -0.05   0.10
    24   6     0.08   0.05   0.07    -0.01  -0.00  -0.01     0.03   0.07  -0.08
    25   1     0.07  -0.10   0.02    -0.01   0.02   0.00     0.06   0.09   0.01
    26   6    -0.05   0.03   0.01     0.01  -0.00  -0.00    -0.08  -0.09   0.09
    27   1     0.01  -0.23  -0.13    -0.00   0.03   0.02    -0.02  -0.03   0.02
    28   1     0.08   0.02   0.24    -0.01  -0.01  -0.03    -0.03  -0.03   0.04
    29   6     0.03  -0.01   0.07    -0.00   0.00  -0.01    -0.03  -0.09  -0.11
    30   1    -0.00   0.43  -0.16    -0.01  -0.06   0.03    -0.03  -0.11   0.07
    31   1    -0.38  -0.14   0.04     0.06   0.03  -0.01     0.21   0.19   0.01
    32   1     0.07   0.04  -0.23    -0.01  -0.01   0.03     0.09   0.21  -0.17
    33   1     0.12   0.03   0.21    -0.02   0.00  -0.03     0.21  -0.08   0.43
    34   1    -0.28  -0.01   0.16     0.04   0.00  -0.02     0.41  -0.25  -0.11
    35   1     0.08  -0.08  -0.25    -0.01   0.01   0.04    -0.05   0.28   0.24
    36   6    -0.01   0.00  -0.10     0.00  -0.00   0.01     0.01   0.04  -0.04
    37   1    -0.11  -0.01  -0.10     0.01   0.00   0.01    -0.01  -0.04   0.11
    38   1    -0.02  -0.03   0.08     0.00   0.01  -0.01    -0.01  -0.06   0.06
    39   1    -0.15   0.01  -0.23     0.02  -0.00   0.03    -0.12  -0.02  -0.24
                     34                     35                     36
                      A                      A                      A
 Frequencies --    870.6062               876.9176               891.3821
 Red. masses --      2.2645                 1.2524                 1.3361
 Frc consts  --      1.0113                 0.5674                 0.6255
 IR Inten    --      0.0000                 0.0000                 0.0000
  Atom  AN      X      Y      Z        X      Y      Z        X      Y      Z
     1   8     0.00  -0.02  -0.04    -0.00  -0.00  -0.00    -0.01   0.02   0.02
     2   6    -0.02   0.01   0.00     0.00   0.01  -0.00     0.00  -0.03   0.00
     3   6    -0.00   0.01   0.01    -0.00   0.00  -0.00     0.02  -0.00   0.01
     4   6    -0.00   0.00   0.01     0.00   0.00   0.01     0.00  -0.01  -0.03
     5   6    -0.01  -0.00  -0.00    -0.00   0.00   0.00     0.00  -0.00   0.00
     6   6     0.00  -0.00  -0.00    -0.08  -0.02  -0.03    -0.01   0.00   0.00
     7   6     0.00  -0.00  -0.00    -0.06  -0.01  -0.03    -0.01   0.00   0.01
     8   6     0.00   0.00   0.00     0.01   0.00   0.01    -0.00  -0.01   0.00
     9   6    -0.00  -0.00   0.00     0.07   0.01   0.03     0.01   0.01  -0.01
    10   6     0.00  -0.00   0.00     0.06   0.01   0.02     0.01   0.01  -0.01
    11   1     0.05  -0.00   0.00    -0.01  -0.02  -0.01     0.03   0.05   0.03
    12   1     0.07   0.03   0.01     0.01   0.00   0.00    -0.05  -0.01  -0.02
    13   1    -0.05  -0.05  -0.05    -0.00  -0.00  -0.00     0.04   0.05   0.03
    14   1     0.01  -0.02   0.01     0.01  -0.01   0.01    -0.02   0.06  -0.06
    15   1    -0.00   0.01  -0.03     0.00   0.00  -0.01     0.01  -0.01   0.07
    16   1     0.01  -0.03   0.04    -0.00  -0.01   0.00    -0.01   0.05  -0.05
    17   1    -0.00  -0.00  -0.00     0.49   0.10   0.19     0.02   0.01   0.01
    18   1    -0.00  -0.01  -0.00     0.41   0.07   0.16     0.04   0.02   0.02
    19   1    -0.00   0.00   0.00    -0.08  -0.01  -0.03     0.01  -0.01   0.01
    20   1     0.00  -0.01   0.00    -0.48  -0.09  -0.19    -0.03   0.02  -0.02
    21   1     0.00  -0.00   0.01    -0.41  -0.07  -0.17    -0.04   0.00  -0.03
    22   6     0.04  -0.07   0.01     0.00   0.00   0.00     0.04   0.02  -0.02
    23   6     0.02  -0.19   0.02     0.00  -0.00   0.01    -0.08  -0.00  -0.04
    24   6    -0.01   0.21   0.04     0.01   0.00  -0.00    -0.09  -0.01  -0.03
    25   1     0.07   0.05   0.09    -0.00   0.00  -0.02     0.05   0.02   0.23
    26   6     0.06  -0.02  -0.04    -0.00  -0.01   0.00     0.02   0.02   0.04
    27   1    -0.09   0.21   0.17    -0.00   0.02   0.01    -0.00  -0.27  -0.13
    28   1    -0.35  -0.38  -0.09    -0.01  -0.01  -0.01     0.17   0.11   0.10
    29   6    -0.03   0.08   0.02    -0.01  -0.00  -0.01     0.04   0.01   0.01
    30   1    -0.02  -0.07   0.10     0.00   0.01  -0.01    -0.05  -0.35   0.13
    31   1     0.23   0.32   0.06     0.01   0.00  -0.01     0.21   0.18   0.10
    32   1    -0.08  -0.08   0.24     0.00   0.03  -0.00     0.01  -0.27  -0.02
    33   1    -0.15   0.13  -0.17     0.02  -0.02   0.02    -0.08   0.20   0.06
    34   1    -0.09  -0.08   0.16     0.02  -0.02   0.00    -0.07   0.22  -0.12
    35   1    -0.05   0.00   0.09    -0.00   0.03   0.01    -0.01  -0.29   0.06
    36   6    -0.00  -0.03  -0.07    -0.00   0.00  -0.00     0.05   0.00  -0.01
    37   1    -0.16   0.06  -0.27     0.01  -0.00   0.01    -0.16  -0.00  -0.05
    38   1     0.02   0.06   0.11    -0.00  -0.00  -0.02     0.04  -0.02   0.36
    39   1    -0.07   0.06  -0.02     0.01  -0.00  -0.00    -0.19   0.05  -0.18
                     37                     38                     39
                      A                      A                      A
 Frequencies --    894.8104               920.4268               928.6564
 Red. masses --      2.3576                 1.9227                 2.3814
 Frc consts  --      1.1122                 0.9597                 1.2100
 IR Inten    --      0.0000                 0.0000                 0.0000
  Atom  AN      X      Y      Z        X      Y      Z        X      Y      Z
     1   8     0.13  -0.03  -0.08    -0.01   0.00   0.00    -0.01  -0.00   0.01
     2   6    -0.01   0.17   0.00    -0.00  -0.01   0.00     0.00  -0.01   0.00
     3   6    -0.12   0.00  -0.06     0.01  -0.00   0.01     0.00  -0.00   0.00
     4   6     0.01   0.03   0.14    -0.00   0.00  -0.01    -0.00   0.00  -0.01
     5   6    -0.03   0.03  -0.02     0.00  -0.00   0.00    -0.00  -0.00   0.00
     6   6     0.00  -0.02  -0.02     0.00   0.00   0.00     0.00   0.00   0.00
     7   6     0.03  -0.03  -0.05    -0.00   0.00   0.00    -0.00   0.00   0.00
     8   6     0.02   0.04   0.00    -0.00  -0.00  -0.00    -0.00  -0.00  -0.00
     9   6    -0.02  -0.05   0.06     0.00   0.00  -0.00    -0.00   0.00  -0.00
    10   6    -0.02  -0.02   0.04     0.00   0.00  -0.00     0.00   0.00   0.00
    11   1    -0.17  -0.24  -0.14     0.04   0.03   0.02     0.02   0.02   0.01
    12   1     0.20   0.05   0.10    -0.01  -0.00  -0.02    -0.02  -0.01  -0.02
    13   1    -0.22  -0.25  -0.13    -0.00   0.01  -0.01     0.01   0.01   0.00
    14   1     0.12  -0.29   0.32    -0.01   0.01  -0.01    -0.00   0.01  -0.01
    15   1    -0.06   0.05  -0.30     0.00  -0.00   0.01     0.00   0.00  -0.00
    16   1     0.05  -0.24   0.22    -0.01   0.01  -0.03    -0.01   0.01  -0.02
    17   1     0.07  -0.02  -0.00    -0.00   0.00  -0.00    -0.02  -0.00  -0.01
    18   1    -0.05  -0.09  -0.05     0.01   0.01   0.01    -0.00   0.00   0.00
    19   1    -0.11   0.01  -0.07     0.01  -0.00   0.01     0.02   0.00   0.01
    20   1    -0.01  -0.13   0.01    -0.00   0.01  -0.00     0.01   0.01   0.00
    21   1     0.09  -0.01   0.09    -0.02  -0.00  -0.01    -0.02   0.00  -0.01
    22   6     0.01  -0.00  -0.01    -0.01  -0.08  -0.01    -0.01  -0.01   0.01
    23   6    -0.02   0.03  -0.02    -0.01   0.17   0.08     0.00  -0.01  -0.09
    24   6    -0.04  -0.02  -0.03     0.05   0.12  -0.08     0.08   0.04  -0.09
    25   1     0.01  -0.01   0.09    -0.04  -0.20   0.09    -0.03  -0.10  -0.00
    26   6     0.00   0.00   0.02    -0.01  -0.04  -0.06    -0.00  -0.17   0.15
    27   1     0.01  -0.11  -0.06     0.03  -0.12   0.08     0.02  -0.10  -0.12
    28   1     0.11   0.09   0.04     0.21   0.26   0.27     0.15   0.07  -0.37
    29   6     0.00  -0.00   0.02    -0.03  -0.08   0.04    -0.09   0.18   0.10
    30   1     0.08  -0.07   0.01     0.04  -0.03   0.02     0.04   0.10  -0.10
    31   1     0.04   0.03  -0.00     0.17   0.18  -0.06     0.19  -0.09  -0.36
    32   1     0.01  -0.09  -0.03     0.01  -0.06  -0.13     0.07  -0.14   0.00
    33   1    -0.01   0.01   0.01     0.04  -0.25  -0.16     0.16  -0.44   0.14
    34   1    -0.04   0.09  -0.04    -0.02  -0.26   0.17    -0.17   0.39  -0.03
    35   1    -0.01  -0.10   0.02    -0.05  -0.07   0.11    -0.06   0.12  -0.04
    36   6     0.02  -0.01   0.00     0.00  -0.08  -0.00    -0.00  -0.01   0.00
    37   1    -0.06   0.01  -0.04    -0.14   0.13  -0.41    -0.00   0.01  -0.03
    38   1     0.02   0.00   0.13     0.06   0.15   0.13    -0.00   0.00   0.00
    39   1    -0.05   0.02  -0.02     0.07   0.12   0.32     0.00   0.01   0.03
                     40                     41                     42
                      A                      A                      A
 Frequencies --    930.4836               951.4598               967.8621
 Red. masses --      1.5700                 1.4126                 2.0138
 Frc consts  --      0.8009                 0.7534                 1.1115
 IR Inten    --      0.0000                 0.0000                 0.0000
  Atom  AN      X      Y      Z        X      Y      Z        X      Y      Z
     1   8     0.04  -0.00  -0.04     0.04  -0.01  -0.02     0.13  -0.00  -0.07
     2   6    -0.10  -0.02  -0.06    -0.02   0.00   0.02    -0.13  -0.07   0.08
     3   6     0.09   0.08  -0.01    -0.01  -0.02   0.04    -0.01   0.02   0.14
     4   6    -0.09  -0.07   0.07     0.01   0.03  -0.00    -0.06   0.01  -0.06
     5   6    -0.01  -0.00  -0.00    -0.06  -0.01  -0.02     0.04  -0.02   0.02
     6   6     0.02   0.00   0.01     0.09   0.02   0.03    -0.04  -0.00  -0.01
     7   6    -0.01   0.00  -0.00    -0.03  -0.00  -0.01    -0.00   0.01   0.02
     8   6    -0.02  -0.00  -0.01    -0.08  -0.02  -0.03     0.03  -0.00   0.02
     9   6    -0.00  -0.00  -0.00     0.01   0.00   0.01     0.00   0.03  -0.03
    10   6     0.02   0.01   0.01     0.08   0.02   0.03    -0.02  -0.00  -0.03
    11   1    -0.23  -0.18  -0.06     0.17   0.13   0.06     0.51   0.23   0.14
    12   1     0.19   0.09   0.27    -0.06  -0.02  -0.12     0.16   0.06  -0.15
    13   1     0.23   0.06   0.22    -0.10  -0.01  -0.11    -0.35  -0.21  -0.33
    14   1     0.04   0.21  -0.40     0.02  -0.10   0.11    -0.01   0.13  -0.26
    15   1     0.21   0.01   0.15    -0.06   0.03  -0.16     0.05   0.04  -0.06
    16   1     0.21  -0.11   0.50    -0.02  -0.05  -0.04     0.05  -0.02   0.10
    17   1    -0.10  -0.03  -0.05    -0.47  -0.10  -0.18     0.16   0.04   0.07
    18   1     0.05   0.02   0.02     0.14   0.03   0.05    -0.01   0.02   0.01
    19   1     0.13   0.02   0.04     0.49   0.08   0.19    -0.18  -0.03  -0.03
    20   1     0.00  -0.01  -0.00    -0.09  -0.02  -0.04     0.03   0.06   0.00
    21   1    -0.12  -0.02  -0.05    -0.45  -0.07  -0.18     0.15   0.04   0.03
    22   6    -0.00  -0.00   0.00    -0.00   0.00   0.00    -0.00  -0.01   0.00
    23   6    -0.00   0.01  -0.00    -0.00   0.00   0.00    -0.00   0.01  -0.01
    24   6    -0.00  -0.01  -0.01    -0.01  -0.01   0.00    -0.02  -0.02  -0.01
    25   1    -0.00  -0.00  -0.00    -0.00  -0.00   0.00    -0.00  -0.00  -0.03
    26   6     0.00  -0.00  -0.00     0.00   0.01  -0.00     0.00   0.00   0.00
    27   1     0.00  -0.01  -0.01    -0.00  -0.00   0.00     0.01  -0.01  -0.03
    28   1     0.02   0.02   0.01     0.00   0.00   0.01     0.02   0.02   0.01
    29   6    -0.00  -0.00   0.00     0.00  -0.00  -0.00     0.00  -0.00   0.00
    30   1     0.01   0.03   0.02     0.02   0.03   0.02     0.05   0.15   0.10
    31   1     0.01  -0.01  -0.02    -0.00  -0.01  -0.00    -0.01  -0.05  -0.05
    32   1     0.00  -0.01  -0.01    -0.00  -0.00   0.00     0.00  -0.03  -0.01
    33   1     0.00  -0.01  -0.01    -0.00   0.01  -0.00    -0.01   0.01  -0.01
    34   1    -0.00   0.01  -0.00     0.01   0.00  -0.01     0.00   0.04  -0.03
    35   1    -0.00  -0.01   0.01    -0.00  -0.00   0.01    -0.01  -0.03   0.02
    36   6    -0.00  -0.00   0.00    -0.00   0.00   0.00    -0.01   0.00   0.00
    37   1     0.00   0.00  -0.01     0.01  -0.00   0.02     0.03  -0.00   0.02
    38   1     0.00   0.01  -0.01    -0.00  -0.01  -0.01    -0.01   0.00  -0.05
    39   1     0.01   0.00   0.02    -0.00  -0.00  -0.01     0.03  -0.01   0.02
                     43                     44                     45
                      A                      A                      A
 Frequencies --    985.2731               996.2698              1008.7931
 Red. masses --      1.3350                 1.3378                 1.3418
 Frc consts  --      0.7635                 0.7823                 0.8046
 IR Inten    --      0.0000                 0.0000                 0.0000
  Atom  AN      X      Y      Z        X      Y      Z        X      Y      Z
     1   8     0.00   0.00   0.00    -0.00   0.00   0.00    -0.00  -0.00   0.02
     2   6    -0.00   0.00   0.00     0.00   0.00  -0.00     0.01   0.01  -0.01
     3   6    -0.00  -0.00  -0.00    -0.00   0.00  -0.00    -0.06   0.09   0.01
     4   6    -0.00  -0.00  -0.00     0.01  -0.00   0.00     0.07  -0.08  -0.03
     5   6    -0.00   0.00   0.00    -0.00   0.00  -0.00    -0.04   0.00  -0.01
     6   6     0.00   0.00   0.00    -0.00   0.00  -0.00     0.04   0.00   0.02
     7   6    -0.00  -0.00  -0.00     0.00  -0.00  -0.00    -0.02  -0.01  -0.03
     8   6    -0.00   0.00  -0.00    -0.00  -0.00  -0.00    -0.01   0.01   0.01
     9   6     0.00   0.00   0.00    -0.00  -0.00   0.00     0.02   0.00   0.02
    10   6    -0.00  -0.00  -0.00     0.00   0.00   0.00    -0.00  -0.01  -0.03
    11   1    -0.00   0.00   0.00    -0.02  -0.02  -0.01     0.01  -0.21  -0.11
    12   1    -0.01  -0.00  -0.00     0.01   0.00   0.01     0.43   0.16   0.19
    13   1     0.00   0.01   0.00     0.00  -0.00   0.01    -0.21  -0.28  -0.12
    14   1     0.00   0.00  -0.00    -0.01  -0.00   0.02    -0.13   0.14   0.04
    15   1    -0.00  -0.00  -0.01    -0.01  -0.01   0.01     0.00  -0.14   0.46
    16   1    -0.00  -0.00  -0.00    -0.01   0.01  -0.02    -0.09   0.26  -0.27
    17   1    -0.01  -0.00  -0.01     0.01   0.00   0.00    -0.20  -0.01  -0.05
    18   1     0.01  -0.00   0.00    -0.02  -0.01  -0.01     0.15   0.01   0.05
    19   1     0.01   0.00   0.00     0.00  -0.00  -0.00     0.01   0.01   0.03
    20   1    -0.01  -0.00  -0.00     0.02   0.00   0.01    -0.16  -0.01  -0.04
    21   1     0.00  -0.00   0.00    -0.02  -0.00  -0.01     0.10   0.01   0.01
    22   6     0.02  -0.02  -0.02     0.06   0.01  -0.03     0.00  -0.00   0.00
    23   6     0.03  -0.01  -0.04    -0.03  -0.03   0.05    -0.00   0.00  -0.01
    24   6    -0.05   0.03   0.01     0.00   0.02  -0.08     0.00   0.00   0.00
    25   1     0.07   0.23  -0.21     0.06   0.06  -0.35    -0.00  -0.02  -0.00
    26   6    -0.07   0.00   0.06     0.00   0.00  -0.04     0.00   0.00   0.01
    27   1     0.12   0.16  -0.36     0.03   0.01  -0.13     0.00  -0.01  -0.01
    28   1    -0.08  -0.07  -0.03    -0.13  -0.10   0.39     0.02   0.01  -0.02
    29   6     0.06  -0.01  -0.01    -0.01   0.00   0.08    -0.00  -0.00  -0.00
    30   1     0.01  -0.13   0.01    -0.02  -0.07   0.05    -0.01   0.04   0.05
    31   1    -0.04   0.18   0.23     0.20  -0.01  -0.24    -0.02  -0.02  -0.01
    32   1     0.07   0.02  -0.22     0.02  -0.27  -0.15    -0.00  -0.00   0.01
    33   1     0.12   0.11   0.36    -0.03   0.05  -0.03    -0.01   0.02   0.01
    34   1    -0.05   0.11  -0.06    -0.14   0.02   0.10     0.01   0.01  -0.01
    35   1     0.08  -0.04  -0.13    -0.07  -0.31   0.15    -0.01  -0.00   0.02
    36   6    -0.04  -0.07   0.03    -0.04   0.06   0.04    -0.00  -0.00  -0.00
    37   1     0.03   0.09  -0.25     0.23  -0.06   0.30     0.00   0.00  -0.01
    38   1     0.02   0.15  -0.16    -0.06  -0.06  -0.31    -0.00   0.00  -0.01
    39   1     0.22   0.04   0.41     0.13  -0.11  -0.02     0.01   0.00   0.01
                     46                     47                     48
                      A                      A                      A
 Frequencies --   1011.9150              1024.6185              1029.9988
 Red. masses --      1.3732                 5.4999                 1.3485
 Frc consts  --      0.8284                 3.4020                 0.8429
 IR Inten    --      0.0000                 0.0000                 0.0000
  Atom  AN      X      Y      Z        X      Y      Z        X      Y      Z
     1   8    -0.00   0.00  -0.01     0.00  -0.00   0.01     0.00   0.00   0.00
     2   6    -0.00  -0.00   0.00     0.01  -0.00  -0.01    -0.00   0.00  -0.00
     3   6     0.02  -0.03  -0.01    -0.02   0.03   0.00    -0.00   0.01   0.00
     4   6    -0.02   0.02   0.01     0.02  -0.02  -0.00     0.01  -0.00  -0.00
     5   6     0.02   0.00   0.00    -0.01  -0.04  -0.01    -0.01  -0.00  -0.00
     6   6     0.07   0.02   0.01     0.08   0.18  -0.32     0.02   0.01   0.01
     7   6    -0.10  -0.02  -0.03    -0.02   0.03   0.09    -0.05  -0.01  -0.03
     8   6     0.04  -0.00   0.01     0.05  -0.32  -0.01     0.08   0.01   0.03
     9   6     0.05   0.01   0.01     0.02   0.03  -0.08    -0.09  -0.02  -0.03
    10   6    -0.09  -0.01  -0.01    -0.14   0.14   0.32     0.06   0.02   0.02
    11   1    -0.01   0.07   0.03     0.00  -0.08  -0.04    -0.00  -0.02  -0.01
    12   1    -0.14  -0.05  -0.05     0.16   0.06   0.07     0.03   0.01   0.01
    13   1     0.07   0.09   0.04    -0.07  -0.10  -0.03    -0.01  -0.02  -0.01
    14   1     0.03  -0.04  -0.01    -0.02   0.01   0.04    -0.01  -0.00   0.03
    15   1    -0.00   0.04  -0.14     0.00  -0.03   0.07    -0.01  -0.01   0.03
    16   1     0.03  -0.08   0.09    -0.02   0.05  -0.06    -0.01   0.02  -0.04
    17   1    -0.37  -0.09  -0.17     0.21   0.08  -0.36    -0.13  -0.02  -0.05
    18   1     0.53   0.09   0.22    -0.14  -0.08   0.08     0.32   0.07   0.11
    19   1    -0.23  -0.05  -0.09     0.12  -0.31   0.01    -0.46  -0.09  -0.18
    20   1    -0.25  -0.05  -0.11     0.06  -0.06  -0.11     0.53   0.09   0.21
    21   1     0.42   0.05   0.21    -0.20   0.05   0.36    -0.37  -0.03  -0.17
    22   6     0.00   0.00  -0.00     0.00   0.00   0.01     0.00   0.01   0.02
    23   6    -0.00  -0.00   0.00     0.00   0.00   0.00     0.01   0.01   0.03
    24   6     0.00   0.00  -0.01    -0.00  -0.00   0.01    -0.02  -0.01   0.01
    25   1     0.00   0.00  -0.01     0.00   0.01   0.01     0.01   0.05   0.04
    26   6     0.00  -0.00  -0.00     0.00  -0.00  -0.00    -0.00  -0.03  -0.02
    27   1    -0.00   0.00   0.00     0.00   0.01   0.00     0.01   0.03   0.02
    28   1    -0.01  -0.01   0.02    -0.00   0.00   0.01    -0.03  -0.02   0.09
    29   6    -0.00   0.00   0.01     0.00   0.00  -0.01     0.01   0.03  -0.02
    30   1     0.00  -0.02  -0.01    -0.00   0.02   0.02    -0.00  -0.03  -0.00
    31   1     0.01  -0.00  -0.01    -0.01  -0.01   0.01    -0.02   0.01   0.05
    32   1    -0.00  -0.00  -0.00     0.00  -0.02  -0.01     0.02  -0.06  -0.07
    33   1    -0.01  -0.00  -0.01     0.01  -0.01  -0.00     0.04  -0.12  -0.05
    34   1    -0.02  -0.01   0.02     0.01   0.02  -0.02     0.01   0.09  -0.06
    35   1    -0.00  -0.01  -0.00    -0.00   0.01   0.00     0.03   0.05  -0.07
    36   6     0.00   0.00   0.00    -0.00  -0.00  -0.00    -0.00   0.00  -0.01
    37   1     0.01  -0.00   0.02    -0.00   0.00  -0.01    -0.01   0.00  -0.02
    38   1    -0.00  -0.01  -0.01    -0.00   0.00  -0.01    -0.00   0.00  -0.00
    39   1    -0.00  -0.00  -0.01     0.00   0.00   0.00    -0.01   0.00  -0.02
                     49                     50                     51
                      A                      A                      A
 Frequencies --   1031.2989              1062.8196              1072.4392
 Red. masses --      1.6460                 2.3438                 1.8090
 Frc consts  --      1.0314                 1.5599                 1.2259
 IR Inten    --      0.0000                 0.0000                 0.0000
  Atom  AN      X      Y      Z        X      Y      Z        X      Y      Z
     1   8    -0.01  -0.00  -0.00     0.01  -0.00  -0.00    -0.02  -0.01  -0.01
     2   6     0.00  -0.00  -0.01    -0.01   0.00   0.01    -0.01  -0.01  -0.03
     3   6     0.00   0.00   0.00     0.01  -0.02   0.01     0.01   0.00  -0.00
     4   6     0.00   0.00   0.00    -0.01  -0.02  -0.01     0.01   0.01   0.02
     5   6    -0.00  -0.00  -0.00    -0.00   0.05   0.00     0.01   0.00  -0.00
     6   6     0.01   0.00  -0.00    -0.02   0.06   0.03    -0.01  -0.00   0.01
     7   6    -0.02  -0.00  -0.01     0.07  -0.03  -0.18     0.00   0.00  -0.00
     8   6     0.03  -0.00   0.01     0.03  -0.17  -0.01     0.00  -0.01  -0.01
     9   6    -0.03  -0.01  -0.01    -0.05  -0.04   0.19    -0.00  -0.00   0.02
    10   6     0.02   0.01   0.01    -0.01   0.06  -0.03    -0.01   0.01  -0.00
    11   1     0.00  -0.00  -0.00     0.04   0.07   0.04    -0.01   0.01   0.00
    12   1     0.00   0.00   0.00    -0.09  -0.04  -0.06    -0.01  -0.00  -0.00
    13   1     0.00   0.00   0.00     0.02   0.05  -0.00     0.03   0.03   0.02
    14   1     0.01  -0.02   0.02    -0.02   0.04  -0.05     0.02  -0.06   0.09
    15   1    -0.01   0.00  -0.02     0.04  -0.01   0.05    -0.03   0.01  -0.04
    16   1    -0.00  -0.01   0.00     0.01   0.02   0.02    -0.01  -0.03  -0.01
    17   1    -0.04  -0.01  -0.02    -0.13   0.32   0.16     0.01  -0.00   0.02
    18   1     0.11   0.03   0.04     0.08   0.31  -0.37    -0.00   0.04  -0.03
    19   1    -0.16  -0.03  -0.07     0.06  -0.18  -0.01     0.02  -0.00  -0.04
    20   1     0.20   0.03   0.07    -0.23   0.25   0.35    -0.02  -0.00   0.01
    21   1    -0.14  -0.01  -0.05     0.05   0.39  -0.17     0.03   0.04  -0.00
    22   6    -0.00  -0.02  -0.05    -0.00  -0.00  -0.01     0.06  -0.01   0.16
    23   6    -0.02  -0.02  -0.11     0.00  -0.00  -0.00    -0.02   0.04  -0.01
    24   6     0.06   0.04  -0.04    -0.00   0.00  -0.01     0.01   0.00   0.10
    25   1    -0.04  -0.20  -0.12    -0.00  -0.01  -0.01     0.04  -0.08   0.11
    26   6     0.02   0.10   0.09    -0.00   0.00   0.00     0.05  -0.02  -0.00
    27   1    -0.02  -0.12  -0.06    -0.00   0.01   0.01     0.07  -0.04  -0.22
    28   1     0.13   0.07  -0.35    -0.00  -0.01  -0.01     0.14   0.13  -0.05
    29   6    -0.05  -0.09   0.04     0.00  -0.00   0.01    -0.03   0.01  -0.10
    30   1     0.00   0.12   0.02     0.01  -0.02  -0.02    -0.17   0.19   0.20
    31   1     0.06  -0.02  -0.14    -0.00   0.01   0.01     0.09  -0.18  -0.21
    32   1    -0.05   0.20   0.25    -0.00   0.03   0.01     0.03  -0.31  -0.04
    33   1    -0.11   0.43   0.19     0.00  -0.01   0.00    -0.10   0.26   0.04
    34   1     0.02  -0.31   0.19    -0.02  -0.02   0.02     0.23   0.09  -0.23
    35   1    -0.10  -0.15   0.26     0.01   0.01  -0.02    -0.13  -0.12   0.31
    36   6     0.00  -0.01   0.04     0.00   0.00   0.00    -0.09  -0.02  -0.09
    37   1     0.04  -0.00   0.04     0.00  -0.00   0.01     0.03   0.05  -0.20
    38   1     0.01  -0.00   0.00     0.00  -0.00   0.02    -0.07   0.06  -0.35
    39   1     0.05  -0.01   0.09    -0.00  -0.00  -0.01     0.07  -0.01   0.06
                     52                     53                     54
                      A                      A                      A
 Frequencies --   1081.1004              1107.5385              1129.8086
 Red. masses --      1.6320                 1.6027                 2.0197
 Frc consts  --      1.1238                 1.1583                 1.5190
 IR Inten    --      0.0000                 0.0000                 0.0000
  Atom  AN      X      Y      Z        X      Y      Z        X      Y      Z
     1   8     0.01   0.01   0.00    -0.02   0.01   0.02     0.02  -0.02  -0.01
     2   6     0.00   0.01   0.02     0.02  -0.03  -0.04    -0.04   0.10  -0.02
     3   6    -0.01  -0.00  -0.00    -0.01   0.02   0.02     0.02  -0.08   0.04
     4   6    -0.00  -0.01  -0.01    -0.01   0.02   0.01     0.01  -0.09  -0.01
     5   6    -0.01   0.00   0.00     0.03  -0.05  -0.05    -0.02   0.21  -0.02
     6   6     0.00   0.00  -0.00    -0.00  -0.10   0.05     0.01  -0.02  -0.02
     7   6     0.00  -0.00  -0.00    -0.04   0.07   0.07     0.01  -0.05  -0.02
     8   6    -0.00   0.00   0.00     0.03  -0.00  -0.07     0.00   0.04  -0.03
     9   6     0.00   0.00  -0.00    -0.00  -0.04   0.03    -0.01  -0.08   0.05
    10   6     0.00  -0.00  -0.00    -0.03   0.09   0.03    -0.02   0.03   0.04
    11   1    -0.01  -0.01  -0.00     0.07  -0.02  -0.01     0.13   0.21   0.12
    12   1    -0.01  -0.00   0.00     0.11   0.04   0.01    -0.27  -0.12  -0.21
    13   1    -0.01  -0.01  -0.00    -0.06  -0.06  -0.04    -0.01   0.13  -0.08
    14   1    -0.01   0.03  -0.04     0.03  -0.04   0.01    -0.10   0.17  -0.11
    15   1     0.01  -0.01   0.03    -0.02   0.02  -0.04     0.06  -0.11   0.40
    16   1    -0.00   0.02  -0.01     0.01  -0.05   0.03     0.02   0.15   0.01
    17   1    -0.00   0.01  -0.00     0.09  -0.35  -0.07     0.16  -0.34  -0.19
    18   1     0.00  -0.01   0.00    -0.03   0.32  -0.06     0.01  -0.20   0.06
    19   1    -0.01  -0.00   0.02     0.19   0.03  -0.50     0.07   0.05  -0.20
    20   1     0.01   0.00  -0.00     0.04  -0.22  -0.07     0.10  -0.32  -0.07
    21   1    -0.01  -0.02  -0.00     0.02   0.53  -0.19    -0.04  -0.12   0.13
    22   6    -0.05   0.05   0.14    -0.01   0.00  -0.01     0.01  -0.01   0.01
    23   6     0.07  -0.01   0.02     0.01  -0.00   0.00    -0.00   0.00  -0.00
    24   6     0.00  -0.06  -0.08     0.00  -0.01  -0.01    -0.00   0.01   0.00
    25   1     0.00   0.27   0.33    -0.00   0.03   0.00     0.00  -0.04   0.01
    26   6    -0.05   0.03  -0.03    -0.01   0.00  -0.00     0.00  -0.00   0.00
    27   1     0.09   0.24  -0.14     0.00   0.02   0.01    -0.00  -0.01  -0.00
    28   1    -0.05  -0.05  -0.16    -0.02  -0.02   0.00     0.02   0.02  -0.02
    29   6     0.04  -0.02   0.06     0.01  -0.00   0.01    -0.00  -0.00  -0.00
    30   1     0.04  -0.16  -0.06    -0.01  -0.01   0.01     0.01  -0.03  -0.01
    31   1     0.24  -0.19  -0.39     0.01   0.00  -0.01    -0.02   0.00   0.01
    32   1     0.00   0.11  -0.12    -0.00   0.02  -0.01     0.00   0.00   0.01
    33   1     0.03   0.17   0.16     0.01  -0.01   0.01    -0.00   0.01  -0.00
    34   1    -0.21  -0.24   0.30    -0.02  -0.01   0.02     0.00  -0.01   0.00
    35   1     0.07  -0.12  -0.14     0.01   0.00  -0.03     0.00   0.02  -0.00
    36   6    -0.01  -0.00  -0.08     0.01  -0.00   0.00    -0.01   0.01  -0.00
    37   1    -0.12   0.02  -0.14    -0.01  -0.00   0.00     0.02  -0.00   0.01
    38   1    -0.01   0.02   0.03     0.01  -0.00   0.03    -0.01  -0.01  -0.04
    39   1    -0.10   0.04  -0.11    -0.01   0.01  -0.00     0.01  -0.01  -0.01
                     55                     56                     57
                      A                      A                      A
 Frequencies --   1158.9215              1162.6101              1172.0136
 Red. masses --      1.9641                 2.4034                 1.2027
 Frc consts  --      1.5543                 1.9140                 0.9734
 IR Inten    --      0.0000                 0.0000                 0.0000
  Atom  AN      X      Y      Z        X      Y      Z        X      Y      Z
     1   8    -0.01  -0.01   0.00    -0.04   0.01   0.01     0.01  -0.01  -0.01
     2   6     0.01   0.00  -0.02     0.28   0.06   0.07    -0.01   0.01   0.04
     3   6     0.00  -0.00   0.01    -0.10  -0.03   0.01     0.00  -0.01  -0.01
     4   6    -0.00  -0.01   0.01    -0.14  -0.03  -0.03     0.00  -0.00  -0.01
     5   6    -0.00   0.02  -0.00    -0.04  -0.02  -0.02    -0.01   0.00   0.02
     6   6    -0.00   0.00   0.00     0.01   0.01   0.01     0.01  -0.01  -0.02
     7   6     0.00  -0.01  -0.00     0.00  -0.00   0.00     0.00   0.05  -0.03
     8   6     0.00   0.00  -0.01    -0.00  -0.00   0.00    -0.03  -0.00   0.07
     9   6    -0.00  -0.00   0.01     0.00   0.00  -0.01     0.02  -0.05  -0.03
    10   6    -0.00  -0.00   0.00     0.01  -0.00   0.00     0.00   0.02  -0.02
    11   1     0.03   0.02   0.01     0.10  -0.04  -0.03    -0.05  -0.01  -0.01
    12   1    -0.01  -0.01  -0.03     0.02  -0.02  -0.11    -0.04  -0.01   0.01
    13   1    -0.01   0.00  -0.02    -0.20  -0.14  -0.14     0.03   0.01   0.02
    14   1     0.00   0.00  -0.01     0.04   0.21  -0.52    -0.01   0.03  -0.02
    15   1     0.01  -0.00   0.01     0.26   0.09  -0.03    -0.01  -0.01   0.02
    16   1     0.00  -0.01   0.01     0.15  -0.01   0.36    -0.01   0.03  -0.03
    17   1     0.00  -0.00  -0.00    -0.08   0.04   0.00     0.05  -0.14  -0.09
    18   1     0.00  -0.03   0.01    -0.00  -0.02   0.01     0.01   0.37  -0.20
    19   1     0.01   0.00  -0.04    -0.01  -0.00   0.02    -0.23  -0.04   0.61
    20   1    -0.01   0.03   0.02    -0.00   0.01  -0.00     0.16  -0.43  -0.24
    21   1     0.00  -0.06   0.04    -0.05  -0.01  -0.03     0.02   0.22  -0.12
    22   6    -0.03   0.18  -0.08     0.01  -0.01   0.03     0.01   0.01  -0.00
    23   6    -0.05  -0.06   0.04    -0.00  -0.00  -0.01    -0.01  -0.00   0.00
    24   6     0.09  -0.09   0.01     0.01   0.01   0.02     0.00  -0.00   0.00
    25   1     0.04   0.50  -0.15     0.01  -0.01   0.03     0.01   0.02  -0.01
    26   6     0.03   0.00  -0.03     0.02   0.01   0.01     0.01  -0.00  -0.00
    27   1    -0.08  -0.07   0.10     0.02   0.01  -0.09    -0.01  -0.02   0.01
    28   1    -0.08  -0.08   0.11    -0.01  -0.01   0.06     0.01   0.00   0.00
    29   6    -0.06   0.01   0.02    -0.03  -0.01  -0.01    -0.01   0.00  -0.00
    30   1    -0.05   0.29  -0.02     0.17  -0.08  -0.32     0.02   0.01  -0.04
    31   1     0.04  -0.20  -0.12    -0.02   0.03   0.07     0.00  -0.01   0.00
    32   1     0.00  -0.17  -0.01     0.00  -0.06   0.01    -0.00  -0.01   0.01
    33   1    -0.07   0.13  -0.04    -0.02   0.02  -0.03    -0.01   0.02  -0.01
    34   1     0.07   0.08  -0.07     0.08   0.05  -0.09     0.01  -0.00  -0.00
    35   1    -0.09  -0.04   0.13    -0.07  -0.07   0.13    -0.01   0.01   0.01
    36   6     0.04  -0.11   0.03    -0.01   0.00  -0.01    -0.00  -0.01   0.00
    37   1    -0.13   0.07  -0.31     0.01   0.00  -0.01     0.00   0.01  -0.02
    38   1     0.11   0.19   0.26    -0.01   0.00  -0.06     0.00   0.02  -0.00
    39   1     0.01   0.14   0.31    -0.00  -0.01  -0.02     0.01   0.00   0.03
                     58                     59                     60
                      A                      A                      A
 Frequencies --   1190.2183              1197.8268              1206.0663
 Red. masses --      1.5444                 2.0700                 1.2245
 Frc consts  --      1.2891                 1.7499                 1.0495
 IR Inten    --      0.0000                 0.0000                 0.0000
  Atom  AN      X      Y      Z        X      Y      Z        X      Y      Z
     1   8     0.01   0.00  -0.00     0.05  -0.02  -0.05    -0.01   0.00   0.01
     2   6     0.03   0.01   0.03    -0.07   0.02   0.25     0.01   0.01  -0.08
     3   6    -0.01  -0.00  -0.01     0.02  -0.00  -0.08    -0.00  -0.00   0.02
     4   6    -0.01  -0.00  -0.01     0.02  -0.00  -0.06    -0.00  -0.01   0.02
     5   6    -0.01  -0.01   0.00    -0.02  -0.02   0.04     0.01   0.00  -0.01
     6   6     0.00   0.00   0.00     0.00  -0.00  -0.00    -0.02   0.06   0.03
     7   6    -0.00  -0.00   0.01    -0.00  -0.02   0.02    -0.00  -0.05   0.02
     8   6     0.00  -0.00  -0.00     0.01  -0.00  -0.02     0.00  -0.01  -0.00
     9   6     0.00   0.00  -0.00     0.01  -0.01  -0.01     0.02  -0.03  -0.02
    10   6     0.00   0.00  -0.00     0.00   0.04  -0.02    -0.00   0.02  -0.02
    11   1    -0.02  -0.02  -0.01    -0.31  -0.10  -0.06     0.09   0.05   0.03
    12   1    -0.01  -0.00   0.00    -0.14  -0.04   0.16     0.02   0.00  -0.05
    13   1    -0.01  -0.01  -0.00     0.15   0.02   0.15    -0.03   0.01  -0.04
    14   1    -0.00   0.03  -0.06    -0.07   0.12  -0.06     0.01  -0.04   0.03
    15   1     0.02   0.01  -0.02    -0.04  -0.01  -0.02     0.03   0.00  -0.01
    16   1     0.01   0.01   0.03    -0.07   0.15  -0.20     0.02  -0.02   0.05
    17   1    -0.03   0.04   0.02    -0.04   0.08   0.04    -0.18   0.44   0.24
    18   1    -0.00  -0.06   0.04    -0.01  -0.34   0.19    -0.01  -0.43   0.23
    19   1     0.02   0.00  -0.05     0.12   0.01  -0.31    -0.02  -0.01   0.06
    20   1     0.00  -0.00  -0.01     0.02  -0.06  -0.04     0.15  -0.38  -0.22
    21   1    -0.01   0.05  -0.03     0.02   0.35  -0.18     0.03   0.38  -0.20
    22   6     0.12   0.04  -0.03     0.02   0.02   0.03    -0.03  -0.01  -0.01
    23   6    -0.07   0.01   0.06    -0.02  -0.01  -0.02     0.02   0.01   0.01
    24   6    -0.08  -0.03   0.01     0.02  -0.01   0.00     0.00   0.00   0.01
    25   1     0.10  -0.04  -0.13     0.03   0.06   0.07    -0.03  -0.01  -0.04
    26   6     0.04  -0.07  -0.04     0.02   0.02   0.01    -0.01  -0.01   0.00
    27   1    -0.12  -0.19   0.28    -0.01  -0.04  -0.05     0.02   0.04  -0.02
    28   1     0.21   0.18  -0.31    -0.01  -0.01   0.07    -0.01  -0.01  -0.00
    29   6     0.01   0.06  -0.01    -0.03  -0.02   0.01     0.00   0.01  -0.01
    30   1    -0.01  -0.25   0.12     0.11   0.06  -0.30    -0.05   0.02   0.08
    31   1    -0.07  -0.11  -0.10     0.06   0.07   0.09    -0.01  -0.02  -0.03
    32   1    -0.01  -0.00   0.07    -0.01   0.02   0.07     0.01  -0.04  -0.05
    33   1    -0.06   0.25   0.09    -0.02  -0.04  -0.09     0.00   0.03   0.04
    34   1    -0.17  -0.26   0.29     0.06   0.05  -0.07    -0.01  -0.01   0.01
    35   1     0.10   0.29  -0.27    -0.04  -0.00   0.06    -0.00  -0.01   0.01
    36   6    -0.04  -0.02   0.01    -0.02  -0.01  -0.01     0.02   0.00   0.00
    37   1     0.09   0.04  -0.07     0.01   0.02  -0.05    -0.02  -0.01   0.02
    38   1    -0.01   0.06  -0.13    -0.01   0.03  -0.06     0.01  -0.02   0.06
    39   1     0.10  -0.03   0.12     0.02  -0.00   0.04    -0.02   0.01  -0.03
                     61                     62                     63
                      A                      A                      A
 Frequencies --   1212.9889              1243.4606              1268.0175
 Red. masses --      1.7467                 1.3864                 1.4139
 Frc consts  --      1.5142                 1.2630                 1.3394
 IR Inten    --      0.0000                 0.0000                 0.0000
  Atom  AN      X      Y      Z        X      Y      Z        X      Y      Z
     1   8     0.01  -0.01  -0.01    -0.00  -0.00  -0.00    -0.01  -0.01  -0.02
     2   6    -0.00   0.00   0.07     0.01   0.00   0.01     0.04  -0.02   0.07
     3   6     0.00  -0.00  -0.02    -0.00  -0.00  -0.00    -0.00   0.01  -0.02
     4   6    -0.00   0.00  -0.02    -0.00  -0.00  -0.00    -0.02   0.01  -0.02
     5   6    -0.01   0.00   0.01    -0.00   0.00   0.00    -0.02   0.03   0.02
     6   6     0.01  -0.01  -0.01     0.00  -0.00  -0.00     0.00  -0.00  -0.01
     7   6     0.00   0.01  -0.00     0.00   0.00  -0.00     0.01  -0.00  -0.01
     8   6    -0.00   0.00  -0.00    -0.00  -0.00  -0.00    -0.00  -0.00   0.01
     9   6    -0.00   0.00   0.00    -0.00   0.00   0.00     0.00  -0.01   0.00
    10   6     0.00   0.00  -0.00     0.00  -0.00   0.00     0.00   0.02  -0.01
    11   1    -0.07  -0.03  -0.02    -0.01  -0.00  -0.00    -0.07  -0.06  -0.03
    12   1    -0.03  -0.01   0.04    -0.00  -0.00   0.00    -0.03  -0.00   0.03
    13   1     0.03  -0.01   0.03    -0.00  -0.00  -0.00     0.01  -0.04   0.02
    14   1    -0.01   0.03  -0.03     0.00   0.01  -0.01     0.01   0.02  -0.07
    15   1    -0.00   0.00  -0.00     0.00   0.00  -0.00     0.02   0.03  -0.05
    16   1    -0.01   0.03  -0.03     0.00   0.00   0.00     0.01   0.01   0.01
    17   1     0.03  -0.09  -0.05     0.00  -0.01  -0.01     0.02  -0.06  -0.04
    18   1     0.00   0.03  -0.02     0.00   0.01  -0.00     0.00  -0.06   0.02
    19   1     0.02   0.00  -0.05     0.00   0.00  -0.00     0.01   0.00  -0.04
    20   1    -0.03   0.05   0.03    -0.01   0.01   0.00     0.00  -0.02   0.00
    21   1     0.00  -0.02   0.01    -0.01  -0.01   0.00    -0.01   0.01  -0.01
    22   6    -0.10  -0.07  -0.07    -0.04  -0.04  -0.01    -0.01   0.02  -0.02
    23   6     0.08   0.05   0.07    -0.03   0.04  -0.09     0.03   0.00  -0.04
    24   6    -0.00   0.01   0.07    -0.03   0.03   0.05    -0.03   0.06   0.07
    25   1    -0.10  -0.09  -0.26     0.03   0.28  -0.04    -0.05  -0.14  -0.17
    26   6    -0.01  -0.07  -0.02     0.08  -0.02   0.09    -0.07   0.00  -0.01
    27   1     0.11   0.20  -0.08     0.05  -0.06  -0.29    -0.10  -0.05   0.34
    28   1     0.01   0.04  -0.12    -0.11  -0.05   0.53    -0.06  -0.05   0.05
    29   6    -0.03   0.07  -0.06    -0.00  -0.00  -0.06     0.08  -0.03  -0.00
    30   1     0.04   0.10  -0.06    -0.03  -0.05   0.09    -0.18  -0.07   0.46
    31   1    -0.01  -0.07  -0.05     0.08  -0.16  -0.29     0.04  -0.27  -0.45
    32   1     0.08  -0.38  -0.28     0.02  -0.03   0.21    -0.03   0.23  -0.04
    33   1    -0.04   0.41   0.31    -0.01  -0.07  -0.05     0.07  -0.14   0.05
    34   1    -0.04  -0.16   0.11    -0.00  -0.31   0.18     0.03   0.21  -0.17
    35   1    -0.09  -0.04   0.14     0.08   0.35  -0.21     0.05  -0.19   0.04
    36   6     0.08   0.03   0.01     0.02   0.00   0.00     0.02  -0.02   0.00
    37   1    -0.09  -0.06   0.12    -0.04  -0.01   0.03    -0.04   0.00  -0.04
    38   1     0.04  -0.10   0.28     0.01  -0.02   0.05     0.02   0.01   0.08
    39   1    -0.09   0.03  -0.13    -0.02   0.00  -0.03    -0.01   0.02   0.02
                     64                     65                     66
                      A                      A                      A
 Frequencies --   1269.6363              1290.1985              1308.2562
 Red. masses --      1.2068                 3.1099                 1.3475
 Frc consts  --      1.1461                 3.0501                 1.3588
 IR Inten    --      0.0000                 0.0000                 0.0000
  Atom  AN      X      Y      Z        X      Y      Z        X      Y      Z
     1   8    -0.01  -0.00   0.01     0.02  -0.02  -0.00     0.00   0.01   0.01
     2   6     0.02  -0.02  -0.01    -0.07   0.30  -0.05    -0.02  -0.03  -0.01
     3   6    -0.00   0.00   0.00     0.01  -0.09   0.02    -0.00   0.01   0.00
     4   6    -0.00   0.00   0.00     0.02  -0.09   0.00     0.00   0.01   0.00
     5   6     0.00   0.02  -0.01     0.04  -0.22   0.01     0.01   0.02  -0.03
     6   6    -0.00   0.01   0.01     0.02  -0.06  -0.02    -0.01   0.02   0.01
     7   6     0.00  -0.01   0.00    -0.03   0.06   0.04     0.00  -0.02   0.01
     8   6     0.00   0.00  -0.01    -0.00  -0.00   0.01     0.01   0.00  -0.02
     9   6    -0.00   0.00   0.01     0.01   0.05  -0.06    -0.01   0.01   0.01
    10   6    -0.00  -0.00   0.00     0.00  -0.05   0.01    -0.00  -0.01   0.01
    11   1     0.01  -0.01  -0.01     0.01   0.24   0.13     0.03  -0.00  -0.00
    12   1     0.01   0.00  -0.00    -0.14  -0.09  -0.13     0.04   0.02   0.02
    13   1    -0.01  -0.02  -0.00     0.01   0.25  -0.09     0.00  -0.01   0.02
    14   1     0.02  -0.02  -0.02    -0.16   0.13   0.07     0.02  -0.03   0.02
    15   1     0.01   0.01  -0.01     0.07  -0.10   0.29    -0.02   0.00  -0.00
    16   1    -0.01  -0.01  -0.01     0.07   0.21   0.07    -0.01  -0.03  -0.02
    17   1     0.00  -0.01  -0.01    -0.09   0.22   0.14     0.00  -0.00   0.00
    18   1     0.00   0.00  -0.01    -0.03   0.22  -0.04     0.00   0.02  -0.02
    19   1    -0.01  -0.00   0.02    -0.00   0.00  -0.00    -0.01  -0.00   0.03
    20   1     0.01  -0.03  -0.01    -0.07   0.27   0.06     0.02  -0.06  -0.02
    21   1     0.00  -0.02   0.02     0.02   0.16  -0.10     0.00  -0.03   0.02
    22   6     0.02  -0.03  -0.03     0.00   0.01  -0.01     0.00   0.06  -0.01
    23   6    -0.00   0.02  -0.01     0.02   0.01  -0.03     0.06   0.02  -0.06
    24   6    -0.07  -0.04   0.05    -0.02   0.03   0.05    -0.02   0.02   0.01
    25   1     0.05   0.10   0.06    -0.01  -0.04  -0.05    -0.09  -0.39   0.20
    26   6    -0.03  -0.03  -0.00    -0.03  -0.02  -0.01     0.02  -0.07  -0.04
    27   1    -0.06  -0.07   0.18    -0.06  -0.04   0.19    -0.02   0.03   0.17
    28   1     0.01   0.03   0.01    -0.03  -0.02   0.08    -0.13  -0.10   0.36
    29   6     0.05   0.01  -0.01     0.02  -0.01  -0.00    -0.05  -0.05   0.06
    30   1    -0.22   0.50  -0.34     0.05  -0.01  -0.10     0.20  -0.11  -0.28
    31   1     0.64   0.20  -0.02     0.10  -0.10  -0.20     0.04  -0.02  -0.09
    32   1    -0.01   0.17   0.02    -0.01   0.11  -0.01    -0.01   0.02   0.03
    33   1     0.01  -0.01   0.05     0.01   0.04   0.07    -0.06   0.43   0.25
    34   1    -0.02  -0.04   0.04     0.02   0.09  -0.09     0.05   0.23  -0.17
    35   1     0.03  -0.10  -0.03    -0.00  -0.08   0.05     0.03   0.24  -0.15
    36   6    -0.01   0.01   0.01     0.00  -0.01   0.00    -0.02  -0.01  -0.00
    37   1     0.04  -0.00   0.04    -0.00   0.01  -0.02     0.04   0.00  -0.00
    38   1    -0.01  -0.01  -0.02     0.01   0.01   0.02    -0.00   0.05  -0.02
    39   1     0.04  -0.03   0.00     0.00   0.00   0.01     0.02   0.01   0.07
                     67                     68                     69
                      A                      A                      A
 Frequencies --   1315.0922              1321.8466              1326.8927
 Red. masses --      3.6311                 1.3006                 1.3179
 Frc consts  --      3.7000                 1.3390                 1.3671
 IR Inten    --      0.0000                 0.0000                 0.0000
  Atom  AN      X      Y      Z        X      Y      Z        X      Y      Z
     1   8    -0.01  -0.01   0.01    -0.01  -0.01  -0.03     0.00   0.01   0.01
     2   6     0.04  -0.01  -0.08     0.03   0.04   0.05    -0.02  -0.02  -0.01
     3   6    -0.01  -0.00   0.02     0.00  -0.01  -0.01     0.00   0.01   0.00
     4   6    -0.01   0.02   0.01    -0.01  -0.01  -0.01     0.01   0.00   0.01
     5   6    -0.10   0.00   0.25     0.01  -0.02  -0.04     0.00   0.01  -0.01
     6   6     0.06  -0.12  -0.09    -0.01   0.01   0.01    -0.00   0.00   0.00
     7   6     0.02   0.15  -0.11    -0.00  -0.02   0.02     0.00  -0.01   0.00
     8   6    -0.06  -0.01   0.15     0.01   0.00  -0.02     0.00  -0.00  -0.00
     9   6     0.06  -0.15  -0.09    -0.01   0.03   0.01    -0.00  -0.00   0.00
    10   6     0.01   0.14  -0.09     0.00  -0.03   0.02    -0.00   0.00  -0.00
    11   1     0.08  -0.01   0.00    -0.08  -0.01  -0.00     0.02   0.00  -0.00
    12   1     0.05   0.01  -0.08    -0.08  -0.03   0.00     0.03   0.01   0.01
    13   1    -0.02   0.04  -0.02    -0.00  -0.02  -0.02     0.01  -0.00   0.01
    14   1     0.03  -0.08   0.05    -0.03   0.05  -0.04     0.01  -0.00   0.01
    15   1     0.01   0.02   0.02     0.05   0.01  -0.00    -0.03  -0.01  -0.02
    16   1     0.03  -0.08   0.08     0.02   0.07   0.02    -0.01  -0.02  -0.02
    17   1     0.02  -0.05  -0.06    -0.01   0.01   0.01    -0.01   0.02   0.01
    18   1    -0.00  -0.41   0.19    -0.00   0.08  -0.03     0.00   0.00  -0.00
    19   1     0.08   0.01  -0.21    -0.01   0.00   0.03     0.00  -0.00  -0.00
    20   1    -0.13   0.34   0.18     0.01  -0.02  -0.02     0.01  -0.03  -0.01
    21   1     0.03   0.05  -0.03    -0.01   0.02  -0.01     0.00  -0.02   0.01
    22   6    -0.00   0.01  -0.03    -0.01  -0.00  -0.04     0.02  -0.01  -0.04
    23   6     0.03   0.01  -0.02     0.05  -0.00  -0.03     0.03   0.02  -0.07
    24   6     0.01  -0.03  -0.03     0.04  -0.03  -0.06     0.03  -0.00   0.02
    25   1    -0.02  -0.11   0.32    -0.00  -0.04   0.43     0.09   0.23   0.40
    26   6     0.01  -0.02  -0.00    -0.00   0.02   0.02    -0.04  -0.02   0.03
    27   1     0.00   0.02   0.05    -0.02   0.02   0.14    -0.11  -0.12   0.38
    28   1    -0.07  -0.05   0.15    -0.06  -0.07   0.07    -0.08  -0.05   0.15
    29   6    -0.01   0.01   0.02    -0.01  -0.00   0.02     0.01   0.08  -0.08
    30   1    -0.14   0.14   0.10    -0.41   0.24   0.50     0.26  -0.20  -0.14
    31   1     0.04   0.10   0.13    -0.02   0.12   0.18    -0.22  -0.10   0.03
    32   1     0.01  -0.07  -0.01     0.04  -0.29  -0.14     0.01  -0.04  -0.07
    33   1    -0.01   0.15   0.11     0.01   0.07   0.07     0.05  -0.07   0.10
    34   1    -0.02  -0.01   0.03    -0.03  -0.05   0.06    -0.08  -0.21   0.17
    35   1     0.01   0.10  -0.07     0.04   0.18  -0.12    -0.13  -0.32   0.33
    36   6    -0.02   0.00   0.01    -0.03   0.01   0.01    -0.04   0.01   0.01
    37   1     0.06  -0.00   0.04     0.06  -0.01   0.07     0.09   0.00   0.04
    38   1    -0.02   0.01  -0.05    -0.03  -0.01  -0.05    -0.03   0.01  -0.06
    39   1     0.04  -0.01   0.05     0.07  -0.02   0.06     0.09  -0.04   0.07
                     70                     71                     72
                      A                      A                      A
 Frequencies --   1340.1712              1347.6493              1348.3687
 Red. masses --      1.3451                 1.4933                 1.3819
 Frc consts  --      1.4234                 1.5979                 1.4803
 IR Inten    --      0.0000                 0.0000                 0.0000
  Atom  AN      X      Y      Z        X      Y      Z        X      Y      Z
     1   8    -0.00   0.00   0.01    -0.01  -0.00  -0.01     0.00   0.00  -0.00
     2   6    -0.01  -0.01  -0.02     0.01   0.00   0.01    -0.01  -0.01   0.02
     3   6    -0.00   0.00   0.00     0.00   0.00  -0.00     0.01   0.01   0.00
     4   6     0.00   0.00   0.01     0.00  -0.00   0.00     0.00  -0.02   0.02
     5   6    -0.00   0.01   0.01     0.00  -0.00  -0.01     0.02   0.00  -0.06
     6   6     0.00  -0.00  -0.00     0.00  -0.01  -0.00     0.03  -0.09  -0.02
     7   6     0.00   0.01  -0.01    -0.00  -0.00   0.00    -0.01   0.01   0.01
     8   6    -0.00  -0.00   0.01    -0.00  -0.00   0.00    -0.03  -0.01   0.08
     9   6     0.00  -0.01  -0.00    -0.00   0.00   0.00    -0.00  -0.02   0.01
    10   6    -0.00   0.01  -0.00    -0.00   0.01  -0.00    -0.01   0.10  -0.03
    11   1     0.03   0.00  -0.00    -0.03  -0.02  -0.00    -0.05  -0.04  -0.01
    12   1     0.03   0.01  -0.00    -0.03  -0.01  -0.01    -0.05  -0.00  -0.01
    13   1     0.00   0.01   0.01    -0.01  -0.02  -0.01    -0.02  -0.03  -0.03
    14   1     0.01   0.00  -0.00    -0.01   0.04  -0.02    -0.00   0.07  -0.06
    15   1    -0.02  -0.00  -0.02    -0.01  -0.00  -0.04     0.03   0.01  -0.14
    16   1    -0.02  -0.02  -0.02    -0.01   0.02  -0.01    -0.05   0.10  -0.08
    17   1    -0.00   0.00   0.00    -0.02   0.04   0.02    -0.20   0.46   0.27
    18   1     0.00  -0.02   0.01     0.00   0.03  -0.01    -0.00   0.26  -0.12
    19   1     0.00   0.00  -0.01     0.01   0.00  -0.02     0.11   0.01  -0.29
    20   1    -0.00   0.01   0.00     0.01  -0.03  -0.01     0.11  -0.29  -0.13
    21   1     0.00  -0.01   0.01    -0.01  -0.03   0.02    -0.03  -0.46   0.27
    22   6     0.01  -0.08   0.03    -0.02  -0.10   0.01     0.00   0.01  -0.00
    23   6     0.01   0.01  -0.03    -0.03   0.05   0.01     0.00  -0.01   0.00
    24   6     0.01   0.05   0.01     0.06   0.01  -0.04    -0.01  -0.00   0.00
    25   1     0.13   0.46  -0.11     0.12   0.54   0.04    -0.01  -0.06  -0.01
    26   6    -0.02   0.07   0.02     0.02  -0.12  -0.08     0.00   0.01   0.01
    27   1    -0.14  -0.09   0.42    -0.00  -0.05  -0.03     0.01   0.01  -0.02
    28   1     0.07   0.06  -0.19     0.05   0.09   0.06    -0.00  -0.01  -0.01
    29   6    -0.04  -0.09   0.04    -0.01   0.00   0.05     0.00  -0.00  -0.00
    30   1     0.11  -0.06  -0.14    -0.08   0.02   0.20    -0.00   0.01  -0.01
    31   1     0.05  -0.02  -0.11    -0.16   0.03   0.11     0.02  -0.00  -0.01
    32   1     0.07  -0.39  -0.28    -0.08   0.47   0.26     0.01  -0.03  -0.02
    33   1    -0.03   0.04  -0.02    -0.05   0.32   0.16     0.00  -0.02  -0.02
    34   1     0.09   0.13  -0.17     0.02   0.25  -0.14     0.00  -0.02   0.01
    35   1     0.05   0.27  -0.16    -0.03  -0.07   0.06     0.01   0.01  -0.02
    36   6     0.00   0.02   0.00     0.00   0.03  -0.00     0.00  -0.00   0.00
    37   1    -0.04   0.01   0.00    -0.03  -0.01   0.06     0.00   0.00  -0.01
    38   1    -0.02  -0.09  -0.03    -0.03  -0.11  -0.01     0.00   0.01   0.00
    39   1     0.01  -0.05  -0.08     0.02  -0.04  -0.07    -0.00   0.00   0.00
                     73                     74                     75
                      A                      A                      A
 Frequencies --   1375.4127              1377.3346              1399.3571
 Red. masses --      1.4225                 1.4528                 1.2612
 Frc consts  --      1.5856                 1.6238                 1.4551
 IR Inten    --      0.0000                 0.0000                 0.0000
  Atom  AN      X      Y      Z        X      Y      Z        X      Y      Z
     1   8     0.00  -0.00  -0.01    -0.01   0.00   0.01     0.00  -0.00  -0.00
     2   6    -0.00  -0.01   0.03    -0.01  -0.00  -0.03    -0.00   0.01  -0.01
     3   6    -0.08  -0.05  -0.05     0.08   0.05   0.04    -0.02  -0.01  -0.00
     4   6    -0.01   0.02  -0.04     0.01  -0.01   0.04     0.01  -0.02   0.05
     5   6     0.00   0.01  -0.01     0.00  -0.00   0.01    -0.00   0.00   0.00
     6   6     0.00  -0.00  -0.00    -0.00   0.00   0.00    -0.00   0.00   0.00
     7   6     0.00  -0.01   0.00    -0.00   0.01  -0.00     0.00   0.00  -0.00
     8   6    -0.00  -0.00   0.01     0.00   0.00  -0.01     0.00   0.00  -0.00
     9   6    -0.00   0.00   0.01     0.00  -0.00  -0.01     0.00  -0.00  -0.00
    10   6     0.00   0.01  -0.00    -0.00  -0.01   0.01    -0.00  -0.00   0.00
    11   1     0.31   0.24   0.01    -0.29  -0.23  -0.01     0.07   0.05   0.01
    12   1     0.37   0.04   0.17    -0.35  -0.03  -0.16     0.10   0.01   0.01
    13   1     0.20   0.24   0.29    -0.19  -0.23  -0.28     0.04   0.08   0.05
    14   1    -0.02  -0.10   0.12     0.03   0.08  -0.10     0.03   0.15  -0.17
    15   1     0.02  -0.00   0.16    -0.02   0.00  -0.13    -0.01   0.00  -0.22
    16   1     0.09  -0.06   0.11    -0.08   0.04  -0.10    -0.12   0.10  -0.16
    17   1    -0.02   0.03   0.02     0.02  -0.03  -0.02     0.01  -0.04  -0.02
    18   1     0.00   0.02  -0.02    -0.00  -0.03   0.02    -0.00  -0.02   0.01
    19   1     0.01   0.00  -0.04    -0.02  -0.00   0.04    -0.01  -0.00   0.02
    20   1     0.02  -0.05  -0.02    -0.02   0.05   0.02    -0.01   0.02   0.01
    21   1    -0.01  -0.06   0.03     0.01   0.06  -0.03     0.00   0.02  -0.01
    22   6    -0.00  -0.02  -0.11    -0.00  -0.01  -0.12     0.01  -0.01   0.02
    23   6    -0.01  -0.01   0.07    -0.01  -0.01   0.07    -0.01  -0.00   0.01
    24   6     0.00   0.03   0.05    -0.00   0.04   0.06    -0.00   0.01   0.00
    25   1     0.04   0.07   0.40     0.03   0.04   0.42     0.01   0.01  -0.01
    26   6     0.00   0.01  -0.01     0.00   0.02  -0.01     0.00   0.01  -0.00
    27   1     0.09   0.03  -0.24     0.10   0.04  -0.25     0.01  -0.02  -0.03
    28   1     0.02   0.02  -0.18     0.01   0.01  -0.19    -0.00   0.00  -0.05
    29   6     0.00  -0.03   0.01    -0.00  -0.03   0.01     0.00  -0.01   0.00
    30   1     0.03  -0.03   0.00     0.11  -0.07  -0.07    -0.01  -0.02  -0.00
    31   1     0.05  -0.12  -0.21     0.05  -0.14  -0.24     0.00  -0.00  -0.02
    32   1    -0.01   0.02   0.01    -0.01   0.00   0.01     0.00   0.01   0.00
    33   1     0.01  -0.04  -0.05     0.01  -0.05  -0.06    -0.01  -0.02  -0.03
    34   1     0.06   0.09  -0.09     0.06   0.08  -0.10    -0.00   0.02  -0.02
    35   1     0.02   0.02  -0.04     0.02   0.02  -0.04     0.01   0.02  -0.01
    36   6    -0.02   0.01   0.03    -0.02   0.01   0.03    -0.04   0.01  -0.13
    37   1     0.08   0.02   0.03     0.09   0.03   0.02     0.21  -0.24   0.41
    38   1    -0.02  -0.01  -0.04    -0.03  -0.01  -0.04    -0.03   0.03   0.51
    39   1     0.07  -0.07   0.01     0.08  -0.07   0.01     0.29   0.14   0.39
                     76                     77                     78
                      A                      A                      A
 Frequencies --   1400.1832              1461.5809              1465.4197
 Red. masses --      1.2624                 1.0570                 1.0897
 Frc consts  --      1.4582                 1.3304                 1.3788
 IR Inten    --      0.0000                 0.0000                 0.0000
  Atom  AN      X      Y      Z        X      Y      Z        X      Y      Z
     1   8    -0.00   0.00   0.00     0.00  -0.00  -0.00     0.00   0.00  -0.00
     2   6     0.00  -0.01   0.02     0.01  -0.01   0.02    -0.00   0.00   0.00
     3   6     0.04   0.03   0.01     0.01  -0.04   0.03    -0.00  -0.00   0.00
     4   6    -0.02   0.05  -0.11    -0.00   0.02   0.00     0.00  -0.00  -0.00
     5   6     0.00  -0.01  -0.01    -0.00  -0.00   0.01    -0.00  -0.00   0.00
     6   6     0.00  -0.00  -0.00    -0.00   0.01   0.00    -0.00   0.00  -0.00
     7   6    -0.00  -0.00   0.00     0.00  -0.01  -0.00     0.00  -0.00  -0.00
     8   6    -0.00  -0.00   0.01    -0.00  -0.00   0.01    -0.00  -0.00   0.00
     9   6    -0.00   0.01   0.00    -0.00   0.01   0.01    -0.00   0.00   0.00
    10   6     0.00   0.01  -0.01     0.00   0.00  -0.01     0.00  -0.00  -0.00
    11   1    -0.14  -0.10  -0.01    -0.46   0.00   0.09    -0.01  -0.02  -0.00
    12   1    -0.21  -0.02  -0.03     0.41   0.05  -0.18     0.01   0.00  -0.03
    13   1    -0.09  -0.16  -0.11    -0.13   0.53  -0.37     0.00   0.02  -0.00
    14   1    -0.06  -0.30   0.33     0.15  -0.07  -0.13    -0.02   0.02   0.01
    15   1     0.03  -0.01   0.47    -0.03  -0.01   0.14    -0.02  -0.01  -0.01
    16   1     0.25  -0.23   0.32    -0.08  -0.21  -0.11     0.01  -0.00   0.01
    17   1    -0.03   0.08   0.04     0.00  -0.01  -0.01     0.00  -0.00  -0.00
    18   1     0.00   0.04  -0.02     0.00   0.01  -0.02     0.00   0.00  -0.00
    19   1     0.02   0.00  -0.05     0.02  -0.00  -0.05     0.00  -0.00  -0.01
    20   1     0.02  -0.05  -0.03     0.02  -0.05  -0.03     0.00  -0.00  -0.00
    21   1    -0.00  -0.04   0.02     0.00  -0.02   0.00     0.00   0.00  -0.00
    22   6     0.00  -0.01   0.01     0.00  -0.00  -0.00     0.00  -0.00   0.01
    23   6    -0.00   0.00   0.00    -0.00  -0.00   0.00     0.01   0.02   0.00
    24   6    -0.00   0.00   0.00     0.00   0.00  -0.00    -0.00   0.01  -0.00
    25   1     0.02   0.05  -0.03     0.00  -0.00   0.01     0.00  -0.01  -0.03
    26   6     0.00   0.00  -0.00     0.00   0.00  -0.00    -0.00   0.00  -0.01
    27   1    -0.01  -0.02   0.01    -0.00   0.00  -0.00     0.04  -0.21  -0.01
    28   1     0.00   0.01  -0.02     0.00   0.00   0.00    -0.18  -0.08  -0.07
    29   6    -0.00  -0.00   0.00     0.00  -0.00  -0.00    -0.05   0.05   0.04
    30   1     0.03  -0.01  -0.03    -0.01   0.01   0.01     0.01  -0.01   0.02
    31   1     0.01   0.00  -0.01    -0.00  -0.00   0.00    -0.02   0.01   0.01
    32   1     0.00   0.00  -0.00    -0.00  -0.00   0.00    -0.06  -0.07   0.08
    33   1    -0.01  -0.00  -0.01     0.00  -0.00   0.00     0.09  -0.02   0.09
    34   1     0.00   0.01  -0.01    -0.01   0.00   0.00     0.63  -0.20  -0.00
    35   1     0.00   0.01  -0.00     0.00   0.01   0.01     0.02  -0.42  -0.50
    36   6    -0.02   0.00  -0.06     0.00   0.00   0.00     0.00   0.00  -0.00
    37   1     0.10  -0.11   0.20    -0.02  -0.01   0.01    -0.03  -0.00  -0.00
    38   1    -0.01   0.02   0.24    -0.00  -0.01  -0.02    -0.01  -0.04   0.01
    39   1     0.14   0.07   0.19    -0.01   0.01   0.01     0.02  -0.01   0.01
                     79                     80                     81
                      A                      A                      A
 Frequencies --   1471.0837              1477.0426              1483.5172
 Red. masses --      1.0491                 1.0847                 1.0522
 Frc consts  --      1.3376                 1.3943                 1.3643
 IR Inten    --      0.0000                 0.0000                 0.0000
  Atom  AN      X      Y      Z        X      Y      Z        X      Y      Z
     1   8    -0.00   0.00   0.00     0.00  -0.00  -0.00    -0.00   0.00  -0.00
     2   6     0.00   0.00  -0.02    -0.00   0.00   0.00    -0.00  -0.01   0.00
     3   6     0.02  -0.02  -0.04    -0.00   0.00   0.00     0.00  -0.00   0.00
     4   6    -0.03   0.01   0.02     0.00   0.00  -0.00    -0.00  -0.00  -0.00
     5   6    -0.00   0.00   0.00     0.00  -0.00  -0.00    -0.00   0.00   0.00
     6   6     0.00  -0.00  -0.00    -0.00   0.00   0.00    -0.00   0.00   0.00
     7   6    -0.00   0.00  -0.00    -0.00   0.00   0.00     0.00  -0.00   0.00
     8   6    -0.00   0.00   0.00     0.00   0.00   0.00     0.00   0.00  -0.00
     9   6     0.00  -0.00  -0.00     0.00   0.00   0.00    -0.00  -0.00   0.00
    10   6    -0.00   0.00   0.00    -0.00  -0.00  -0.00    -0.00   0.00  -0.00
    11   1    -0.13   0.48   0.17     0.03  -0.04  -0.02    -0.03  -0.01   0.00
    12   1    -0.09  -0.05   0.55    -0.01   0.00  -0.05     0.03   0.01  -0.02
    13   1    -0.11  -0.21  -0.17     0.01   0.00   0.03    -0.01   0.03  -0.02
    14   1     0.25  -0.27  -0.11    -0.00   0.01  -0.00    -0.02  -0.02   0.04
    15   1     0.31   0.09   0.10    -0.01  -0.00   0.01     0.06   0.02  -0.04
    16   1    -0.14   0.05  -0.17    -0.00  -0.01  -0.00     0.02   0.08   0.02
    17   1    -0.00  -0.01  -0.01    -0.00   0.00   0.00     0.00  -0.01  -0.00
    18   1    -0.00  -0.00   0.00    -0.00   0.00   0.00    -0.00  -0.00   0.00
    19   1    -0.00   0.00   0.01    -0.00  -0.00   0.00    -0.00   0.00   0.00
    20   1    -0.00   0.01   0.01    -0.00  -0.00  -0.00    -0.00   0.00   0.00
    21   1    -0.01  -0.00  -0.00     0.01   0.00   0.00     0.00   0.00  -0.00
    22   6     0.00  -0.00  -0.00     0.01  -0.01  -0.02    -0.01  -0.03   0.00
    23   6    -0.00   0.00  -0.00    -0.03  -0.05  -0.02     0.00   0.00  -0.00
    24   6     0.00   0.00   0.00    -0.00   0.00   0.01     0.00   0.01  -0.00
    25   1     0.01   0.01   0.01     0.01   0.02   0.04     0.01   0.06  -0.01
    26   6    -0.00   0.00  -0.00    -0.01   0.03  -0.04    -0.00  -0.00  -0.00
    27   1    -0.00   0.00   0.01    -0.12   0.48   0.08    -0.01   0.04   0.02
    28   1     0.01   0.01  -0.00     0.44   0.19   0.16     0.04   0.02  -0.00
    29   6    -0.00   0.00   0.00    -0.01   0.00  -0.00    -0.00   0.00   0.00
    30   1     0.01  -0.01  -0.00     0.01   0.00  -0.01    -0.00   0.00   0.02
    31   1    -0.01  -0.00  -0.00     0.01  -0.01  -0.02    -0.01   0.01  -0.00
    32   1    -0.01  -0.01   0.02    -0.20  -0.22   0.32    -0.00  -0.01  -0.00
    33   1     0.01  -0.00   0.01     0.32  -0.12   0.26     0.00   0.01   0.01
    34   1     0.03  -0.01  -0.00     0.08  -0.02  -0.01     0.05  -0.00  -0.01
    35   1     0.00  -0.02  -0.03    -0.00  -0.06  -0.06     0.00  -0.03  -0.04
    36   6     0.00  -0.00  -0.00     0.01  -0.00  -0.01    -0.02  -0.05   0.01
    37   1    -0.04  -0.03   0.04    -0.13  -0.08   0.12     0.52  -0.02   0.10
    38   1     0.01   0.01  -0.05     0.00  -0.01  -0.11     0.16   0.67   0.04
    39   1    -0.04   0.05   0.03    -0.07   0.14   0.11    -0.39   0.08  -0.21
                     82                     83                     84
                      A                      A                      A
 Frequencies --   1484.3567              1488.1367              1489.6755
 Red. masses --      1.0504                 1.8202                 1.0570
 Frc consts  --      1.3636                 2.3749                 1.3819
 IR Inten    --      0.0000                 0.0000                 0.0000
  Atom  AN      X      Y      Z        X      Y      Z        X      Y      Z
     1   8     0.00  -0.00  -0.00    -0.00   0.01  -0.00     0.00   0.00   0.00
     2   6    -0.01   0.01   0.00     0.00  -0.03   0.03    -0.02  -0.03   0.00
     3   6    -0.01   0.01   0.01     0.01  -0.01  -0.01    -0.00   0.00   0.02
     4   6    -0.00   0.00   0.00     0.01  -0.01  -0.03    -0.04  -0.03  -0.01
     5   6    -0.00  -0.00   0.00     0.04   0.01  -0.11    -0.00   0.01   0.01
     6   6     0.00   0.00  -0.00    -0.01  -0.07   0.05     0.00   0.00  -0.01
     7   6     0.00  -0.01   0.00    -0.02   0.12   0.00     0.00  -0.01   0.00
     8   6    -0.00   0.00   0.00     0.04  -0.00  -0.10    -0.00   0.01  -0.00
     9   6     0.00   0.00  -0.00     0.01  -0.11   0.02     0.00   0.00  -0.00
    10   6     0.00  -0.01   0.00    -0.03   0.08   0.03     0.00  -0.01   0.00
    11   1     0.09  -0.12  -0.05    -0.20   0.13   0.07    -0.05  -0.16  -0.04
    12   1    -0.03   0.00  -0.12     0.11   0.01   0.12     0.11   0.03  -0.20
    13   1     0.05  -0.00   0.09    -0.07   0.10  -0.16     0.02   0.16  -0.01
    14   1     0.07  -0.05  -0.05    -0.22   0.13   0.18    -0.01  -0.30   0.26
    15   1     0.04   0.01   0.06    -0.08  -0.02  -0.13     0.57   0.17  -0.16
    16   1    -0.05  -0.04  -0.06     0.15   0.14   0.18     0.04   0.57   0.05
    17   1    -0.00   0.01   0.00    -0.05   0.05   0.13     0.02  -0.03  -0.03
    18   1     0.00   0.02  -0.01    -0.04  -0.28   0.22     0.00   0.03  -0.02
    19   1     0.01   0.00  -0.02    -0.17  -0.04   0.47     0.01   0.01  -0.02
    20   1     0.00   0.00  -0.00    -0.11   0.19   0.20    -0.00   0.01   0.00
    21   1    -0.00   0.01  -0.01    -0.05  -0.11   0.15     0.01   0.03  -0.02
    22   6     0.02  -0.01  -0.02     0.00   0.00  -0.01     0.00   0.00   0.00
    23   6     0.00   0.01   0.01    -0.00  -0.01  -0.00    -0.00  -0.00  -0.00
    24   6    -0.00   0.01   0.00    -0.00   0.00   0.00     0.00  -0.00   0.00
    25   1     0.03   0.01   0.08     0.00  -0.00   0.02     0.00   0.01  -0.00
    26   6     0.00  -0.01   0.02     0.00  -0.01   0.02     0.00   0.00  -0.00
    27   1     0.02  -0.09  -0.01    -0.02   0.08   0.01    -0.00  -0.01   0.00
    28   1    -0.06  -0.03  -0.05     0.07   0.03   0.03    -0.00  -0.00   0.00
    29   6    -0.00   0.00   0.00    -0.00   0.01   0.00    -0.00  -0.00  -0.00
    30   1     0.00  -0.01   0.00     0.01  -0.00  -0.01     0.02  -0.01  -0.02
    31   1    -0.00  -0.01  -0.01     0.00  -0.00  -0.01    -0.01  -0.01  -0.00
    32   1     0.10   0.10  -0.16     0.06   0.07  -0.09    -0.00  -0.00   0.01
    33   1    -0.16   0.05  -0.12    -0.10   0.03  -0.08     0.01  -0.00   0.01
    34   1     0.02   0.00  -0.00     0.05  -0.02   0.00    -0.01   0.00   0.00
    35   1     0.00  -0.01  -0.01     0.00  -0.04  -0.04    -0.00   0.00   0.01
    36   6     0.04  -0.02  -0.01     0.01  -0.00  -0.00     0.00   0.01  -0.00
    37   1    -0.35  -0.24   0.33    -0.09  -0.04   0.06    -0.06   0.01  -0.02
    38   1     0.05   0.09  -0.38    -0.00  -0.02  -0.07    -0.02  -0.09   0.01
    39   1    -0.33   0.44   0.26    -0.03   0.08   0.07     0.06  -0.02   0.02
                     85                     86                     87
                      A                      A                      A
 Frequencies --   1493.5786              1494.3891              1539.0325
 Red. masses --      1.1840                 1.1395                 2.3270
 Frc consts  --      1.5562                 1.4993                 3.2475
 IR Inten    --      0.0000                 0.0000                 0.0000
  Atom  AN      X      Y      Z        X      Y      Z        X      Y      Z
     1   8    -0.00   0.00   0.00     0.00  -0.00  -0.00     0.00   0.00  -0.00
     2   6     0.01  -0.01  -0.02    -0.02   0.03   0.02     0.01  -0.04   0.01
     3   6     0.01  -0.01  -0.00    -0.01   0.01   0.01    -0.00  -0.01  -0.00
     4   6     0.01  -0.01  -0.00    -0.02   0.02   0.01     0.00   0.00  -0.00
     5   6    -0.01  -0.00   0.04     0.01  -0.00  -0.04    -0.03   0.15  -0.01
     6   6    -0.00   0.03  -0.01     0.00  -0.03   0.01     0.05  -0.07  -0.09
     7   6     0.01  -0.04  -0.01    -0.01   0.03   0.01    -0.02  -0.11   0.10
     8   6    -0.01  -0.00   0.03     0.01   0.01  -0.03    -0.02   0.11   0.01
     9   6    -0.01   0.04  -0.00     0.01  -0.03  -0.00     0.06  -0.11  -0.11
    10   6     0.01  -0.02  -0.02    -0.01   0.01   0.02    -0.02  -0.08   0.10
    11   1    -0.08   0.12   0.05     0.17  -0.22  -0.10    -0.05   0.05   0.02
    12   1     0.03  -0.00   0.12    -0.06   0.00  -0.22     0.06   0.01   0.05
    13   1    -0.05  -0.00  -0.09     0.10  -0.01   0.18    -0.02   0.04  -0.05
    14   1    -0.15   0.12   0.10     0.33  -0.25  -0.23    -0.04   0.05   0.01
    15   1    -0.09  -0.02  -0.14     0.18   0.04   0.27    -0.08  -0.02  -0.02
    16   1     0.09   0.09   0.12    -0.20  -0.18  -0.26     0.03  -0.06   0.03
    17   1     0.03  -0.04  -0.05    -0.04   0.06   0.06    -0.14   0.42   0.16
    18   1     0.01   0.06  -0.06    -0.01  -0.04   0.05    -0.01   0.42  -0.17
    19   1     0.05   0.01  -0.15    -0.05  -0.00   0.13    -0.02   0.13  -0.01
    20   1     0.04  -0.07  -0.07    -0.04   0.08   0.06    -0.14   0.42   0.17
    21   1     0.01   0.02  -0.04    -0.01  -0.00   0.03    -0.01   0.40  -0.14
    22   6    -0.00   0.00  -0.01    -0.01   0.00  -0.00    -0.00   0.00   0.00
    23   6    -0.02  -0.05  -0.02    -0.01  -0.03  -0.01    -0.00  -0.00  -0.00
    24   6     0.00   0.00   0.00     0.00   0.00  -0.00     0.00   0.00   0.00
    25   1    -0.00  -0.01   0.04    -0.01  -0.01  -0.01    -0.00  -0.01  -0.01
    26   6     0.00  -0.03   0.06     0.00  -0.02   0.03    -0.00   0.00  -0.00
    27   1    -0.09   0.38   0.06    -0.05   0.21   0.03    -0.00   0.00   0.00
    28   1     0.32   0.12   0.15     0.17   0.07   0.09     0.00   0.00   0.00
    29   6    -0.01   0.02   0.01    -0.01   0.01   0.01     0.00   0.00  -0.00
    30   1     0.01  -0.01   0.01    -0.02  -0.01   0.04    -0.01   0.00  -0.00
    31   1    -0.01  -0.01  -0.01    -0.02  -0.01   0.00     0.00   0.00  -0.00
    32   1     0.21   0.23  -0.33     0.10   0.11  -0.16    -0.00  -0.00   0.00
    33   1    -0.34   0.09  -0.26    -0.16   0.05  -0.12     0.00  -0.00   0.00
    34   1     0.18  -0.06   0.01     0.11  -0.04   0.01     0.00  -0.00  -0.00
    35   1     0.00  -0.13  -0.14     0.00  -0.08  -0.09    -0.00  -0.00   0.00
    36   6    -0.00   0.00   0.00    -0.01   0.00   0.01     0.00  -0.00  -0.00
    37   1    -0.00   0.01  -0.01     0.12   0.07  -0.10    -0.00  -0.00   0.00
    38   1    -0.02  -0.05   0.03    -0.01  -0.01   0.12     0.00   0.00   0.00
    39   1     0.06  -0.03   0.01     0.10  -0.14  -0.08    -0.00   0.00   0.00
                     88                     89                     90
                      A                      A                      A
 Frequencies --   1657.1830              1677.6800              3025.0037
 Red. masses --      6.1734                 6.0638                 1.0698
 Frc consts  --      9.9889                10.0557                 5.7675
 IR Inten    --      0.0000                 0.0000                 0.0000
  Atom  AN      X      Y      Z        X      Y      Z        X      Y      Z
     1   8    -0.00   0.01  -0.00    -0.00  -0.00   0.00    -0.00  -0.00  -0.00
     2   6    -0.01  -0.00   0.04    -0.01   0.04  -0.00     0.00  -0.00   0.00
     3   6     0.00   0.00  -0.00     0.00   0.00   0.00    -0.00  -0.00  -0.00
     4   6     0.00  -0.01  -0.01     0.00  -0.00  -0.00    -0.00  -0.00  -0.00
     5   6     0.12   0.01  -0.31     0.04  -0.22   0.01    -0.00  -0.00   0.00
     6   6    -0.09   0.10   0.19    -0.08   0.29   0.08    -0.00   0.00   0.00
     7   6     0.06   0.09  -0.21     0.02  -0.29   0.08    -0.00   0.00   0.00
     8   6    -0.13  -0.02   0.36    -0.02   0.15  -0.01    -0.00   0.00   0.00
     9   6     0.09  -0.07  -0.20     0.08  -0.29  -0.07     0.00  -0.00   0.00
    10   6    -0.05  -0.10   0.18    -0.02   0.31  -0.09     0.00   0.00  -0.00
    11   1    -0.02  -0.01  -0.00     0.01  -0.02  -0.01     0.00  -0.00   0.00
    12   1     0.00   0.00  -0.00    -0.04  -0.00  -0.02    -0.00   0.00   0.00
    13   1     0.01   0.01   0.00     0.01  -0.01   0.01     0.00  -0.00  -0.00
    14   1    -0.00  -0.01  -0.00     0.01  -0.01   0.00     0.00   0.00   0.00
    15   1     0.03  -0.00   0.03     0.01   0.00   0.03     0.00  -0.00  -0.00
    16   1    -0.00   0.04  -0.01    -0.00   0.00  -0.01     0.00  -0.00  -0.00
    17   1     0.07  -0.33  -0.03     0.14  -0.26  -0.23     0.00   0.00  -0.00
    18   1     0.06  -0.25  -0.05     0.04   0.25  -0.21     0.00  -0.00  -0.00
    19   1     0.16   0.02  -0.43    -0.04   0.16   0.02     0.00  -0.00   0.00
    20   1    -0.02   0.24  -0.05    -0.12   0.22   0.23     0.00   0.00  -0.00
    21   1    -0.05   0.26  -0.00    -0.05  -0.29   0.25     0.00   0.00  -0.00
    22   6    -0.00  -0.00   0.00     0.00  -0.00  -0.00    -0.00   0.00   0.00
    23   6    -0.00  -0.00  -0.00    -0.00   0.00   0.00     0.01   0.00   0.00
    24   6     0.00   0.00   0.00    -0.00  -0.00  -0.00     0.00  -0.01   0.00
    25   1    -0.00   0.00  -0.01    -0.00   0.00   0.01     0.02  -0.01  -0.00
    26   6     0.00  -0.00   0.00     0.00  -0.00  -0.00     0.01  -0.00   0.00
    27   1    -0.00  -0.00   0.00     0.00   0.00  -0.00    -0.13  -0.01  -0.04
    28   1     0.00   0.00   0.00     0.00   0.00  -0.00     0.02  -0.04  -0.00
    29   6    -0.00   0.00  -0.00    -0.00  -0.00   0.00    -0.07   0.02  -0.00
    30   1    -0.01  -0.00   0.00     0.01   0.00   0.01     0.01   0.00   0.00
    31   1    -0.00  -0.00   0.00    -0.00  -0.00  -0.00    -0.03   0.08  -0.05
    32   1     0.00   0.00   0.00    -0.00   0.00   0.00    -0.07   0.01  -0.04
    33   1    -0.00   0.00  -0.00     0.00   0.00   0.00    -0.03  -0.02   0.03
    34   1     0.00  -0.00  -0.00     0.00  -0.00   0.00    -0.08  -0.14  -0.19
    35   1    -0.00  -0.00   0.00     0.00   0.00  -0.00     0.92  -0.12   0.20
    36   6     0.00  -0.00   0.00    -0.00   0.00   0.00     0.00   0.00   0.00
    37   1     0.00   0.00  -0.00     0.00   0.00   0.00     0.00  -0.00  -0.00
    38   1     0.00   0.00   0.00    -0.00   0.00  -0.00    -0.01   0.00  -0.00
    39   1    -0.00  -0.00  -0.00    -0.00  -0.00  -0.00    -0.00  -0.00   0.00
                     91                     92                     93
                      A                      A                      A
 Frequencies --   3029.6742              3034.3041              3055.4932
 Red. masses --      1.0668                 1.0390                 1.0335
 Frc consts  --      5.7695                 5.6361                 5.6847
 IR Inten    --      0.0000                 0.0000                 0.0000
  Atom  AN      X      Y      Z        X      Y      Z        X      Y      Z
     1   8    -0.00  -0.00  -0.00     0.00  -0.00   0.00     0.00  -0.00  -0.00
     2   6    -0.00   0.00   0.00     0.00   0.00  -0.00     0.00   0.00   0.00
     3   6    -0.00  -0.00  -0.00    -0.00  -0.00   0.00    -0.04  -0.02  -0.01
     4   6    -0.00   0.00   0.00    -0.00   0.00   0.00    -0.00   0.00  -0.01
     5   6     0.00   0.00   0.00     0.00   0.00   0.00    -0.00   0.00  -0.00
     6   6     0.00  -0.00  -0.00     0.00  -0.00  -0.00    -0.00  -0.00   0.00
     7   6    -0.00   0.00   0.00    -0.00   0.00   0.00     0.00  -0.00  -0.00
     8   6    -0.00   0.00  -0.00    -0.00   0.00  -0.00     0.00  -0.00  -0.00
     9   6    -0.00   0.00   0.00    -0.00   0.00  -0.00    -0.00   0.00   0.00
    10   6     0.00  -0.00   0.00     0.00  -0.00   0.00     0.00  -0.00   0.00
    11   1     0.00  -0.00   0.00     0.00  -0.00   0.00     0.05  -0.17   0.45
    12   1    -0.00   0.00   0.00    -0.00   0.00   0.00    -0.11   0.53   0.01
    13   1     0.00  -0.00  -0.00     0.00  -0.00  -0.00     0.51  -0.11  -0.33
    14   1    -0.00  -0.00  -0.00    -0.00  -0.00  -0.00     0.13   0.09   0.08
    15   1    -0.00   0.00   0.00    -0.00   0.00   0.00     0.04  -0.15  -0.02
    16   1     0.00  -0.00  -0.00     0.00  -0.00  -0.00    -0.15   0.01   0.10
    17   1    -0.00   0.00  -0.00     0.00   0.00  -0.00     0.00   0.00  -0.01
    18   1     0.00  -0.00  -0.00     0.00  -0.00  -0.00    -0.00   0.00   0.00
    19   1     0.00  -0.00   0.00     0.00  -0.00   0.00    -0.00   0.00  -0.00
    20   1     0.00   0.00  -0.00     0.00  -0.00   0.00     0.00   0.00  -0.00
    21   1     0.00   0.00   0.00     0.00  -0.00   0.00     0.00  -0.00  -0.00
    22   6     0.01  -0.00  -0.00     0.01  -0.00   0.00    -0.00   0.00   0.00
    23   6    -0.06  -0.03  -0.03    -0.02  -0.01  -0.01     0.00  -0.00   0.00
    24   6     0.00  -0.00   0.00     0.00  -0.00   0.00     0.00   0.00   0.00
    25   1    -0.14   0.03   0.01    -0.10   0.02   0.00     0.01  -0.00  -0.00
    26   6     0.01   0.00   0.00     0.00   0.00   0.00     0.00  -0.00   0.00
    27   1     0.83   0.10   0.29     0.25   0.03   0.09    -0.00  -0.00  -0.00
    28   1    -0.13   0.21   0.01    -0.03   0.05   0.00    -0.00   0.00   0.00
    29   6    -0.01   0.00  -0.00    -0.00   0.00  -0.00     0.00  -0.00   0.00
    30   1     0.00   0.00   0.00    -0.00  -0.00  -0.00    -0.00  -0.00  -0.00
    31   1    -0.01   0.02  -0.01    -0.01   0.02  -0.02    -0.00  -0.00   0.00
    32   1    -0.10   0.01  -0.05    -0.03   0.00  -0.01    -0.00   0.00  -0.00
    33   1    -0.04  -0.03   0.04    -0.02  -0.01   0.01     0.00   0.00  -0.00
    34   1    -0.01  -0.01  -0.02    -0.00  -0.00  -0.00     0.00  -0.00   0.00
    35   1     0.12  -0.02   0.03     0.04  -0.01   0.01    -0.00   0.00  -0.00
    36   6     0.01  -0.00   0.01    -0.02   0.01  -0.04     0.00  -0.00   0.00
    37   1     0.02  -0.15  -0.08    -0.06   0.43   0.22     0.00  -0.00  -0.00
    38   1    -0.19   0.05   0.01     0.61  -0.15  -0.01    -0.01   0.00   0.00
    39   1     0.08   0.11  -0.08    -0.26  -0.36   0.26     0.00   0.00  -0.00
                     94                     95                     96
                      A                      A                      A
 Frequencies --   3055.7683              3060.7899              3061.4046
 Red. masses --      1.0808                 1.0627                 1.0351
 Frc consts  --      5.9463                 5.8658                 5.7156
 IR Inten    --      0.0000                 0.0000                 0.0000
  Atom  AN      X      Y      Z        X      Y      Z        X      Y      Z
     1   8     0.00   0.00   0.00    -0.00  -0.00  -0.00     0.00  -0.00   0.00
     2   6     0.00  -0.00  -0.00    -0.00   0.00   0.00    -0.00   0.00  -0.00
     3   6     0.00   0.00   0.00    -0.00  -0.00  -0.00    -0.01  -0.01  -0.00
     4   6    -0.00  -0.00  -0.00     0.00  -0.00   0.00     0.01  -0.01   0.04
     5   6    -0.00  -0.00  -0.00     0.00   0.00  -0.00    -0.00   0.00   0.00
     6   6    -0.00   0.00   0.00     0.00  -0.00  -0.00     0.00   0.00  -0.00
     7   6    -0.00  -0.00   0.00    -0.00   0.00   0.00     0.00  -0.00  -0.00
     8   6     0.00   0.00   0.00     0.00   0.00  -0.00     0.00   0.00  -0.00
     9   6     0.00  -0.00  -0.00    -0.00   0.00  -0.00    -0.00   0.00   0.00
    10   6    -0.00   0.00  -0.00    -0.00   0.00   0.00     0.00  -0.00   0.00
    11   1    -0.00   0.00  -0.01     0.00  -0.00   0.01     0.02  -0.05   0.14
    12   1     0.00  -0.01  -0.00    -0.00   0.01   0.00    -0.03   0.17   0.00
    13   1    -0.01   0.00   0.01     0.01  -0.00  -0.00     0.16  -0.03  -0.10
    14   1     0.01   0.01   0.00    -0.01  -0.01  -0.01    -0.43  -0.30  -0.27
    15   1    -0.00  -0.00  -0.00    -0.00   0.02   0.00    -0.14   0.49   0.06
    16   1    -0.00  -0.00  -0.00     0.01  -0.00  -0.01     0.45  -0.02  -0.29
    17   1     0.00   0.00   0.00    -0.00  -0.00   0.00    -0.00  -0.01   0.02
    18   1     0.00  -0.00  -0.00     0.00  -0.00  -0.00     0.00  -0.00  -0.00
    19   1     0.00   0.00   0.00     0.00  -0.00  -0.00     0.00  -0.00  -0.00
    20   1    -0.00  -0.00   0.00     0.00  -0.00   0.00     0.00   0.00  -0.00
    21   1     0.00  -0.00  -0.00     0.00  -0.00  -0.01     0.00  -0.00  -0.00
    22   6    -0.08   0.02   0.00     0.00  -0.00  -0.00    -0.00   0.00  -0.00
    23   6    -0.00  -0.02  -0.00     0.00  -0.01  -0.00     0.00   0.00   0.00
    24   6     0.00  -0.00   0.00    -0.00  -0.00   0.00     0.00   0.00  -0.00
    25   1     0.92  -0.21  -0.03    -0.04   0.01   0.00     0.01  -0.00  -0.00
    26   6     0.00   0.00  -0.00    -0.04   0.02  -0.05     0.00  -0.00   0.00
    27   1     0.11   0.01   0.04     0.02  -0.00   0.01    -0.00  -0.00  -0.00
    28   1    -0.09   0.17   0.01    -0.07   0.14   0.00     0.00  -0.00   0.00
    29   6     0.00   0.00   0.00     0.00   0.01   0.01    -0.00  -0.00  -0.00
    30   1    -0.00  -0.00  -0.00     0.00   0.00   0.00    -0.00  -0.00  -0.00
    31   1    -0.01   0.02  -0.01     0.00   0.00  -0.00     0.00  -0.01   0.01
    32   1    -0.00   0.00  -0.00     0.77  -0.08   0.35    -0.02   0.00  -0.01
    33   1    -0.01  -0.01   0.01    -0.33  -0.20   0.26     0.01   0.01  -0.01
    34   1    -0.00  -0.01  -0.01    -0.04  -0.09  -0.13     0.00   0.00   0.00
    35   1    -0.01   0.00  -0.00     0.02  -0.00   0.01     0.00  -0.00   0.00
    36   6     0.02  -0.00  -0.01    -0.00   0.00   0.00     0.00  -0.00   0.00
    37   1    -0.01   0.12   0.06     0.00  -0.01  -0.00    -0.00   0.00   0.00
    38   1    -0.12   0.03   0.00     0.01  -0.00   0.00    -0.00   0.00   0.00
    39   1    -0.07  -0.11   0.07     0.00   0.00  -0.00     0.00   0.00  -0.00
                     97                     98                     99
                      A                      A                      A
 Frequencies --   3094.0079              3098.1963              3098.8844
 Red. masses --      1.0862                 1.0959                 1.0955
 Frc consts  --      6.1266                 6.1979                 6.1981
 IR Inten    --      0.0000                 0.0000                 0.0000
  Atom  AN      X      Y      Z        X      Y      Z        X      Y      Z
     1   8    -0.00   0.00  -0.00     0.00   0.00   0.00    -0.00   0.00   0.00
     2   6     0.00  -0.00   0.00     0.00  -0.00  -0.00     0.00  -0.00  -0.00
     3   6    -0.00  -0.00  -0.00    -0.00   0.00  -0.00    -0.00  -0.00   0.00
     4   6    -0.00  -0.00   0.00    -0.00  -0.00  -0.00     0.00   0.00   0.00
     5   6    -0.00   0.00  -0.00    -0.00   0.00  -0.00     0.00   0.00   0.00
     6   6     0.00   0.00  -0.00    -0.00   0.00  -0.00     0.00  -0.00   0.00
     7   6     0.00  -0.00  -0.00     0.00  -0.00  -0.00     0.00   0.00   0.00
     8   6    -0.00   0.00   0.00     0.00   0.00   0.00    -0.00  -0.00  -0.00
     9   6     0.00   0.00  -0.00     0.00   0.00  -0.00    -0.00  -0.00   0.00
    10   6     0.00  -0.00  -0.00     0.00  -0.00  -0.00     0.00  -0.00  -0.00
    11   1     0.00  -0.00   0.00     0.00  -0.00   0.00     0.00   0.00  -0.00
    12   1    -0.00   0.00   0.00     0.00  -0.00  -0.00    -0.00   0.00   0.00
    13   1     0.00  -0.00  -0.00     0.00  -0.00  -0.00     0.00  -0.00  -0.00
    14   1     0.00   0.00   0.00     0.00   0.00   0.00    -0.01  -0.00  -0.00
    15   1    -0.00   0.01   0.00     0.00  -0.00  -0.00     0.00  -0.00  -0.00
    16   1     0.02  -0.00  -0.01    -0.00   0.00   0.00     0.00   0.00  -0.00
    17   1    -0.00  -0.00   0.00     0.00  -0.00   0.00    -0.00   0.00  -0.00
    18   1    -0.00   0.00   0.00    -0.00   0.00   0.00    -0.00  -0.00  -0.00
    19   1    -0.00  -0.00  -0.00    -0.00  -0.00  -0.00    -0.00   0.00  -0.00
    20   1    -0.00  -0.00   0.00    -0.00  -0.00   0.00     0.00   0.00  -0.00
    21   1    -0.00   0.00   0.00    -0.00   0.00   0.00    -0.00   0.00   0.00
    22   6    -0.00   0.00   0.00    -0.01   0.00   0.00     0.01  -0.00   0.00
    23   6     0.01  -0.01   0.00     0.02  -0.03   0.00    -0.01   0.01   0.00
    24   6     0.02  -0.06   0.04    -0.00   0.00  -0.00     0.00  -0.01   0.01
    25   1     0.01  -0.00   0.00     0.07  -0.02  -0.00    -0.12   0.03   0.00
    26   6    -0.01  -0.00   0.00     0.00   0.00  -0.00     0.00   0.01  -0.01
    27   1    -0.03  -0.01  -0.01    -0.09  -0.02  -0.04     0.01   0.00   0.01
    28   1    -0.05   0.10   0.01    -0.18   0.35   0.02     0.09  -0.17  -0.01
    29   6     0.01   0.00   0.01    -0.03  -0.03  -0.05    -0.02  -0.03  -0.04
    30   1     0.01  -0.01   0.01     0.00   0.00  -0.00     0.00  -0.00   0.00
    31   1    -0.29   0.74  -0.51     0.02  -0.05   0.03    -0.06   0.17  -0.12
    32   1     0.02  -0.00   0.01     0.02  -0.00   0.01     0.07  -0.01   0.03
    33   1     0.08   0.05  -0.07    -0.05  -0.03   0.04    -0.11  -0.07   0.09
    34   1    -0.02  -0.05  -0.06     0.16   0.40   0.54     0.14   0.37   0.49
    35   1    -0.10   0.01  -0.02     0.17  -0.03   0.03     0.12  -0.02   0.02
    36   6    -0.01   0.02   0.01    -0.05   0.00   0.02     0.06   0.00  -0.02
    37   1     0.02  -0.17  -0.09     0.01  -0.14  -0.07    -0.00   0.14   0.07
    38   1     0.13  -0.03  -0.00     0.39  -0.10   0.00    -0.48   0.12  -0.00
    39   1     0.00   0.01  -0.01     0.16   0.24  -0.17    -0.21  -0.31   0.22
                    100                    101                    102
                      A                      A                      A
 Frequencies --   3105.1364              3105.8123              3113.0713
 Red. masses --      1.0950                 1.1013                 1.1039
 Frc consts  --      6.2203                 6.2589                 6.3032
 IR Inten    --      0.0000                 0.0000                 0.0000
  Atom  AN      X      Y      Z        X      Y      Z        X      Y      Z
     1   8    -0.00  -0.00  -0.00    -0.00   0.00  -0.00     0.00  -0.00   0.00
     2   6     0.00  -0.00  -0.00    -0.00  -0.00   0.00     0.00   0.00  -0.00
     3   6    -0.00   0.00   0.00    -0.00   0.00  -0.00     0.00  -0.00  -0.00
     4   6    -0.00   0.00   0.00    -0.00  -0.00   0.00     0.00  -0.00  -0.00
     5   6     0.00   0.00   0.00     0.00  -0.00   0.00    -0.00   0.00  -0.00
     6   6     0.00  -0.00   0.00     0.00   0.00  -0.00    -0.00  -0.00   0.00
     7   6    -0.00   0.00   0.00    -0.00   0.00   0.00    -0.00   0.00   0.00
     8   6    -0.00   0.00  -0.00    -0.00   0.00  -0.00    -0.00   0.00  -0.00
     9   6     0.00   0.00  -0.00     0.00   0.00  -0.00     0.00   0.00  -0.00
    10   6    -0.00   0.00   0.00     0.00  -0.00  -0.00    -0.00   0.00   0.00
    11   1    -0.00   0.00  -0.00     0.00  -0.00   0.00    -0.00   0.00  -0.00
    12   1     0.00  -0.00  -0.00     0.00  -0.00  -0.00    -0.00   0.00   0.00
    13   1     0.00  -0.00  -0.00    -0.00   0.00   0.00    -0.00   0.00   0.00
    14   1    -0.00  -0.00  -0.00     0.01   0.00   0.00     0.00   0.00   0.00
    15   1     0.00  -0.00  -0.00     0.00  -0.00  -0.00    -0.00   0.00   0.00
    16   1     0.00   0.00  -0.00     0.01  -0.00  -0.01    -0.00   0.00   0.00
    17   1    -0.00   0.00  -0.00    -0.00  -0.00   0.00     0.00   0.00  -0.00
    18   1     0.00  -0.00  -0.00     0.00  -0.00  -0.00     0.00  -0.00  -0.00
    19   1    -0.00  -0.00  -0.00     0.00  -0.00  -0.00     0.00  -0.00   0.00
    20   1    -0.00  -0.00   0.00    -0.00  -0.00   0.00    -0.00  -0.00   0.00
    21   1     0.00  -0.00  -0.00    -0.00   0.00   0.00     0.00  -0.00  -0.01
    22   6     0.02  -0.00  -0.00     0.00  -0.00   0.00    -0.01   0.00   0.00
    23   6     0.04  -0.05   0.00    -0.00   0.00  -0.00    -0.03   0.02  -0.00
    24   6    -0.00   0.01  -0.00     0.00  -0.01   0.01    -0.00   0.00  -0.00
    25   1    -0.22   0.05   0.01    -0.04   0.01   0.00     0.07  -0.02  -0.00
    26   6    -0.03  -0.01   0.02     0.00   0.00  -0.00    -0.08  -0.02   0.02
    27   1    -0.18  -0.03  -0.06     0.02   0.00   0.00     0.18   0.03   0.07
    28   1    -0.35   0.67   0.04     0.01  -0.02  -0.00     0.14  -0.26  -0.02
    29   6     0.00   0.01   0.01     0.00  -0.00  -0.00    -0.01  -0.01  -0.01
    30   1    -0.00   0.00  -0.00     0.00  -0.00   0.00     0.00   0.00  -0.00
    31   1     0.02  -0.06   0.04    -0.05   0.14  -0.09     0.02  -0.04   0.03
    32   1     0.05  -0.01   0.02     0.01  -0.00   0.00     0.43  -0.06   0.21
    33   1     0.27   0.17  -0.23    -0.01  -0.01   0.01     0.51   0.34  -0.45
    34   1    -0.02  -0.06  -0.08     0.01   0.01   0.02     0.03   0.09   0.12
    35   1     0.01  -0.00   0.00    -0.01   0.00  -0.00     0.13  -0.02   0.02
    36   6     0.03  -0.00  -0.01    -0.01  -0.09  -0.00    -0.01  -0.00   0.00
    37   1    -0.01   0.13   0.07    -0.09   0.68   0.37     0.00  -0.02  -0.01
    38   1    -0.28   0.07  -0.00    -0.14   0.01  -0.00     0.07  -0.02   0.00
    39   1    -0.10  -0.15   0.11     0.29   0.39  -0.31     0.03   0.04  -0.03
                    103                    104                    105
                      A                      A                      A
 Frequencies --   3131.2697              3134.4502              3140.1350
 Red. masses --      1.1021                 1.1020                 1.1027
 Frc consts  --      6.3669                 6.3792                 6.4065
 IR Inten    --      0.0000                 0.0000                 0.0000
  Atom  AN      X      Y      Z        X      Y      Z        X      Y      Z
     1   8    -0.00   0.00  -0.00     0.00  -0.00  -0.00    -0.00   0.00   0.00
     2   6     0.00   0.00   0.00    -0.00   0.00   0.00     0.00  -0.00  -0.00
     3   6    -0.04   0.04   0.05    -0.03   0.03   0.03     0.01   0.01  -0.03
     4   6     0.05   0.00  -0.01    -0.07  -0.04  -0.00     0.03  -0.07  -0.04
     5   6     0.00  -0.00  -0.00     0.00   0.00   0.00     0.00   0.00  -0.00
     6   6    -0.00  -0.00   0.00     0.00   0.00  -0.00    -0.00  -0.00   0.00
     7   6     0.00  -0.00  -0.00    -0.00   0.00   0.00     0.00  -0.00  -0.00
     8   6     0.00  -0.00  -0.00    -0.00  -0.00   0.00    -0.00  -0.00   0.00
     9   6    -0.00   0.00  -0.00     0.00   0.00  -0.00     0.00  -0.00   0.00
    10   6     0.00  -0.00  -0.00     0.00  -0.00  -0.00    -0.00   0.00   0.00
    11   1    -0.05   0.12  -0.28    -0.02   0.05  -0.11     0.03  -0.09   0.25
    12   1     0.08  -0.44  -0.00     0.06  -0.32  -0.00     0.00  -0.00  -0.00
    13   1     0.51  -0.10  -0.32     0.33  -0.06  -0.20    -0.17   0.04   0.10
    14   1    -0.22  -0.16  -0.15     0.46   0.32   0.30     0.23   0.14   0.14
    15   1    -0.03   0.13   0.01    -0.07   0.16   0.02    -0.22   0.75   0.08
    16   1    -0.38   0.02   0.26     0.44  -0.03  -0.30    -0.34   0.00   0.23
    17   1     0.01   0.02  -0.03    -0.01  -0.02   0.03     0.01   0.02  -0.03
    18   1    -0.00   0.00   0.00     0.00  -0.00  -0.01    -0.00   0.00   0.01
    19   1    -0.00   0.00   0.00    -0.00   0.00  -0.00    -0.00   0.00   0.00
    20   1    -0.00  -0.00   0.00    -0.00  -0.00   0.00     0.00   0.00  -0.00
    21   1    -0.00   0.00   0.00    -0.00   0.00   0.00     0.00  -0.00  -0.00
    22   6    -0.00   0.00  -0.00     0.00  -0.00   0.00     0.00  -0.00  -0.00
    23   6    -0.00   0.00  -0.00    -0.00   0.00  -0.00     0.00  -0.00   0.00
    24   6     0.00  -0.00   0.00    -0.00   0.00  -0.00    -0.00  -0.00   0.00
    25   1     0.00  -0.00  -0.00    -0.00   0.00   0.00    -0.00   0.00   0.00
    26   6    -0.00  -0.00   0.00    -0.00   0.00  -0.00     0.00  -0.00   0.00
    27   1     0.00   0.00   0.00     0.00  -0.00   0.00    -0.00  -0.00  -0.00
    28   1     0.00  -0.00  -0.00     0.00  -0.00  -0.00    -0.00   0.00   0.00
    29   6     0.00   0.00   0.00    -0.00  -0.00  -0.00     0.00  -0.00  -0.00
    30   1    -0.00  -0.00   0.00     0.00   0.00  -0.00     0.00  -0.00   0.00
    31   1    -0.00   0.01  -0.01     0.00  -0.01   0.01    -0.00   0.00  -0.00
    32   1     0.00  -0.00   0.00     0.00  -0.00   0.00    -0.00   0.00  -0.00
    33   1     0.00   0.00  -0.00    -0.00  -0.00   0.00    -0.00  -0.00   0.00
    34   1    -0.00  -0.00  -0.00     0.00   0.00   0.00     0.00   0.00   0.00
    35   1    -0.00   0.00   0.00    -0.00  -0.00   0.00    -0.00   0.00  -0.00
    36   6    -0.00  -0.00   0.00     0.00   0.00  -0.00     0.00  -0.00  -0.00
    37   1    -0.00   0.00   0.00     0.00  -0.01  -0.00    -0.00   0.00   0.00
    38   1     0.00  -0.00   0.00    -0.00   0.00  -0.00    -0.00   0.00  -0.00
    39   1     0.00   0.00  -0.00    -0.00  -0.01   0.00    -0.00  -0.00   0.00
                    106                    107                    108
                      A                      A                      A
 Frequencies --   3144.9866              3184.9655              3192.9940
 Red. masses --      1.1036                 1.0851                 1.0879
 Frc consts  --      6.4311                 6.4854                 6.5347
 IR Inten    --      0.0000                 0.0000                 0.0000
  Atom  AN      X      Y      Z        X      Y      Z        X      Y      Z
     1   8     0.00  -0.00   0.00     0.00   0.00  -0.00     0.00   0.00  -0.00
     2   6    -0.00   0.00  -0.00    -0.00  -0.00   0.00    -0.00   0.00   0.00
     3   6    -0.01   0.07  -0.06    -0.00  -0.00   0.00    -0.00  -0.00   0.00
     4   6    -0.00   0.02   0.01     0.00  -0.00  -0.00    -0.00   0.00   0.00
     5   6    -0.00  -0.00   0.00    -0.00   0.00  -0.00     0.00  -0.00  -0.00
     6   6     0.00  -0.00  -0.00     0.00   0.01  -0.01    -0.01  -0.01   0.03
     7   6    -0.00   0.00   0.00    -0.01   0.01   0.03     0.02  -0.03  -0.05
     8   6    -0.00   0.00   0.00     0.01  -0.04   0.00    -0.00   0.02   0.00
     9   6     0.00   0.00  -0.00     0.01   0.03  -0.05     0.01   0.02  -0.03
    10   6     0.00   0.00   0.00    -0.01   0.01   0.02    -0.01   0.01   0.02
    11   1     0.09  -0.25   0.70    -0.00   0.00  -0.00    -0.00   0.00  -0.00
    12   1     0.11  -0.60  -0.03    -0.00   0.00   0.00    -0.00   0.00   0.00
    13   1    -0.04   0.02   0.01    -0.00  -0.00  -0.00     0.00  -0.00  -0.00
    14   1    -0.09  -0.06  -0.06    -0.00  -0.00  -0.00     0.00   0.00   0.00
    15   1     0.06  -0.19  -0.02    -0.00   0.00   0.00     0.00  -0.01  -0.00
    16   1     0.04   0.00  -0.03    -0.01   0.00   0.01     0.03  -0.00  -0.02
    17   1     0.00   0.00  -0.00    -0.03  -0.08   0.12     0.08   0.20  -0.31
    18   1     0.00  -0.00  -0.00     0.15  -0.17  -0.31    -0.28   0.32   0.59
    19   1     0.00  -0.00   0.00    -0.08   0.47  -0.00     0.03  -0.18  -0.00
    20   1    -0.00  -0.00   0.00    -0.16  -0.39   0.59    -0.10  -0.25   0.38
    21   1    -0.00  -0.00  -0.00     0.12  -0.13  -0.23     0.11  -0.12  -0.22
    22   6    -0.00   0.00   0.00     0.00  -0.00  -0.00     0.00  -0.00  -0.00
    23   6    -0.00   0.00  -0.00     0.00   0.00   0.00     0.00   0.00   0.00
    24   6     0.00   0.00  -0.00     0.00  -0.00   0.00     0.00  -0.00   0.00
    25   1     0.00  -0.00  -0.00    -0.00   0.00   0.00    -0.00   0.00   0.00
    26   6    -0.00  -0.00  -0.00     0.00   0.00   0.00     0.00   0.00   0.00
    27   1     0.00   0.00   0.00    -0.00  -0.00  -0.00    -0.00  -0.00  -0.00
    28   1     0.00  -0.00  -0.00     0.00  -0.00  -0.00     0.00  -0.00  -0.00
    29   6    -0.00   0.00   0.00     0.00  -0.00  -0.00     0.00  -0.00  -0.00
    30   1    -0.00  -0.00   0.00    -0.00  -0.00  -0.00    -0.00  -0.00  -0.00
    31   1     0.00  -0.00   0.00    -0.00   0.00  -0.00    -0.00   0.00  -0.00
    32   1     0.00  -0.00   0.00    -0.00   0.00  -0.00    -0.00   0.00  -0.00
    33   1     0.00   0.00  -0.00    -0.00  -0.00   0.00    -0.00  -0.00   0.00
    34   1    -0.00  -0.00  -0.00     0.00   0.00   0.00     0.00   0.00   0.00
    35   1     0.00  -0.00   0.00    -0.00  -0.00   0.00    -0.00   0.00  -0.00
    36   6    -0.00   0.00  -0.00     0.00   0.00   0.00    -0.00  -0.00   0.00
    37   1     0.00  -0.00  -0.00     0.00  -0.00  -0.00    -0.00   0.00   0.00
    38   1     0.00  -0.00   0.00    -0.00   0.00  -0.00    -0.00   0.00  -0.00
    39   1    -0.00  -0.00   0.00    -0.00  -0.00   0.00     0.00   0.00  -0.00
                    109                    110                    111
                      A                      A                      A
 Frequencies --   3206.1014              3210.6850              3217.4461
 Red. masses --      1.0909                 1.0932                 1.0972
 Frc consts  --      6.6070                 6.6398                 6.6922
 IR Inten    --      0.0000                 0.0000                 0.0000
  Atom  AN      X      Y      Z        X      Y      Z        X      Y      Z
     1   8    -0.00  -0.00   0.00    -0.00  -0.00   0.00     0.00  -0.00  -0.00
     2   6     0.00  -0.00  -0.00     0.00   0.00  -0.00    -0.00   0.00  -0.00
     3   6     0.00  -0.00  -0.00     0.00   0.00  -0.00    -0.00   0.00  -0.00
     4   6    -0.00   0.00   0.00     0.00  -0.00  -0.00     0.00  -0.00  -0.00
     5   6     0.00  -0.00   0.00    -0.00   0.00   0.00    -0.00   0.00   0.00
     6   6    -0.01  -0.02   0.03     0.01   0.03  -0.04     0.01   0.03  -0.04
     7   6     0.01  -0.00  -0.01     0.01  -0.01  -0.01     0.02  -0.02  -0.04
     8   6     0.01  -0.05   0.00    -0.01   0.03   0.00     0.01  -0.05   0.00
     9   6     0.00   0.01  -0.00     0.01   0.02  -0.03    -0.01  -0.01   0.02
    10   6     0.02  -0.03  -0.05     0.02  -0.02  -0.04    -0.01   0.01   0.01
    11   1     0.00   0.00   0.00     0.00  -0.00   0.00     0.00  -0.00   0.00
    12   1    -0.00   0.00   0.00     0.00  -0.00  -0.00     0.00  -0.00  -0.00
    13   1    -0.00   0.00   0.00    -0.00   0.00   0.00    -0.00   0.00  -0.00
    14   1     0.00   0.00   0.00    -0.00  -0.00  -0.00    -0.00  -0.00  -0.00
    15   1     0.00  -0.00  -0.00    -0.00   0.01   0.00    -0.00   0.00   0.00
    16   1     0.02  -0.00  -0.02    -0.04   0.00   0.02    -0.03   0.00   0.02
    17   1     0.09   0.21  -0.33    -0.13  -0.32   0.50    -0.11  -0.29   0.44
    18   1    -0.06   0.06   0.12    -0.07   0.08   0.14    -0.20   0.23   0.42
    19   1    -0.09   0.55  -0.00     0.06  -0.34  -0.00    -0.09   0.54  -0.00
    20   1    -0.02  -0.05   0.06    -0.09  -0.22   0.33     0.06   0.15  -0.23
    21   1    -0.28   0.31   0.56    -0.22   0.25   0.44     0.08  -0.09  -0.16
    22   6    -0.00   0.00  -0.00    -0.00   0.00  -0.00     0.00  -0.00   0.00
    23   6    -0.00  -0.00  -0.00    -0.00   0.00  -0.00    -0.00  -0.00  -0.00
    24   6    -0.00   0.00  -0.00    -0.00   0.00  -0.00    -0.00   0.00  -0.00
    25   1     0.00  -0.00   0.00     0.00  -0.00  -0.00    -0.00   0.00  -0.00
    26   6    -0.00  -0.00  -0.00    -0.00  -0.00  -0.00     0.00  -0.00   0.00
    27   1     0.00   0.00   0.00     0.00   0.00   0.00     0.00   0.00   0.00
    28   1    -0.00   0.00  -0.00     0.00  -0.00  -0.00    -0.00   0.00   0.00
    29   6    -0.00   0.00   0.00    -0.00   0.00   0.00    -0.00  -0.00  -0.00
    30   1     0.00   0.00  -0.00     0.00   0.00  -0.00     0.00   0.00   0.00
    31   1     0.00  -0.00   0.00     0.00  -0.00   0.00     0.00  -0.00   0.00
    32   1     0.01  -0.00   0.00     0.00  -0.00   0.00    -0.00  -0.00  -0.00
    33   1     0.00   0.00  -0.00     0.00   0.00  -0.00     0.00   0.00  -0.00
    34   1    -0.00  -0.00  -0.00    -0.00  -0.00  -0.00     0.00   0.00   0.00
    35   1     0.00  -0.00   0.00     0.00  -0.00   0.00     0.00   0.00   0.00
    36   6    -0.00  -0.00  -0.00     0.00   0.00  -0.00     0.00  -0.00  -0.00
    37   1    -0.00   0.00   0.00     0.00   0.00   0.00    -0.00   0.00   0.00
    38   1     0.00  -0.00  -0.00    -0.00   0.00   0.00     0.00  -0.00   0.00
    39   1    -0.00   0.00  -0.00    -0.00  -0.00   0.00    -0.00  -0.00   0.00

 -------------------
 - Thermochemistry -
 -------------------
 Temperature   298.150 Kelvin.  Pressure   1.00000 Atm.
 Atom     1 has atomic number  8 and mass  15.99491
 Atom     2 has atomic number  6 and mass  12.00000
 Atom     3 has atomic number  6 and mass  12.00000
 Atom     4 has atomic number  6 and mass  12.00000
 Atom     5 has atomic number  6 and mass  12.00000
 Atom     6 has atomic number  6 and mass  12.00000
 Atom     7 has atomic number  6 and mass  12.00000
 Atom     8 has atomic number  6 and mass  12.00000
 Atom     9 has atomic number  6 and mass  12.00000
 Atom    10 has atomic number  6 and mass  12.00000
 Atom    11 has atomic number  1 and mass   1.00783
 Atom    12 has atomic number  1 and mass   1.00783
 Atom    13 has atomic number  1 and mass   1.00783
 Atom    14 has atomic number  1 and mass   1.00783
 Atom    15 has atomic number  1 and mass   1.00783
 Atom    16 has atomic number  1 and mass   1.00783
 Atom    17 has atomic number  1 and mass   1.00783
 Atom    18 has atomic number  1 and mass   1.00783
 Atom    19 has atomic number  1 and mass   1.00783
 Atom    20 has atomic number  1 and mass   1.00783
 Atom    21 has atomic number  1 and mass   1.00783
 Atom    22 has atomic number  6 and mass  12.00000
 Atom    23 has atomic number  6 and mass  12.00000
 Atom    24 has atomic number  6 and mass  12.00000
 Atom    25 has atomic number  1 and mass   1.00783
 Atom    26 has atomic number  6 and mass  12.00000
 Atom    27 has atomic number  1 and mass   1.00783
 Atom    28 has atomic number  1 and mass   1.00783
 Atom    29 has atomic number  6 and mass  12.00000
 Atom    30 has atomic number  1 and mass   1.00783
 Atom    31 has atomic number  1 and mass   1.00783
 Atom    32 has atomic number  1 and mass   1.00783
 Atom    33 has atomic number  1 and mass   1.00783
 Atom    34 has atomic number  1 and mass   1.00783
 Atom    35 has atomic number  1 and mass   1.00783
 Atom    36 has atomic number  6 and mass  12.00000
 Atom    37 has atomic number  1 and mass   1.00783
 Atom    38 has atomic number  1 and mass   1.00783
 Atom    39 has atomic number  1 and mass   1.00783
 Molecular mass:   219.17489 amu.
 Principal axes and moments of inertia in atomic units:
                           1         2         3
     Eigenvalues --  2879.630794131.095765027.46723
           X            0.99931   0.03721   0.00094
           Y           -0.03719   0.99913  -0.01885
           Z           -0.00164   0.01880   0.99982
 This molecule is an asymmetric top.
 Rotational symmetry number  1.
 Warning -- assumption of classical behavior for rotation
           may cause significant error
 Rotational temperatures (Kelvin)      0.03008     0.02097     0.01723
 Rotational constants (GHZ):           0.62673     0.43687     0.35898
    1 imaginary frequencies ignored.
 Zero-point vibrational energy     894357.2 (Joules/Mol)
                                  213.75649 (Kcal/Mol)
 Warning -- explicit consideration of  25 degrees of freedom as
           vibrations may cause significant error
 Vibrational temperatures:     32.60    52.24    59.25    77.85   111.04
          (Kelvin)            175.41   193.28   230.81   308.39   352.53
                              363.07   371.57   391.50   413.35   440.29
                              483.87   516.86   574.00   598.14   640.98
                              668.52   780.01   808.22   819.89   866.20
                              908.57   916.47  1037.73  1053.62  1128.57
                             1135.59  1236.30  1252.61  1261.69  1282.50
                             1287.43  1324.29  1336.13  1338.76  1368.94
                             1392.54  1417.59  1433.41  1451.43  1455.92
                             1474.20  1481.94  1483.81  1529.16  1543.00
                             1555.46  1593.50  1625.54  1667.43  1672.74
                             1686.27  1712.46  1723.41  1735.26  1745.22
                             1789.06  1824.39  1826.72  1856.31  1882.29
                             1892.12  1901.84  1909.10  1928.21  1938.97
                             1940.00  1978.91  1981.68  2013.36  2014.55
                             2102.89  2108.41  2116.56  2125.13  2134.45
                             2135.66  2141.10  2143.31  2148.93  2150.09
                             2214.32  2384.32  2413.81  4352.31  4359.03
                             4365.69  4396.17  4396.57  4403.79  4404.68
                             4451.59  4457.61  4458.60  4467.60  4468.57
                             4479.02  4505.20  4509.77  4517.95  4524.93
                             4582.46  4594.01  4612.86  4619.46  4629.19
 
 Zero-point correction=                           0.340643 (Hartree/Particle)
 Thermal correction to Energy=                    0.357436
 Thermal correction to Enthalpy=                  0.358380
 Thermal correction to Gibbs Free Energy=         0.294521
 Sum of electronic and zero-point Energies=           -660.183638
 Sum of electronic and thermal Energies=              -660.166845
 Sum of electronic and thermal Enthalpies=            -660.165900
 Sum of electronic and thermal Free Energies=         -660.229760
 
                     E (Thermal)             CV                S
                      KCal/Mol        Cal/Mol-Kelvin    Cal/Mol-Kelvin
 Total                  224.294             65.137            134.403
 Electronic               0.000              0.000              1.377
 Translational            0.889              2.981             42.057
 Rotational               0.889              2.981             32.459
 Vibrational            222.517             59.175             58.510
 Vibration     1          0.593              1.985              6.387
 Vibration     2          0.594              1.982              5.451
 Vibration     3          0.594              1.981              5.202
 Vibration     4          0.596              1.976              4.661
 Vibration     5          0.599              1.964              3.961
 Vibration     6          0.609              1.931              3.070
 Vibration     7          0.613              1.919              2.883
 Vibration     8          0.622              1.891              2.545
 Vibration     9          0.644              1.819              2.006
 Vibration    10          0.660              1.771              1.766
 Vibration    11          0.664              1.759              1.714
 Vibration    12          0.667              1.749              1.674
 Vibration    13          0.675              1.725              1.583
 Vibration    14          0.684              1.697              1.490
 Vibration    15          0.696              1.662              1.384
 Vibration    16          0.717              1.603              1.230
 Vibration    17          0.734              1.556              1.125
 Vibration    18          0.765              1.472              0.967
 Vibration    19          0.779              1.436              0.907
 Vibration    20          0.805              1.371              0.809
 Vibration    21          0.822              1.328              0.753
 Vibration    22          0.897              1.157              0.561
 Vibration    23          0.917              1.114              0.520
 Vibration    24          0.926              1.096              0.505
 Vibration    25          0.960              1.027              0.446
                       Q            Log10(Q)             Ln(Q)
 Total Bot       0.338755-135       -135.470115       -311.931467
 Total V=0       0.163866D+22         21.214489         48.848165
 Vib (Bot)       0.479727-150       -150.319006       -346.122303
 Vib (Bot)    1  0.914154D+01          0.961019          2.212829
 Vib (Bot)    2  0.570029D+01          0.755897          1.740518
 Vib (Bot)    3  0.502417D+01          0.701064          1.614260
 Vib (Bot)    4  0.381885D+01          0.581932          1.339949
 Vib (Bot)    5  0.266958D+01          0.426443          0.981921
 Vib (Bot)    6  0.167548D+01          0.224140          0.516101
 Vib (Bot)    7  0.151586D+01          0.180658          0.415981
 Vib (Bot)    8  0.126008D+01          0.100399          0.231177
 Vib (Bot)    9  0.924993D+00         -0.033861         -0.077969
 Vib (Bot)   10  0.798417D+00         -0.097770         -0.225124
 Vib (Bot)   11  0.772556D+00         -0.112070         -0.258051
 Vib (Bot)   12  0.752733D+00         -0.123359         -0.284045
 Vib (Bot)   13  0.709476D+00         -0.149062         -0.343228
 Vib (Bot)   14  0.666625D+00         -0.176118         -0.405527
 Vib (Bot)   15  0.619338D+00         -0.208072         -0.479104
 Vib (Bot)   16  0.553420D+00         -0.256945         -0.591638
 Vib (Bot)   17  0.510486D+00         -0.292016         -0.672392
 Vib (Bot)   18  0.447105D+00         -0.349591         -0.804963
 Vib (Bot)   19  0.423744D+00         -0.372897         -0.858626
 Vib (Bot)   20  0.386327D+00         -0.413044         -0.951070
 Vib (Bot)   21  0.364648D+00         -0.438126         -1.008822
 Vib (Bot)   22  0.291655D+00         -0.535130         -1.232183
 Vib (Bot)   23  0.276208D+00         -0.558763         -1.286600
 Vib (Bot)   24  0.270117D+00         -0.568448         -1.308901
 Vib (Bot)   25  0.247504D+00         -0.606417         -1.396327
 Vib (V=0)       0.232058D+07          6.365597         14.657330
 Vib (V=0)    1  0.965520D+01          0.984761          2.267497
 Vib (V=0)    2  0.622218D+01          0.793943          1.828120
 Vib (V=0)    3  0.554898D+01          0.744214          1.713615
 Vib (V=0)    4  0.435144D+01          0.638633          1.470507
 Vib (V=0)    5  0.321600D+01          0.507316          1.168139
 Vib (V=0)    6  0.224850D+01          0.351892          0.810262
 Vib (V=0)    7  0.209619D+01          0.321431          0.740121
 Vib (V=0)    8  0.185566D+01          0.268498          0.618239
 Vib (V=0)    9  0.155148D+01          0.190747          0.439210
 Vib (V=0)   10  0.144206D+01          0.158982          0.366070
 Vib (V=0)   11  0.142024D+01          0.152362          0.350826
 Vib (V=0)   12  0.140366D+01          0.147263          0.339085
 Vib (V=0)   13  0.136796D+01          0.136074          0.313322
 Vib (V=0)   14  0.133330D+01          0.124928          0.287657
 Vib (V=0)   15  0.129598D+01          0.112597          0.259265
 Vib (V=0)   16  0.124584D+01          0.095461          0.219808
 Vib (V=0)   17  0.121456D+01          0.084419          0.194382
 Vib (V=0)   18  0.117075D+01          0.068463          0.157643
 Vib (V=0)   19  0.115541D+01          0.062735          0.144453
 Vib (V=0)   20  0.113186D+01          0.053793          0.123864
 Vib (V=0)   21  0.111884D+01          0.048770          0.112296
 Vib (V=0)   22  0.107885D+01          0.032959          0.075892
 Vib (V=0)   23  0.107122D+01          0.029878          0.068797
 Vib (V=0)   24  0.106830D+01          0.028693          0.066067
 Vib (V=0)   25  0.105791D+01          0.024447          0.056291
 Electronic      0.200000D+01          0.301030          0.693147
 Translational   0.127538D+09          8.105640         18.663926
 Rotational      0.276835D+07          6.442221         14.833763
 ***** Axes restored to original set *****
 -------------------------------------------------------------------
 Center     Atomic                   Forces (Hartrees/Bohr)
 Number     Number              X              Y              Z
 -------------------------------------------------------------------
      1        8          -0.000001438    0.000000877    0.000001699
      2        6          -0.000000684    0.000000661    0.000000278
      3        6           0.000000198   -0.000000080   -0.000000084
      4        6          -0.000000040    0.000000601   -0.000000170
      5        6           0.000000648   -0.000000595   -0.000000279
      6        6           0.000000526    0.000000270   -0.000000233
      7        6           0.000000286   -0.000000149    0.000000068
      8        6          -0.000000089    0.000000114   -0.000000106
      9        6          -0.000000217   -0.000000160    0.000000396
     10        6           0.000000645    0.000000093   -0.000000643
     11        1          -0.000000045    0.000000114    0.000000050
     12        1          -0.000000053    0.000000064    0.000000102
     13        1          -0.000000120    0.000000070    0.000000042
     14        1          -0.000000520    0.000000607    0.000000519
     15        1          -0.000000029    0.000000231   -0.000000085
     16        1          -0.000000480    0.000000045    0.000000082
     17        1           0.000000012    0.000000095    0.000000115
     18        1          -0.000000007   -0.000000220   -0.000000005
     19        1           0.000000085    0.000000194    0.000000119
     20        1           0.000000026    0.000000163    0.000000268
     21        1          -0.000000230   -0.000000421   -0.000000119
     22        6          -0.000003186    0.000002805    0.000001965
     23        6          -0.000000517   -0.000000610   -0.000000428
     24        6           0.000004451    0.000002690   -0.000002064
     25        1          -0.000001324   -0.000000668    0.000001117
     26        6           0.000001597   -0.000003944   -0.000003704
     27        1           0.000000174   -0.000000307    0.000000131
     28        1          -0.000000789    0.000000372   -0.000000368
     29        6          -0.000000631   -0.000000756    0.000004777
     30        1           0.000001996   -0.000000334   -0.000001940
     31        1           0.000000522   -0.000001094   -0.000002412
     32        1           0.000000716   -0.000000199    0.000000240
     33        1           0.000000428   -0.000000400   -0.000001267
     34        1          -0.000002184    0.000000363    0.000000254
     35        1          -0.000000889    0.000000233    0.000000573
     36        6           0.000001076   -0.000000245    0.000000772
     37        1          -0.000000102   -0.000000242    0.000000362
     38        1           0.000000046    0.000000087   -0.000000220
     39        1           0.000000135   -0.000000324    0.000000201
 -------------------------------------------------------------------
 Cartesian Forces:  Max     0.000004777 RMS     0.000001138
 Red2BG is reusing G-inverse.
 Leave Link  716 at Sun Nov 30 20:46:07 2025, MaxMem=   104857600 cpu:               0.0 elap:               0.0
 (Enter /home/zhouoh/g16/l9999.exe)
 1\1\GINC-ZHOUOH-B650M\Freq\UExternal='python ../GauUMA_client.py'\ZDO\
 C15H23O1(2)\ZHOUOH\30-Nov-2025\0\\#p opt=(calcall,ts,noeigen,nomicro) 
 external='python ../GauUMA_client.py'\\t\\0,2\O,0.9553408602,-0.485714
 4823,5.0929853912\C,0.0663253066,0.5679436901,4.806292581\C,-0.5239899
 42,0.9307915128,6.1784878099\C,0.8295232334,1.7654123912,4.2421747536\
 C,-1.0607139419,0.0930571069,3.8897862977\C,-1.6999315232,0.9411818948
 ,2.9911920805\C,-2.7188317536,0.4695805075,2.1729733179\C,-3.115824698
 4,-0.8565794091,2.2457341693\C,-2.4943791493,-1.7060335267,3.151648942
 3\C,-1.4784390231,-1.2328141481,3.9674297454\H,-1.0182615486,0.0642720
 017,6.6163932817\H,0.2683114225,1.2684217489,6.8465202507\H,-1.2593862
 382,1.7274506732,6.0573410205\H,1.2023757204,1.552056874,3.2390137441\
 H,1.6772742103,1.9747758502,4.8939051869\H,0.2051982956,2.6577359068,4
 .194955899\H,-1.3976204452,1.9769416882,2.9076568238\H,-3.1978708574,1
 .1416183329,1.4720781626\H,-3.9040085793,-1.2262515113,1.6027371171\H,
 -2.7991648967,-2.7431653879,3.2187578246\H,-0.9806446027,-1.8955356212
 ,4.6638638068\C,1.4883846407,-0.9911078152,1.7414569557\C,1.2576113214
 ,-2.4392658641,1.264366736\C,2.297076534,-1.1375116872,3.0352072889\H,
 0.5160849105,-0.548135634,1.973059145\C,1.3991008117,-3.2958768944,2.5
 230114194\H,2.0394843024,-2.7112571381,0.5471688239\H,0.2957737721,-2.
 5601761595,0.7644603299\C,2.5528373498,-2.6183581123,3.2646837254\H,1.
 6151257127,-0.7850423027,4.0069719137\H,3.1671445851,-0.4849805726,3.1
 206275358\H,0.4881198026,-3.227302676,3.1228121067\H,1.5822211906,-4.3
 49153058,2.3100129128\H,2.6110549564,-2.8765808859,4.3229088542\H,3.50
 77987667,-2.9004142688,2.8063009566\C,2.1772487451,-0.1127908521,0.703
 8615108\H,1.5927683661,-0.067914343,-0.2172112248\H,3.1645061116,-0.51
 06374371,0.4554185131\H,2.3084762709,0.9086896085,1.0669142902\\Versio
 n=ES64L-G16RevA.03\HF=-660.5242806\S2=0.\S2-1=0.\S2A=0.\RMSD=0.000e+00
 \RMSF=1.138e-06\ZeroPoint=0.3406426\Thermal=0.3574359\Dipole=0.,0.,0.\
 PG=C01 [X(C15H23O1)]\NImag=1\\0.15763910,-0.09935993,0.20687541,0.0477
 7524,-0.06223073,0.09736181,-0.11517370,0.05404757,-0.01870016,0.46459
 049,0.05761187,-0.14373351,0.02651732,0.03695973,0.47489044,-0.0362695
 4,0.04814422,-0.07390199,0.01509324,-0.02131820,0.46383221,-0.01918162
 ,0.01985097,0.01770631,-0.07531375,-0.00368431,0.02953107,0.56140249,0
 .02223342,-0.01699421,-0.01845926,0.00227233,-0.06543253,-0.02251337,0
 .01864820,0.57007801,0.01606541,-0.01596050,-0.00324137,0.02846741,-0.
 01047299,-0.14778149,0.04607403,-0.02914730,0.47048187,0.01081745,0.02
 651407,-0.01322201,-0.11102641,-0.05158433,0.02318142,-0.00912557,-0.0
 1239678,0.01000614,0.55238390,0.00159834,-0.04533861,0.01705457,-0.048
 84551,-0.12912889,0.03096637,0.00001685,0.00455863,0.00044617,-0.04713
 921,0.51545642,0.00101396,0.00827158,-0.00043410,0.01885618,0.03272983
 ,-0.09011084,0.01999532,0.02437116,-0.01978958,0.02443989,0.02641830,0
 .57288112,-0.03162535,0.01154390,-0.02065224,-0.12498157,-0.03208474,-
 0.04278966,0.01068381,-0.00022885,0.00051181,-0.01370321,-0.01231862,-
 0.00939451,0.43169311,0.02785903,0.00367715,0.02396524,-0.03520657,-0.
 10351861,-0.01893442,-0.00577577,-0.00315872,-0.00898807,-0.02006555,-
 0.00822371,-0.01694676,0.06283799,0.64773563,-0.01425724,0.00304916,-0
 .00513613,-0.04756741,-0.01289657,-0.11171365,-0.01865856,-0.01437545,
 -0.02823432,0.00742188,-0.00000992,0.00857988,0.21176543,-0.10066133,0
 .42464934,-0.00444177,0.00114151,-0.00277317,-0.00541569,0.01086674,-0
 .01406463,-0.00143116,0.00036973,0.00043318,-0.00100010,-0.00007364,-0
 .00194982,-0.14334690,0.01630457,-0.07839111,0.43995196,-0.00422442,0.
 00027054,-0.00391532,-0.00006592,0.01305931,-0.00282678,-0.00051492,-0
 .00075595,-0.00134184,-0.00087628,0.00055189,-0.00001531,0.06869547,-0
 .20294692,0.11200597,0.11093339,0.70411589,-0.00102048,-0.00004391,-0.
 00038203,-0.00901466,0.00857929,-0.00930325,-0.00070623,0.00033434,-0.
 00008651,-0.00015969,-0.00098188,-0.00106824,-0.09684458,0.06393072,-0
 .17883360,0.24764178,-0.09286961,0.40846751,0.00033577,-0.00089412,-0.
 00060905,0.00305029,0.00197409,-0.00332462,-0.00080234,-0.00031791,-0.
 00063286,0.00011025,0.00028837,0.00015886,-0.01890581,0.04873127,-0.04
 161878,-0.21153597,-0.09034435,-0.11060156,0.44263463,0.00124731,-0.00
 045164,-0.00030385,-0.00071705,-0.00149365,0.00287503,-0.00010257,-0.0
 0006165,-0.00002561,-0.00031937,-0.00103858,-0.00038803,0.00655886,0.0
 7028058,-0.01512026,-0.03465018,-0.15151009,-0.00415466,0.06642745,0.6
 7656028,-0.00195856,-0.00025863,-0.00213951,-0.00218316,0.00493533,0.0
 0374120,0.00089227,0.00013373,0.00053177,0.00046747,-0.00000493,0.0001
 9578,-0.02732089,0.02412519,-0.02760821,-0.13018927,-0.05714562,-0.171
 58674,0.27023962,-0.12117741,0.44467679,-0.00039677,-0.00019081,-0.000
 69282,0.00058190,0.00016147,0.00026321,-0.00088796,-0.00010076,-0.0003
 0285,-0.00015343,-0.00008581,-0.00032061,-0.00377296,0.00846685,0.0014
 7861,-0.00208762,-0.02793209,-0.00074313,-0.11973347,-0.09600383,-0.01
 872548,0.47030702,-0.00008133,0.00034985,0.00112814,0.00062157,-0.0019
 3844,0.00045301,-0.00000446,0.00006260,-0.00007116,-0.00002877,0.00004
 143,-0.00029690,0.00848337,-0.07193088,0.03080748,-0.07098185,-0.00402
 359,-0.06253827,-0.04139100,-0.32322059,0.04680652,0.10955437,0.651064
 22,-0.00029033,-0.00074030,-0.00108394,0.00087786,0.00083602,-0.000687
 65,-0.00095417,-0.00014807,-0.00020885,-0.00017312,-0.00000555,-0.0001
 5520,0.00103361,0.03058786,-0.01761471,0.01450245,-0.02276097,0.030416
 44,-0.03805230,-0.00506331,-0.10115433,0.28631036,-0.07103400,0.443196
 42,0.00015241,-0.00043059,0.00104067,0.00339898,-0.00179404,-0.0015983
 4,0.00006929,-0.00019891,-0.00036695,0.00028991,0.00004886,0.00000993,
 -0.00284124,-0.07013673,0.01570332,-0.04286859,0.00932995,-0.03670525,
 0.04503095,0.04395351,0.01896720,-0.14385318,0.01845333,-0.08221374,0.
 43864757,0.00138894,0.00184666,0.00011895,-0.00087952,-0.00548777,0.00
 407410,0.00045589,0.00020087,0.00058090,-0.00119546,-0.00017265,-0.001
 33607,-0.02842335,-0.00380173,-0.02441379,0.01044943,-0.00443112,0.008
 85275,0.00210014,-0.04140813,0.02001949,0.07258465,-0.20630920,0.11990
 575,0.10906790,0.71058458,-0.00020230,-0.00011296,0.00054576,-0.002239
 21,0.00161079,0.00414821,0.00111134,0.00048090,0.00040848,-0.00014696,
 -0.00017321,-0.00032745,0.00096263,-0.06355508,0.03057866,-0.03817141,
 0.00765849,-0.04619491,0.03421231,0.06016563,0.02043077,-0.10145029,0.
 06772682,-0.18905020,0.25017923,-0.09460341,0.41729297,-0.00029463,-0.
 00391628,-0.00103770,-0.00796252,-0.02307163,-0.00195584,-0.00201519,-
 0.00041555,0.00076629,-0.00277322,-0.00046551,-0.00286293,-0.11798385,
 -0.03692926,-0.03413893,0.04429185,0.00351372,0.03209995,-0.03314402,-
 0.03580551,-0.01186674,-0.01795493,0.04676425,-0.04238897,-0.21708619,
 -0.09260390,-0.11517492,0.46061131,-0.00013382,-0.00389147,-0.00089599
 ,-0.00998285,-0.00598125,-0.00628726,-0.00100562,0.00028635,0.00123086
 ,0.00018126,0.00084978,0.00009566,-0.08811796,-0.29903716,-0.00121295,
 0.04167370,-0.04031544,0.05723738,-0.03525922,-0.04853244,-0.01926280,
 0.00503327,0.07010438,-0.01621703,-0.03723118,-0.15405824,-0.00488306,
 0.06854263,0.65500333,-0.00063155,0.00096254,-0.00035952,-0.00602735,-
 0.02159519,0.00567607,-0.00148432,-0.00044135,-0.00042357,-0.00236387,
 0.00035765,-0.00298931,-0.01635240,0.04748486,-0.10082772,0.01921722,0
 .02002729,0.01937737,-0.01165299,-0.01974112,-0.01187311,-0.02775529,0
 .02301269,-0.02629234,-0.13421524,-0.05786604,-0.17512484,0.27944841,-
 0.11399173,0.44928027,0.00021850,-0.00055921,0.00040493,-0.00758432,-0
 .00879938,0.00473946,-0.10112273,-0.09940319,0.04755778,-0.00057613,0.
 00135964,0.00239736,-0.00011835,0.00071143,-0.00098166,0.00029409,0.00
 003139,0.00011206,-0.00018932,-0.00016168,-0.00011112,-0.00002398,0.00
 019289,-0.00005904,0.00010565,0.00008155,0.00004740,0.00009085,-0.0004
 0460,0.00002027,0.10665538,0.00023611,0.00099116,-0.00084649,0.0040995
 5,0.00492624,-0.00352186,-0.10001879,-0.22149562,0.08703113,0.00068335
 ,0.00014292,-0.00077402,0.00024302,0.00060203,0.00005474,0.00022037,-0
 .00012442,0.00014094,-0.00007966,-0.00003078,-0.00004634,0.00004085,0.
 00011235,-0.00001240,0.00019059,-0.00002827,0.00007717,0.00004133,0.00
 030891,-0.00023764,0.10815186,0.23741891,-0.00186173,0.00118577,0.0010
 3975,0.01288186,0.02228751,-0.01248653,0.04688902,0.08454470,-0.087797
 48,0.00190855,-0.00228946,-0.00493766,0.00105033,0.00087753,0.00175641
 ,-0.00064864,0.00017160,-0.00052870,0.00051076,0.00042062,0.00020690,0
 .00014421,-0.00053741,0.00024580,-0.00063906,-0.00020253,-0.00034492,-
 0.00016810,0.00039624,0.00019626,-0.05458049,-0.09331562,0.09601897,0.
 00080916,-0.00040088,0.00072005,0.00740187,0.00455892,0.00866550,-0.19
 267899,-0.06263697,-0.12132822,0.00099002,0.00059450,0.00015384,-0.001
 02629,0.00012128,0.00076340,0.00056177,-0.00031830,0.00030086,0.000089
 08,-0.00001816,-0.00010041,0.00005720,0.00002446,0.00006531,0.00004977
 ,-0.00000478,-0.00014264,0.00057804,0.00053361,-0.00003305,-0.00947197
 ,-0.00249427,-0.00789320,0.20612842,-0.00037210,0.00001609,-0.00044976
 ,-0.00478913,-0.00415635,-0.00501085,-0.06187648,-0.07235497,-0.049331
 31,-0.00001926,0.00007814,0.00086559,0.00080298,0.00072043,-0.00130672
 ,0.00024840,-0.00010525,0.00028992,-0.00059141,-0.00042019,-0.00017154
 ,-0.00013034,0.00057098,-0.00034394,0.00060274,0.00000961,0.00047055,-
 0.00034413,-0.00021371,-0.00043788,-0.01758311,-0.00673785,-0.01616027
 ,0.06775152,0.07348000,-0.00115156,0.00199219,0.00164065,-0.02049587,-
 0.00979174,-0.01982568,-0.11951070,-0.04945535,-0.14424181,-0.00151117
 ,-0.00049091,0.00140766,0.00372298,-0.00108522,-0.00370704,-0.00049644
 ,-0.00039713,-0.00030796,-0.00017934,0.00012655,0.00029353,-0.00024004
 ,-0.00019136,-0.00022977,-0.00024429,0.00013526,0.00024040,-0.00045508
 ,-0.00002976,-0.00033244,0.00990491,0.00316248,0.00882886,0.13061679,0
 .05600765,0.15816331,-0.00031640,0.00014537,0.00209405,-0.00900841,0.0
 0830855,-0.00282658,-0.16673725,0.13231738,-0.02169085,-0.00008409,0.0
 0030352,-0.00083254,0.00027932,-0.00071430,-0.00031623,-0.00004161,0.0
 0009312,-0.00032513,0.00024327,0.00017299,0.00011712,-0.00001439,-0.00
 034140,0.00013151,-0.00034595,0.00001529,-0.00024089,0.00043439,0.0001
 8779,0.00016210,0.01082131,-0.01106531,0.00109672,-0.01379842,0.016261
 74,-0.00120394,0.17870283,0.00038281,0.00021818,-0.00140864,0.00408195
 ,-0.00663355,0.00221433,0.13221227,-0.18846573,0.02284455,-0.00047822,
 -0.00003190,0.00042446,0.00017189,0.00031887,0.00036097,-0.00010944,0.
 00022754,0.00013463,-0.00031593,-0.00015774,-0.00013525,-0.00001388,0.
 00027634,-0.00008427,0.00022250,0.00001508,0.00013847,-0.00030612,-0.0
 0050825,0.00003081,0.01703560,-0.01700960,0.00204832,-0.00764684,0.008
 59308,-0.00057734,-0.14576413,0.20267191,0.00101070,-0.00032488,-0.002
 11421,0.01868047,-0.02043913,0.00149713,-0.02249529,0.02401757,-0.0475
 1601,-0.00035897,-0.00035206,0.00119261,0.00018684,-0.00015104,0.00059
 980,-0.00002689,-0.00006616,0.00048329,-0.00032792,-0.00010643,-0.0002
 1143,0.00010565,0.00028006,-0.00003628,0.00018308,-0.00005377,0.000163
 05,-0.00014595,-0.00007031,-0.00001327,-0.00938696,0.00826967,-0.00192
 439,-0.01134255,0.01490897,-0.00196568,0.02205651,-0.02501340,0.052002
 25,-0.00025544,0.00083416,-0.00080985,-0.00713609,0.00440531,0.0148524
 4,-0.00160490,-0.00337071,0.00113210,-0.07610674,0.01816462,0.08229561
 ,0.00062752,0.00063745,0.00070595,0.00014544,-0.00031444,-0.00004402,-
 0.00010882,-0.00003223,-0.00030684,-0.00002019,0.00024347,-0.00003032,
 0.00021835,0.00005971,0.00022022,-0.00010551,-0.00028205,-0.00014425,-
 0.00007211,0.00008615,0.00125523,0.00016095,0.00009254,0.00014209,0.00
 031405,-0.00016509,-0.00035463,0.08055464,-0.00092202,0.00288758,-0.00
 096802,-0.00778296,0.00427122,0.02406526,-0.00223754,-0.00382511,0.001
 91010,0.01944064,-0.05764981,-0.05134855,0.00102381,0.00126068,0.00005
 462,-0.00022782,0.00041744,0.00004382,-0.00014427,-0.00014753,-0.00006
 342,0.00003756,0.00014012,-0.00008268,0.00016126,0.00000685,0.00021185
 ,0.00001829,-0.00031292,-0.00008615,-0.00070842,0.00043814,0.00128150,
 0.00014447,-0.00014902,-0.00007320,-0.00027935,0.00011845,-0.00007244,
 -0.01872252,0.06115081,0.00054243,-0.00038713,-0.00024267,0.00313917,-
 0.00370557,-0.01066053,0.00106553,0.00298532,-0.00034725,0.08292196,-0
 .04991141,-0.27270890,-0.00101478,-0.00009486,0.00027506,-0.00012708,-
 0.00004762,0.00024356,0.00020923,0.00011757,0.00014363,0.00005124,-0.0
 0026701,0.00011753,-0.00021433,0.00003623,-0.00024405,0.00022278,0.000
 34087,0.00026103,0.00060099,-0.00015831,-0.00062289,-0.00001577,0.0000
 1388,0.00052082,-0.00007612,-0.00009108,0.00019683,-0.09281575,0.05494
 121,0.29582781,0.00197011,0.00247662,0.00020829,-0.01542741,-0.0028309
 7,-0.01130739,0.00009996,0.00046416,-0.00107339,-0.20952798,-0.0399418
 8,-0.12615046,-0.00038538,-0.00234604,0.00205381,0.00019318,-0.0000125
 3,-0.00005221,0.00003183,-0.00013660,0.00007750,-0.00008413,-0.0000270
 9,-0.00004564,0.00005138,-0.00036181,0.00004165,-0.00065762,0.00005242
 ,-0.00072150,0.00041660,0.00012873,0.00020833,0.00009090,-0.00000475,0
 .00090594,0.00000683,-0.00010718,0.00003643,0.01010029,0.00212871,0.00
 711909,0.22643379,0.00059157,0.00287530,-0.00079693,-0.02192080,-0.007
 82023,-0.01567046,0.00070071,0.00040163,-0.00114893,-0.03727406,-0.053
 35137,-0.03002944,-0.00142224,-0.00414571,0.00334468,0.00053218,-0.000
 60160,0.00052895,0.00007802,0.00039457,-0.00003338,-0.00003257,-0.0000
 8898,0.00003180,0.00008294,-0.00039356,-0.00012064,-0.00114013,0.00010
 083,-0.00089636,0.00025690,-0.00003607,-0.00002402,0.00009673,0.000411
 66,0.00043476,0.00009173,0.00007345,0.00009017,-0.00515927,-0.00215516
 ,-0.00366720,0.04484631,0.05807288,0.00055070,-0.00088413,0.00074378,0
 .01001197,0.00287777,0.00564901,0.00055134,0.00010129,0.00115143,-0.12
 810863,-0.03188764,-0.14615899,0.00049475,0.00183630,-0.00067923,-0.00
 036550,0.00027043,-0.00004761,0.00015416,0.00011207,0.00027285,0.00003
 462,-0.00024653,0.00007004,-0.00015653,0.00012871,-0.00014753,0.000488
 78,0.00034809,0.00061438,-0.00010643,-0.00005718,0.00009823,-0.0000529
 8,0.00017220,-0.00012416,0.00008455,-0.00001209,-0.00009513,-0.0228695
 5,-0.00445077,-0.01571466,0.13837226,0.03200162,0.15560556,0.00043211,
 -0.00406976,0.00209921,0.00947059,-0.01062853,-0.00003641,0.00076251,0
 .00001364,-0.00021926,-0.13677891,0.12738129,-0.00562860,0.00013667,0.
 00091441,-0.00021342,-0.00122941,0.00015305,-0.00110101,-0.00003013,-0
 .00035551,-0.00006292,-0.00003089,0.00006799,-0.00007865,0.00008563,0.
 00004808,0.00002903,0.00010299,-0.00003295,0.00010034,0.00012888,-0.00
 004972,-0.00021330,-0.00010459,0.00018778,0.00008089,0.00004740,-0.000
 15043,0.00014980,-0.00656485,0.00734747,-0.00139320,-0.01332710,0.0199
 3231,0.00074939,0.14811696,-0.00279086,-0.00695509,0.00355793,0.017689
 13,-0.01495423,-0.00074442,0.00140582,0.00083463,-0.00106293,0.1250601
 1,-0.22566120,0.00926863,0.00006608,0.00020341,0.00041377,0.00011103,-
 0.00086276,0.00061108,-0.00004326,0.00058682,-0.00027788,0.00007296,0.
 00013705,0.00000271,0.00016042,0.00011376,0.00008018,-0.00019848,-0.00
 006833,-0.00015832,-0.00024715,0.00026782,-0.00026079,-0.00013350,-0.0
 0002234,0.00018038,-0.00061900,0.00044483,0.00044181,0.00260104,-0.004
 74388,0.00030190,-0.00393643,0.00602452,0.00035478,-0.13913495,0.24332
 651,0.00139273,0.00466125,-0.00125672,-0.00840537,0.00678052,-0.001904
 70,-0.00062628,0.00008271,0.00032277,-0.00523881,0.00884966,-0.0460465
 0,0.00017856,0.00009257,0.00014045,-0.00020972,-0.00072070,-0.00019952
 ,0.00003525,0.00011272,-0.00007563,-0.00002286,-0.00001255,0.00003625,
 -0.00000754,0.00007157,-0.00002790,-0.00000274,0.00006733,-0.00002295,
 -0.00007235,-0.00025797,0.00012004,-0.00015691,0.00005357,-0.00013434,
 0.00052361,0.00022200,-0.00020130,0.01670624,-0.02423451,0.00259326,-0
 .00982338,0.01643900,-0.00062354,0.00743879,-0.01143448,0.04747142,-0.
 00038900,-0.00016169,-0.00004396,-0.00071026,0.00055777,0.00219516,0.0
 0033996,-0.00005582,0.00019135,-0.00140133,-0.00021165,-0.00119713,0.0
 0817280,0.01252314,-0.00020268,-0.07113529,-0.07806130,-0.00343381,-0.
 00186251,-0.02289326,0.00252804,0.00028559,-0.00241370,-0.00597461,-0.
 00123424,0.00047118,-0.00060236,0.00221636,0.00143181,-0.00507948,-0.0
 0002746,-0.00002068,0.00001370,-0.00009156,0.00008891,0.00007913,0.000
 00809,0.00005340,0.00007643,-0.00039271,-0.00000847,0.00012657,0.00015
 774,0.00007487,0.00005332,-0.00159158,-0.00073258,-0.00137966,0.069286
 96,0.00048637,0.00034847,0.00039368,-0.00097094,-0.00107564,-0.0015569
 6,0.00009337,-0.00003390,-0.00001634,-0.00106151,-0.00043845,-0.000872
 51,-0.00664961,-0.01487625,0.00045988,-0.07710672,-0.31401030,0.025017
 23,-0.00154144,-0.00695184,0.00239280,-0.00268114,0.00172804,-0.000568
 10,0.00059363,0.00058890,0.00016710,0.00134826,-0.00039348,0.00392773,
 -0.00000997,0.00004060,-0.00007852,0.00005070,0.00001555,0.00006890,-0
 .00000736,-0.00000365,0.00014808,0.00044526,-0.00020603,-0.00002154,-0
 .00012595,0.00048470,-0.00038269,-0.00149840,0.00075938,-0.00062648,0.
 08826622,0.33502928,0.00007774,-0.00030946,0.00067561,0.00248226,-0.00
 019906,-0.00153568,-0.00060708,0.00005857,-0.00018201,-0.00090698,0.00
 068376,-0.00011371,0.00647699,0.01876540,0.00322748,-0.00304537,0.0255
 9314,-0.04997187,-0.00552949,-0.01874889,0.00520822,-0.00604424,0.0000
 7950,0.00154766,-0.00020959,0.00000534,-0.00099271,-0.00521870,0.00341
 481,0.00087287,0.00000223,-0.00005813,0.00009714,0.00011031,-0.0001359
 8,-0.00017595,0.00016820,-0.00015769,-0.00017433,0.00019340,-0.0001721
 1,-0.00000307,0.00022054,-0.00027652,-0.00012864,-0.00131291,-0.000880
 71,-0.00058881,0.00978373,-0.02708129,0.04442809,-0.00030242,0.0000002
 1,-0.00035083,0.00036792,0.00098199,0.00005935,-0.00008623,0.00000989,
 -0.00008953,-0.00006658,0.00004614,-0.00009935,0.00014341,-0.00341730,
 -0.00572970,-0.00551616,0.01542806,-0.01473558,-0.10459633,0.07347142,
 -0.08988498,0.00784052,-0.00638976,0.00593519,0.00349819,-0.00307305,-
 0.00263936,-0.00078127,-0.00084605,0.00030567,-0.00001400,-0.00002108,
 0.00000935,-0.00000281,-0.00004669,-0.00005585,0.00000251,0.00001085,0
 .00003196,-0.00000955,0.00001114,0.00000987,-0.00002632,-0.00004130,0.
 00000562,0.00001512,-0.00000687,-0.00000269,-0.00136983,0.00067013,0.0
 0256359,0.10273261,-0.00014800,0.00003713,-0.00009996,-0.00013841,0.00
 038954,-0.00023788,0.00002529,-0.00001649,0.00002146,0.00006605,0.0000
 5097,0.00003743,-0.00313791,0.00095661,-0.00080949,-0.00570186,0.00998
 230,-0.00773273,0.07341427,-0.16639131,0.11600879,0.01512490,-0.012961
 47,0.02063356,-0.00349228,-0.00475513,0.00075604,-0.00074378,-0.000651
 25,-0.00078396,0.00000061,-0.00000246,-0.00001114,0.00001118,0.0000007
 9,0.00001139,0.00000610,-0.00001107,-0.00002383,-0.00001491,0.00000349
 ,0.00002154,0.00001348,-0.00000474,0.00001854,-0.00000431,-0.00002911,
 -0.00001527,0.00119917,0.00050822,-0.00052658,-0.07792497,0.17298835,-
 0.00041446,0.00008645,-0.00045037,0.00040625,0.00062845,0.00012757,-0.
 00019249,0.00001338,-0.00003023,0.00000405,0.00005470,-0.00004381,-0.0
 0574308,-0.00105260,0.00205021,-0.00703280,0.01310745,-0.00750948,-0.0
 9003641,0.11594124,-0.16664015,-0.00148809,-0.00024080,0.00260770,-0.0
 0248327,0.00113876,0.00453684,0.00029922,-0.00083645,-0.00024753,0.000
 01931,0.00001341,0.00000970,0.00001504,-0.00001184,-0.00006380,-0.0000
 0191,-0.00001603,-0.00000140,0.00001532,0.00002175,0.00002371,-0.00003
 617,-0.00003202,0.00000475,0.00001456,-0.00001803,-0.00001306,0.002339
 83,-0.00113993,-0.00162307,0.10154959,-0.12699723,0.16941131,-0.000022
 42,-0.00005141,-0.00012954,-0.00030158,0.00021548,0.00060543,0.0000614
 9,0.00005247,0.00003769,-0.00002670,-0.00006061,-0.00002677,0.00005907
 ,0.00034324,0.00047752,0.00394540,-0.00271486,-0.00236397,-0.00272564,
 -0.00107824,-0.00577749,-0.19874819,-0.07351262,-0.13181651,-0.0061324
 3,-0.00674385,-0.00712865,0.00309592,0.00140208,-0.00447890,-0.0000063
 2,-0.00000137,0.00002386,-0.00002117,-0.00000784,0.00002370,-0.0000031
 6,0.00000386,0.00002481,0.00000040,-0.00000053,0.00000499,-0.00002127,
 -0.00000201,-0.00000197,-0.00001275,0.00002160,0.00000532,-0.00022857,
 -0.00004928,-0.00029664,-0.00155813,0.00053592,0.00239421,0.20452188,0
 .00003409,0.00011730,-0.00005431,0.00017849,-0.00006728,-0.00014344,-0
 .00001410,-0.00000989,-0.00001413,-0.00001249,-0.00004988,-0.00004262,
 0.00040785,-0.00138838,0.00066184,-0.00226492,-0.00486766,0.00197010,-
 0.02256511,-0.00475498,-0.01916692,-0.07344510,-0.09107683,-0.05345234
 ,0.01470473,0.01089164,0.01182281,0.00097712,-0.00127797,0.00392172,0.
 00001202,0.00000971,-0.00003247,0.00000394,0.00000933,-0.00001114,-0.0
 0001511,0.00001211,0.00001862,0.00003454,-0.00000017,-0.00000704,-0.00
 001977,0.00003316,-0.00003051,-0.00001406,0.00007722,0.00002366,-0.001
 08479,-0.00040494,-0.00084079,0.00121975,0.00070238,-0.00050756,0.0809
 1486,0.09120580,-0.00003212,-0.00018698,-0.00003602,0.00043940,-0.0001
 4541,-0.00047958,-0.00007964,-0.00000645,-0.00005702,-0.00003331,0.000
 03684,-0.00001487,0.00053581,0.00082986,-0.00030843,-0.00235260,0.0014
 6895,0.00445339,0.00160676,0.00190191,0.00450558,-0.13177284,-0.053423
 28,-0.14845581,-0.01452204,-0.00919830,-0.00744236,-0.00433972,0.00426
 930,0.00148854,-0.00000210,0.00001214,0.00001265,0.00000102,-0.0000125
 4,-0.00003908,0.00000748,-0.00001338,0.00000208,0.00000980,-0.00000080
 ,-0.00000529,-0.00000446,-0.00000945,-0.00000822,0.00002221,-0.0000006
 8,0.00000821,0.00007051,0.00015271,0.00011274,0.00217662,-0.00115004,-
 0.00168727,0.14646664,0.05654500,0.14986624,-0.00002473,0.00005805,-0.
 00026623,0.00030733,-0.00117056,0.00080255,-0.00004137,0.00003904,0.00
 000112,-0.00019326,0.00007242,-0.00028057,0.00015689,-0.00244454,-0.00
 644001,-0.00102792,0.00042915,-0.00042825,0.00254789,0.00104011,-0.005
 00212,0.00805249,0.01405988,-0.00101270,-0.07211926,-0.07822861,-0.004
 69484,-0.00194693,-0.02263821,0.00202833,0.00003182,0.00000328,0.00000
 153,-0.00001246,0.00000316,-0.00004694,-0.00002659,0.00003190,0.000018
 87,-0.00000196,-0.00000338,0.00002464,-0.00008691,-0.00008815,0.000042
 23,0.00002496,0.00000394,0.00000028,-0.00049041,0.00015328,0.00061216,
 0.00021865,0.00071759,-0.00007222,-0.00146325,0.00031892,0.00246919,0.
 06751875,-0.00005128,0.00008652,-0.00009852,0.00043083,-0.00041033,0.0
 0043425,-0.00016286,-0.00004372,-0.00006083,-0.00012084,-0.00001342,-0
 .00018403,-0.00261647,0.00175685,-0.00034737,0.00043683,0.00064721,-0.
 00005306,0.00141016,-0.00026258,0.00402481,-0.00744039,-0.01396261,-0.
 00089468,-0.07827174,-0.31388934,0.02013688,-0.00130422,-0.00647509,0.
 00232311,0.00000836,0.00000746,0.00000508,-0.00000055,-0.00002857,-0.0
 0006517,-0.00000131,0.00001192,0.00002895,0.00001313,0.00000311,0.0000
 0208,-0.00004722,-0.00006177,0.00000161,0.00000770,0.00001433,0.000007
 80,0.00018104,-0.00008189,-0.00021263,-0.00036401,-0.00078642,-0.00005
 683,0.00104037,0.00049302,-0.00062332,0.08640601,0.33259383,0.00014778
 ,0.00014553,0.00019317,0.00004277,-0.00072181,0.00028567,-0.00009377,-
 0.00003375,-0.00000526,-0.00019357,-0.00006287,-0.00021516,-0.00610886
 ,-0.00031977,0.00171620,-0.00047038,0.00008182,-0.00118040,-0.00511896
 ,0.00363668,0.00098878,0.00658080,0.01988458,0.00349987,-0.00485509,0.
 02023502,-0.05109899,-0.00512851,-0.01844195,0.00569232,0.00000100,0.0
 0000315,-0.00002913,0.00002300,-0.00000536,-0.00003515,0.00000680,-0.0
 0001161,0.00000197,0.00000622,0.00001998,-0.00000795,-0.00005290,-0.00
 009616,0.00001256,0.00001624,0.00000170,-0.00000513,0.00059196,-0.0002
 2252,-0.00050163,0.00030779,0.00101417,-0.00000606,0.00222141,-0.00126
 714,-0.00150364,0.00955110,-0.02335743,0.04401235,-0.00176729,-0.00104
 492,-0.00067369,-0.00153879,0.00079404,0.00151989,0.00026924,0.0001599
 8,-0.00000429,-0.00029249,0.00003947,-0.00004075,0.00839654,-0.0036769
 1,0.00492348,0.00283094,-0.00337133,-0.00225434,-0.00084084,-0.0009074
 0,0.00024032,0.00055916,-0.00291678,-0.00539743,-0.00522727,0.01471445
 ,-0.01382471,-0.10730358,0.07666138,-0.09124782,0.00005084,0.00002339,
 0.00026820,-0.00011056,-0.00011564,0.00012974,0.00002023,-0.00000771,-
 0.00001218,0.00001115,-0.00001098,0.00000781,0.00000239,-0.00008458,0.
 00002033,0.00001618,0.00012496,-0.00000442,0.00035412,-0.00041856,0.00
 033412,-0.00045251,0.00019391,0.00048416,-0.00033743,0.00066961,-0.000
 63580,-0.00130374,0.00059592,0.00254135,0.10705319,0.00017417,0.001814
 90,0.00014916,0.00212172,-0.00085496,0.00053427,-0.00032552,-0.0003956
 3,-0.00006637,0.00014325,0.00009486,-0.00006105,0.01430391,-0.01409766
 ,0.02026869,-0.00339066,-0.00473560,0.00070878,-0.00080948,-0.00059861
 ,-0.00073622,-0.00298327,0.00067329,-0.00065225,-0.00623841,0.01069276
 ,-0.00813247,0.07599056,-0.16456565,0.11447610,0.00014033,-0.00012351,
 -0.00041085,0.00005813,0.00006531,-0.00018466,0.00000549,0.00014327,0.
 00001191,0.00006574,-0.00000261,-0.00001473,-0.00005481,0.00002517,-0.
 00005057,-0.00002991,0.00013193,0.00004704,0.00080722,-0.00086860,0.00
 100342,0.00023511,0.00000442,-0.00013610,-0.00032560,0.00033966,-0.000
 44300,0.00123335,0.00042253,-0.00049229,-0.08154696,0.17219331,-0.0010
 6894,-0.00193078,-0.00030151,0.00051651,-0.00009059,-0.00255644,-0.000
 26230,-0.00029748,-0.00003686,0.00020686,0.00008987,0.00036826,-0.0013
 0479,0.00181303,0.00308058,-0.00257177,0.00133293,0.00370691,0.0005712
 8,-0.00053685,-0.00010967,-0.00567424,-0.00117674,0.00267174,-0.007209
 13,0.01230109,-0.00707735,-0.08988110,0.11427687,-0.16449935,0.0000580
 6,-0.00002533,-0.00017848,0.00012237,0.00012424,-0.00012362,-0.0000228
 4,0.00001863,-0.00000573,0.00000679,-0.00000148,-0.00000629,0.00006562
 ,0.00007981,-0.00001702,0.00004257,0.00000228,-0.00001068,-0.00009482,
 -0.00009260,-0.00001406,0.00051567,-0.00015785,-0.00051166,-0.00031455
 ,0.00057641,-0.00042213,0.00253958,-0.00110601,-0.00180341,0.10329054,
 -0.12513686,0.16828611,0.00156877,-0.00146219,0.00105832,0.00063154,-0
 .00002700,0.00043397,-0.00020365,0.00009321,-0.00077625,-0.00072287,-0
 .00015796,0.00012926,-0.00071021,0.00104983,0.00086867,0.00066227,-0.0
 0031507,0.00022613,-0.00025326,-0.00033677,-0.00051934,-0.00016580,0.0
 0021201,-0.00011946,0.00000190,-0.00013819,0.00002693,-0.00002591,0.00
 011475,-0.00020419,0.00004517,-0.00003144,0.00003748,0.00003596,-0.000
 08397,-0.00009713,-0.00017354,0.00013339,0.00028771,0.00059786,0.00032
 039,-0.00007469,0.00003314,-0.00014301,-0.00022190,0.00001651,0.000136
 91,-0.00012083,-0.00009494,0.00006457,0.00011583,-0.00002061,-0.000017
 31,-0.00000929,-0.00001562,0.00001987,0.00002424,0.00000955,0.00000926
 ,-0.00000334,0.00007483,0.00003775,0.00004179,0.53923094,0.00027095,-0
 .00013083,-0.00177430,-0.00004809,-0.00024139,0.00035583,-0.00002955,0
 .00009152,0.00010886,-0.00023962,-0.00002241,-0.00007885,0.00004634,-0
 .00013352,-0.00013281,0.00021583,0.00003344,0.00012212,-0.00012383,-0.
 00023388,-0.00005761,0.00011830,0.00031764,-0.00022293,0.00048564,0.00
 001998,0.00042100,-0.00067321,-0.00001956,0.00025191,0.00001648,-0.000
 00212,-0.00003372,0.00000423,0.00000140,0.00003146,-0.00000124,0.00001
 565,-0.00002124,0.00002695,-0.00039832,-0.00035836,0.00007024,0.000024
 18,0.00005052,0.00000027,0.00001849,0.00002311,-0.00001750,0.00001509,
 -0.00001340,0.00001242,0.00000083,-0.00000684,-0.00003458,0.00001547,-
 0.00001504,-0.00004621,-0.00002890,0.00003755,0.00003158,0.00003184,0.
 00001125,-0.04579006,0.49450120,-0.00381660,0.00201461,0.00709234,-0.0
 0024862,0.00048810,-0.00174123,0.00041799,-0.00050505,0.00045372,0.000
 00812,0.00003984,0.00014962,0.00067876,-0.00006441,-0.00001900,-0.0001
 0945,0.00004194,0.00001316,0.00009921,0.00001400,0.00016887,0.00008459
 ,0.00005173,0.00016179,-0.00008107,0.00001970,-0.00017904,0.00035847,-
 0.00007152,-0.00026303,-0.00006244,0.00006272,0.00007414,-0.00007571,0
 .00005174,0.00004918,0.00016799,-0.00013420,-0.00016030,-0.00000420,-0
 .00067859,0.00003510,0.00006194,-0.00000695,-0.00009468,-0.00011943,-0
 .00004289,0.00017848,-0.00002302,-0.00002920,0.00001558,0.00003424,-0.
 00001684,-0.00001183,0.00001127,-0.00000309,-0.00000616,0.00000432,-0.
 00000078,-0.00000380,-0.00002355,-0.00006464,-0.00004949,-0.03495172,-
 0.02189208,0.46028758,0.00000642,0.00018006,-0.00019295,0.00017577,0.0
 0000100,-0.00017580,-0.00006504,-0.00003829,0.00008314,0.00016339,0.00
 009531,-0.00022285,-0.00015519,-0.00005070,-0.00012620,-0.00024398,-0.
 00001882,0.00012735,0.00019102,0.00025858,0.00008873,0.00002110,-0.000
 21818,-0.00013022,-0.00008371,-0.00004603,-0.00014792,0.00025650,0.000
 01304,0.00030927,-0.00000014,-0.00000097,0.00000210,-0.00000018,0.0000
 0574,-0.00000812,0.00001707,0.00000272,-0.00002785,-0.00021166,-0.0001
 3269,0.00010027,-0.00004207,0.00004552,0.00013127,-0.00000902,0.000027
 38,0.00009203,0.00003584,-0.00004861,-0.00003594,-0.00001986,0.0000210
 2,0.00000447,-0.00008812,0.00000522,0.00000531,-0.00003728,-0.00003555
 ,0.00009306,0.00001561,-0.00006790,-0.00012760,-0.07630268,-0.00899801
 ,-0.00048755,0.60742024,0.00080190,-0.00053521,-0.00068986,0.00029209,
 -0.00030356,0.00021958,-0.00014136,0.00012646,-0.00022012,-0.00009939,
 0.00008195,-0.00006150,0.00008039,0.00020308,0.00009785,-0.00000366,-0
 .00015390,0.00007097,-0.00005419,-0.00004989,-0.00004005,-0.00001960,0
 .00009293,-0.00015826,0.00015355,-0.00009156,0.00007511,-0.00010573,-0
 .00000223,-0.00012783,0.00001086,-0.00002036,-0.00000238,0.00001844,-0
 .00001262,-0.00001582,-0.00005360,0.00006532,0.00007336,0.00001441,-0.
 00004713,-0.00000653,-0.00002548,-0.00002264,0.00002135,0.00000279,0.0
 0007196,-0.00002935,0.00001340,-0.00001344,0.00002937,-0.00002282,-0.0
 0000123,-0.00000573,-0.00002903,0.00000061,0.00000890,-0.00007078,-0.0
 0002830,0.00000905,-0.00001696,0.00008648,0.00013223,-0.01064787,-0.15
 453996,-0.03023150,-0.00501516,0.41849478,-0.00032863,0.00017313,0.000
 23536,-0.00015530,0.00015345,0.00005912,0.00003832,-0.00007349,0.00006
 861,-0.00002235,-0.00007137,-0.00001991,-0.00015735,-0.00017361,0.0000
 8978,0.00012971,0.00001202,-0.00000011,-0.00002362,0.00003587,-0.00008
 018,0.00003436,0.00006502,-0.00008791,0.00010255,-0.00003869,0.0001356
 5,-0.00011069,0.00017913,0.00011837,-0.00001003,0.00000594,0.00001323,
 -0.00000564,0.00000974,0.00001461,0.00002846,-0.00001306,-0.00002570,0
 .00008643,0.00009061,-0.00007371,0.00001331,0.00000404,-0.00003002,0.0
 0001309,-0.00002859,-0.00000330,-0.00000783,-0.00001021,-0.00001484,0.
 00001404,-0.00000368,0.00001119,-0.00004440,0.00000915,0.00000314,0.00
 000074,-0.00001001,0.00004303,-0.00000793,-0.00000818,-0.00009089,-0.0
 0053853,-0.03397907,-0.08460948,0.01847192,0.03279873,0.54502662,-0.04
 036896,0.02190806,0.06065008,-0.00082958,0.00182190,-0.00565721,0.0019
 6701,-0.00300324,0.00455460,0.00157032,-0.00026409,-0.00043889,-0.0010
 9096,-0.00272554,-0.00077134,0.00055428,0.00070240,0.00049381,0.000257
 71,0.00003932,0.00058099,0.00034805,-0.00011273,0.00044852,-0.00020654
 ,-0.00006257,-0.00006565,0.00053571,0.00067514,0.00043626,-0.00040124,
 0.00040819,0.00024334,-0.00041370,0.00045252,0.00036607,0.00113360,-0.
 00080080,-0.00177274,-0.00000935,0.00027246,0.00096448,0.00021045,0.00
 008247,-0.00047814,-0.00038484,-0.00078946,0.00055275,0.00001806,-0.00
 008793,-0.00018442,0.00019092,-0.00002065,0.00009387,0.00011384,0.0000
 0241,0.00003972,0.00019707,0.00010509,-0.00002309,-0.00034722,-0.00059
 787,-0.00021710,-0.09779386,0.00094551,-0.05244170,-0.00767513,-0.0095
 5775,-0.01014558,0.44601593,0.02415152,-0.01255438,-0.03408240,0.00150
 175,-0.00068988,0.00241180,-0.00133447,0.00122476,-0.00255614,-0.00135
 231,-0.00057900,0.00017048,0.00009432,0.00131680,0.00071674,-0.0001097
 4,-0.00031037,-0.00023356,-0.00014798,-0.00009164,-0.00033867,-0.00025
 308,0.00011094,-0.00028256,0.00017214,0.00002982,0.00008804,-0.0003394
 4,-0.00066183,-0.00036191,0.00033980,-0.00028700,-0.00018800,0.0001883
 3,-0.00018748,-0.00014665,-0.00054233,0.00063779,0.00096131,0.00050698
 ,-0.00015629,-0.00086163,-0.00016043,-0.00017859,0.00019882,0.00033397
 ,0.00066228,-0.00064298,0.00001432,0.00003938,0.00014939,-0.00011170,0
 .00001879,-0.00004487,-0.00004659,-0.00000036,-0.00003008,-0.00012180,
 -0.00006797,-0.00001175,0.00011784,0.00047664,0.00018278,0.00207594,-0
 .07303534,0.01159704,-0.01468657,-0.00366301,-0.01973391,0.11871090,0.
 47925810,0.06400276,-0.03240979,-0.09779288,0.00279467,-0.00291540,0.0
 1189420,-0.00380058,0.00475268,-0.00700391,-0.00363543,0.00032491,0.00
 038286,0.00206859,0.00298867,0.00107928,-0.00070607,-0.00067496,-0.001
 46060,-0.00027790,-0.00000686,-0.00065426,-0.00042305,0.00001922,-0.00
 044726,0.00004821,0.00003130,-0.00019446,-0.00039578,-0.00174139,-0.00
 084362,0.00075321,-0.00066939,-0.00051509,0.00051749,-0.00059194,-0.00
 049936,-0.00156371,0.00140477,0.00277007,0.00043654,0.00021236,-0.0008
 5541,-0.00015458,-0.00041554,0.00018874,0.00051939,0.00148822,-0.00081
 713,0.00004169,0.00007262,0.00037974,-0.00023305,0.00003251,-0.0001005
 5,-0.00014485,-0.00000205,-0.00003748,-0.00025988,-0.00012714,0.000012
 62,0.00050896,0.00101888,0.00041027,-0.04031929,0.00489290,-0.13475151
 ,-0.01591958,-0.01457308,-0.01559362,0.09443552,-0.02149985,0.32059383
 ,0.00060333,-0.00031780,-0.00130844,0.00045923,-0.00000652,-0.00025068
 ,-0.00012138,-0.00006945,0.00004179,0.00026189,0.00014027,-0.00049971,
 -0.00135376,0.00020844,0.00161018,-0.00126083,0.00068406,0.00067631,0.
 00013904,0.00028175,0.00015820,0.00018013,-0.00013538,-0.00037158,0.00
 036921,-0.00005277,0.00024655,-0.00094974,0.00003710,0.00087616,-0.000
 02041,-0.00001027,0.00002029,0.00002575,0.00000161,-0.00003616,0.00001
 373,-0.00000063,-0.00002785,-0.00035162,-0.00039839,0.00007131,-0.0000
 6649,0.00005067,0.00019820,-0.00004508,0.00006135,0.00015344,0.0001499
 2,-0.00006994,-0.00009919,0.00001056,-0.00001012,-0.00001276,0.0000298
 9,-0.00000482,-0.00002729,-0.00001827,0.00000023,-0.00001851,0.0000800
 7,0.00003493,-0.00005877,-0.24900512,0.09430651,0.05002028,0.00495414,
 -0.00368430,-0.00179279,-0.01405586,0.00551692,-0.00178630,0.27373832,
 -0.00010951,-0.00019556,0.00032737,0.00001108,0.00029894,-0.00013012,0
 .00000089,-0.00005596,-0.00009225,0.00006348,-0.00012341,-0.00022836,0
 .00069876,0.00042881,-0.00060773,0.00049810,-0.00033429,-0.00029338,0.
 00014915,0.00007131,0.00008010,-0.00014917,-0.00017173,0.00009504,-0.0
 0044596,-0.00023962,-0.00036981,0.00036092,-0.00006594,-0.00002896,-0.
 00001380,0.00000226,0.00005261,-0.00001283,-0.00000688,-0.00000831,-0.
 00000565,0.00000909,0.00002620,-0.00024513,-0.00031157,-0.00004748,-0.
 00003424,0.00001676,0.00007115,0.00000538,0.00001283,0.00002608,-0.000
 01673,-0.00013924,0.00000464,0.00001052,-0.00000682,0.00000469,-0.0000
 0783,-0.00000928,0.00001501,-0.00000607,-0.00000012,0.00000800,0.00000
 060,-0.00003451,0.00005966,0.09293099,-0.08749184,-0.02236057,0.026286
 74,-0.01469257,-0.00951939,0.00137840,-0.00032537,0.00144978,-0.099545
 10,0.10022014,-0.00041038,0.00048143,0.00166143,-0.00045762,-0.0000522
 9,-0.00118733,0.00025652,-0.00021738,0.00027109,0.00006440,-0.00005816
 ,-0.00011862,0.00109761,-0.00059329,-0.00096160,0.00090200,-0.00037423
 ,0.00015495,-0.00012777,-0.00009451,-0.00022644,-0.00018407,-0.0000627
 9,-0.00005545,-0.00002193,-0.00001495,-0.00000079,0.00059124,0.0005595
 9,-0.00046621,-0.00003539,0.00003613,0.00003472,-0.00003558,0.00004692
 ,0.00008183,0.00006913,-0.00005839,-0.00008771,-0.00012627,-0.00027876
 ,0.00009497,0.00002005,0.00008218,0.00003630,-0.00001027,-0.00002648,0
 .00008246,-0.00007076,0.00006991,0.00004615,-0.00005261,0.00003145,-0.
 00000698,-0.00003579,-0.00000438,-0.00000056,-0.00000834,-0.00002029,-
 0.00001084,-0.00004509,-0.00003805,-0.00003333,0.04565571,-0.02046383,
 -0.05532907,0.00951637,-0.00666970,-0.00392561,-0.02483079,0.01169982,
 0.00436634,-0.05268626,0.02406028,0.07015400,0.00064696,-0.00074124,-0
 .00176601,0.00038763,-0.00007047,0.00076345,-0.00022063,0.00024078,-0.
 00033487,-0.00014300,0.00004036,-0.00012644,0.00025627,0.00026102,0.00
 018251,-0.00012706,-0.00012746,-0.00002637,0.00001707,-0.00013854,0.00
 010673,-0.00011348,0.00006011,-0.00011495,0.00012209,-0.00012553,0.000
 00602,-0.00010807,0.00006449,-0.00066029,0.00001085,-0.00002638,0.0000
 2498,0.00000925,-0.00004631,-0.00006412,-0.00009041,0.00007355,0.00013
 901,0.00004402,-0.00002935,0.00002736,-0.00003084,-0.00005956,-0.00001
 912,-0.00000742,0.00007474,0.00000181,0.00001838,-0.00005185,0.0000490
 4,0.00000189,-0.00003694,0.00000539,0.00004123,-0.00000836,0.00002474,
 -0.00018712,-0.00004074,-0.00001927,0.00000481,0.00010734,0.00052403,0
 .00089248,0.00152650,-0.00060043,-0.07654806,0.00972712,-0.00438701,0.
 00365812,-0.00975638,-0.00213286,-0.00018987,0.00017462,-0.00004039,0.
 52110157,0.00032870,-0.00020062,-0.00039052,0.00015283,-0.00019695,0.0
 0024695,-0.00009928,0.00015610,-0.00011124,-0.00007640,0.00001882,0.00
 003727,0.00004895,0.00019242,-0.00013122,-0.00000602,0.00003682,0.0000
 4324,-0.00002992,-0.00010032,0.00003042,-0.00003355,0.00006501,0.00006
 593,-0.00004607,-0.00007476,-0.00005916,0.00027782,-0.00022017,-0.0003
 3244,0.00003388,-0.00000893,-0.00002356,0.00001584,-0.00001762,0.00000
 196,-0.00005111,0.00004741,0.00005330,-0.00004106,0.00002880,-0.000089
 90,-0.00001059,0.00001066,0.00005021,0.00006300,0.00003279,-0.00007026
 ,0.00000985,0.00000874,-0.00000354,0.00000322,0.00000441,-0.00001945,0
 .00002542,-0.00000812,-0.00000344,0.00009348,0.00003123,-0.00001162,0.
 00011888,-0.00020340,0.00013900,-0.00459470,-0.03133709,0.02225059,0.0
 0471830,-0.10680603,0.04943357,-0.02664469,-0.03397862,-0.01136258,0.0
 0012870,0.00019866,-0.00027258,-0.01344838,0.60656437,0.00021160,-0.00
 008339,-0.00013555,0.00001290,-0.00011220,0.00002241,0.00003526,0.0000
 3176,-0.00004165,-0.00003370,0.00001627,0.00004360,-0.00013343,-0.0001
 5933,0.00002756,0.00002074,0.00005563,-0.00009564,0.00000903,0.0001479
 5,-0.00012332,0.00006044,-0.00006961,0.00011748,-0.00009768,0.00007224
 ,0.00003205,-0.00010415,0.00011079,0.00022232,0.00000921,-0.00000948,-
 0.00002825,0.00000892,0.00001294,0.00003234,-0.00001170,0.00000678,0.0
 0000501,0.00002012,0.00001688,0.00000107,0.00001616,0.00000442,-0.0000
 1607,0.00000868,0.00001189,-0.00002387,-0.00002151,0.00004560,-0.00000
 236,-0.00001167,0.00002433,-0.00001474,-0.00003135,0.00000189,-0.00001
 233,0.00019126,0.00003244,-0.00002787,0.00002545,-0.00003193,-0.000260
 77,0.00010509,0.00546081,0.00543687,-0.00186744,0.05459901,-0.15388999
 ,-0.00326827,-0.00812982,0.00010412,-0.00018279,-0.00023809,0.00002317
 ,-0.07363303,0.02762947,0.46278572,0.00009178,-0.00001266,-0.00000645,
 -0.00004638,-0.00005568,-0.00011810,0.00002726,0.00000114,0.00000966,-
 0.00000940,0.00000305,0.00002862,-0.00002905,-0.00003420,-0.00000782,0
 .00000060,0.00000698,-0.00000167,-0.00001042,-0.00003859,0.00003019,0.
 00001780,-0.00000364,0.00011606,-0.00004331,0.00010693,0.00003526,-0.0
 0004407,0.00001243,-0.00003891,0.00000376,-0.00000121,-0.00000874,0.00
 000562,0.00000575,0.00001772,-0.00000273,0.00000249,-0.00000157,-0.000
 00663,-0.00001994,-0.00001579,0.00001248,0.00000002,0.00000392,-0.0000
 0366,0.00000575,-0.00001229,0.00000363,0.00001314,-0.00000669,-0.00000
 170,0.00001000,-0.00001547,0.00001354,-0.00001224,-0.00001668,0.000048
 57,0.00000967,-0.00003708,0.00000578,-0.00000307,-0.00003858,0.0021128
 4,-0.00026320,-0.00270805,-0.18026857,0.04465051,0.11623877,-0.0001672
 1,0.00000569,0.00025537,0.00119593,-0.00048868,0.00009452,0.00110531,-
 0.00141153,-0.00153536,0.19183718,-0.00029083,0.00019973,0.00036356,-0
 .00011348,0.00009035,0.00002448,0.00004993,-0.00005091,0.00007078,-0.0
 0004405,-0.00005715,0.00010821,0.00002564,-0.00004816,-0.00001129,0.00
 013079,0.00006382,-0.00009122,-0.00005344,-0.00003070,-0.00007486,0.00
 002041,0.00003797,0.00004026,-0.00000767,-0.00000607,0.00002030,0.0000
 0878,-0.00007621,0.00006746,0.00000060,0.00000981,-0.00000136,-0.00000
 989,0.00000318,0.00000792,0.00002143,-0.00001718,-0.00002258,0.0000793
 6,0.00008137,-0.00005690,0.00001688,-0.00000796,-0.00005553,0.00001551
 ,-0.00002887,-0.00003210,-0.00002412,0.00001971,0.00000347,0.00000954,
 -0.00000078,0.00000939,0.00000860,0.00000508,0.00000247,0.00004173,0.0
 0002230,-0.00000050,-0.00000328,-0.00002777,-0.00007887,0.02222364,-0.
 01205189,-0.01945329,0.04494941,-0.05889304,-0.04178494,0.00004975,-0.
 00060400,0.00153325,-0.00146552,-0.00507075,-0.00246302,-0.01577672,0.
 00357081,0.01474637,-0.04877020,0.07063767,-0.00018134,-0.00002814,0.0
 0011055,-0.00000402,0.00004790,0.00004940,-0.00000259,-0.00000090,-0.0
 0000231,-0.00002560,-0.00000776,0.00000846,0.00012511,0.00001817,0.000
 01068,0.00002424,0.00001710,-0.00002609,-0.00002131,-0.00005162,0.0000
 0305,-0.00001245,0.00000888,0.00001639,-0.00001653,-0.00002491,-0.0000
 1517,-0.00000724,-0.00003838,-0.00012526,0.00000064,0.00000268,0.00000
 186,-0.00000598,-0.00000258,-0.00000481,0.00000641,-0.00000333,0.00000
 072,0.00001229,0.00002655,0.00000022,0.00000282,-0.00000276,-0.0000119
 1,0.00000513,-0.00000754,-0.00000326,-0.00000370,-0.00000385,0.0000084
 1,0.00000491,-0.00000627,0.00000590,0.00001631,-0.00000123,0.00000778,
 -0.00002607,0.00000637,-0.00001176,-0.00002226,0.00001041,0.00010585,0
 .00728948,-0.00261577,-0.00552661,0.11565022,-0.04191573,-0.15408311,-
 0.00021589,-0.00037347,0.00028400,-0.00054653,-0.00097259,-0.00028736,
 0.02030029,-0.00544584,-0.01822509,-0.13002003,0.04340913,0.16806470,-
 0.00008754,0.00007978,0.00023449,-0.00012717,0.00005261,-0.00007625,0.
 00004620,-0.00002841,0.00006748,0.00003862,-0.00001389,0.00004035,0.00
 007775,-0.00003679,-0.00007058,0.00001300,0.00002739,-0.00003381,-0.00
 001140,-0.00001650,0.00000918,-0.00001285,0.00002142,0.00000297,0.0000
 0937,-0.00008262,-0.00008951,0.00016632,-0.00007791,-0.00010095,-0.000
 00577,0.00000840,-0.00000157,-0.00000806,0.00000987,0.00001097,0.00002
 299,-0.00002229,-0.00002686,-0.00000895,0.00000747,-0.00001557,0.00000
 330,0.00001452,0.00000153,0.00001064,-0.00003314,-0.00000415,-0.000007
 43,0.00000066,-0.00000336,0.00001928,-0.00001086,0.00000101,0.00002117
 ,-0.00000196,-0.00000292,0.00000204,-0.00000551,-0.00000788,-0.0000356
 0,-0.00001086,0.00003252,-0.00207416,0.00177895,-0.00001850,-0.2592082
 9,-0.02600390,-0.10676391,0.00052258,0.00019321,0.00083476,0.00129357,
 -0.00016271,0.00019689,0.00008454,-0.00016876,0.00138349,-0.02015029,-
 0.00232583,-0.00991282,0.27713065,-0.00019949,0.00021088,0.00019176,-0
 .00018051,0.00007078,-0.00012994,0.00006538,-0.00003297,0.00011246,0.0
 0004682,0.00000342,0.00005349,-0.00001850,-0.00010974,-0.00005755,0.00
 000874,-0.00000874,-0.00000810,-0.00003020,-0.00004965,0.00004679,0.00
 002630,0.00002525,0.00012039,-0.00001401,0.00012202,-0.00001806,-0.000
 01850,-0.00000159,0.00001716,-0.00000219,0.00000887,-0.00001140,-0.000
 00458,0.00001198,0.00002022,0.00002798,-0.00002738,-0.00003835,-0.0000
 3470,0.00001245,-0.00000873,0.00001073,0.00001987,0.00001360,0.0000110
 7,-0.00002887,0.00000227,-0.00000663,0.00000982,-0.00001496,0.00001395
 ,-0.00000851,-0.00000578,0.00002158,0.00000307,-0.00001622,-0.00000732
 ,-0.00002183,0.00001969,-0.00001152,-0.00002765,-0.00001340,-0.0256624
 7,-0.00290300,-0.01359171,-0.02498000,-0.04894232,-0.01201281,-0.00180
 115,-0.00421084,-0.00088132,0.00012553,0.00172761,0.00038503,0.0182023
 8,0.00342409,0.00726145,0.00692822,0.00051720,0.00376039,0.02749010,0.
 05264778,-0.00013702,0.00013934,0.00052090,-0.00032228,0.00011944,-0.0
 0030959,0.00011630,-0.00008020,0.00016171,0.00007727,-0.00001171,0.000
 06686,-0.00004628,-0.00018456,-0.00003098,0.00005291,0.00005830,-0.000
 01002,0.00002321,-0.00003812,0.00002708,0.00007596,-0.00005194,0.00020
 234,-0.00007449,0.00013366,0.00009885,-0.00014517,0.00007723,-0.000076
 85,-0.00001163,0.00001613,-0.00001664,-0.00000423,0.00002775,0.0000383
 4,0.00004183,-0.00004115,-0.00006003,-0.00003891,0.00000125,-0.0000013
 2,0.00001955,0.00003269,0.00001611,0.00000740,-0.00004511,0.00000125,-
 0.00000604,0.00002268,-0.00001394,0.00000509,0.00001890,-0.00000958,0.
 00002172,-0.00001606,-0.00001062,0.00009429,0.00004243,-0.00007136,-0.
 00003419,-0.00003579,-0.00002343,-0.00630383,-0.00027163,-0.00441070,-
 0.10351787,-0.01213290,-0.09880067,-0.00133939,-0.00036071,-0.00045012
 ,0.00001137,0.00019221,0.00036155,-0.02178913,-0.00492248,-0.00967838,
 0.01861016,0.00253617,0.01021382,0.11600934,0.01446771,0.10777465,0.00
 668487,-0.00348190,-0.01138182,0.00037678,-0.00073854,0.00311958,-0.00
 085376,0.00116765,-0.00151134,-0.00051085,0.00009403,0.00010774,0.0004
 0913,0.00069897,0.00027431,-0.00014826,-0.00023471,-0.00019600,-0.0000
 5276,-0.00001644,-0.00014549,-0.00009333,-0.00002175,-0.00005803,-0.00
 009491,-0.00001923,-0.00009644,-0.00008108,-0.00006818,-0.00025572,0.0
 0012320,-0.00013179,-0.00009971,0.00012077,-0.00010317,-0.00010274,-0.
 00038599,0.00031827,0.00060539,-0.00003638,0.00005163,-0.00028854,-0.0
 0006758,-0.00000012,0.00015766,0.00013393,0.00027147,-0.00016669,0.000
 01205,0.00000915,0.00005789,-0.00004315,0.00001015,-0.00002466,-0.0000
 4163,-0.00000479,-0.00000545,-0.00003025,-0.00002871,-0.00000486,0.000
 07514,0.00015614,0.00020441,-0.00076439,0.01184242,-0.00443503,-0.0074
 8661,0.00140607,-0.01376539,-0.06866453,0.01580096,-0.01620707,-0.0007
 2394,-0.00018170,-0.00078106,-0.14430470,-0.03505262,-0.03863774,0.000
 56295,-0.00038000,0.00103446,0.00101451,-0.00014806,-0.00008440,0.5206
 9041,-0.00320094,0.00219306,0.00570632,0.00007560,0.00033834,-0.001220
 96,0.00024809,-0.00035842,0.00028568,-0.00005515,0.00005562,-0.0000737
 2,0.00004102,-0.00000058,-0.00000452,0.00002151,-0.00004696,0.00008432
 ,-0.00003161,-0.00004370,-0.00000167,0.00001653,0.00003172,-0.00005338
 ,0.00002369,-0.00005098,0.00000538,0.00002371,0.00004542,-0.00006178,-
 0.00003046,0.00001693,0.00004213,-0.00002483,0.00001686,0.00001021,0.0
 0006076,-0.00003346,-0.00012918,0.00001090,-0.00009009,0.00010249,-0.0
 0000163,-0.00001309,-0.00002789,-0.00004493,0.00003392,0.00005878,0.00
 001715,-0.00003011,0.00000949,-0.00000275,-0.00000361,0.00000344,-0.00
 001619,0.00000084,0.00000843,-0.00003692,-0.00001286,0.00000153,0.0000
 2176,0.00002485,0.00004584,0.00890453,-0.00740376,0.01334161,0.0073700
 1,0.00301166,0.00410687,0.01595525,-0.17891220,0.02362415,-0.00018775,
 -0.00047266,0.00003449,-0.03814851,-0.09231087,-0.02796026,0.00020158,
 0.00027042,-0.00011939,0.00032662,-0.00289197,0.00202329,-0.03947083,0
 .43182047,-0.00376316,0.00205316,0.00621908,-0.00034381,0.00024243,-0.
 00182686,0.00048697,-0.00066320,0.00112715,0.00041806,-0.00008552,0.00
 003360,-0.00044341,-0.00035661,-0.00024158,0.00010498,0.00004704,0.000
 32009,0.00002861,-0.00003054,0.00015079,0.00004672,0.00001776,0.000024
 15,0.00002966,0.00005906,-0.00003820,0.00011175,0.00008741,0.00017115,
 -0.00003178,0.00010255,0.00004587,-0.00007714,0.00003808,0.00007304,0.
 00023729,-0.00018351,-0.00041645,-0.00011705,0.00005489,-0.00012016,0.
 00000518,0.00004012,0.00006579,0.00002605,-0.00016142,-0.00004313,-0.0
 0000523,-0.00002090,-0.00007109,0.00003391,-0.00002078,0.00000897,0.00
 003357,0.00000504,0.00000438,-0.00004619,0.00000023,0.00001620,0.00001
 803,-0.00009937,0.00005323,-0.01477678,0.02269237,-0.00785156,-0.03222
 492,-0.00198231,-0.02818829,-0.00879891,0.01039987,-0.06347970,-0.0012
 0394,0.00071296,-0.00352430,-0.03610571,-0.02108103,-0.09916174,-0.000
 07628,-0.00070100,0.00084558,-0.00043095,0.00330256,-0.00482169,-0.007
 75147,-0.03226351,0.59437374,0.03093634,-0.02171444,-0.05914415,-0.007
 42958,0.00756202,0.01520769,-0.00361065,0.00421496,-0.00768001,-0.0023
 8994,-0.00046835,-0.00000446,0.00144963,0.00220774,0.00144861,-0.00082
 572,-0.00044743,-0.00105660,0.00009324,0.00019729,-0.00022875,-0.00028
 654,-0.00013190,-0.00015031,-0.00010349,-0.00005183,-0.00044980,-0.000
 18305,-0.00122343,-0.00059830,0.00061279,-0.00062286,-0.00036779,0.000
 59024,-0.00047465,-0.00027222,-0.00111136,0.00123225,0.00279422,0.0006
 5159,0.00036437,-0.00094592,-0.00009093,-0.00035141,0.00006805,0.00036
 818,0.00085030,-0.00061513,0.00000520,0.00003208,0.00033440,-0.0001384
 1,-0.00000090,-0.00006940,-0.00007999,-0.00003164,-0.00001962,-0.00018
 651,-0.00006385,0.00004992,-0.00006281,0.00044195,0.00046544,0.0014779
 6,-0.00288676,-0.00296035,-0.00065097,-0.00099398,0.00019873,-0.003887
 05,-0.01953136,-0.03992263,-0.00062997,0.00029534,-0.00013593,-0.00119
 659,-0.00098563,-0.00019391,0.00000591,0.00054729,0.00020953,0.0002298
 5,0.00024823,0.00041146,-0.01427952,0.00853351,0.00922866,0.01208244,-
 0.02142419,0.00082540,0.03854868,0.00805578,-0.00521667,-0.01427901,0.
 00262770,-0.00354042,0.00442292,0.00168566,-0.00005889,-0.00079685,-0.
 00075276,-0.00116529,0.00010012,0.00028955,0.00034069,0.00031080,0.000
 15936,-0.00003144,0.00033906,0.00011853,-0.00013887,0.00020868,-0.0000
 6760,-0.00008962,-0.00013598,-0.00006396,0.00072913,-0.00003467,-0.000
 34135,0.00043511,0.00023488,-0.00033176,0.00029794,0.00021473,0.001037
 19,-0.00058567,-0.00184484,-0.00012274,-0.00057003,0.00110698,-0.00005
 603,-0.00015890,-0.00035153,-0.00048382,-0.00003816,0.00045169,0.00007
 678,-0.00011455,-0.00009561,0.00008927,-0.00000264,0.00005456,0.000046
 32,-0.00000160,0.00004115,0.00006511,0.00001831,-0.00001853,-0.0003452
 1,-0.00030996,0.00010627,0.00007796,0.00136142,-0.00073095,-0.00021547
 ,0.00032761,-0.00014055,-0.01213747,-0.01677613,0.01959246,0.00066139,
 0.00054922,-0.00029335,0.00112663,0.00067030,-0.00007920,0.00002728,-0
 .00026553,0.00006771,-0.00013533,-0.00022128,-0.00026751,0.01842380,-0
 .01428512,-0.01625703,0.00895706,0.04402125,-0.05821875,0.03859604,0.0
 6107673,0.00236199,-0.00581483,-0.00631765,0.00355123,-0.00452290,0.01
 051125,0.00398999,0.00095222,-0.00002171,-0.00253506,-0.00351144,-0.00
 170298,0.00071062,0.00094273,0.00100105,0.00021107,0.00004995,0.000605
 49,0.00056582,-0.00019364,0.00056791,-0.00027304,0.00006806,0.00011133
 ,0.00047293,0.00143534,0.00086084,-0.00099074,0.00088235,0.00047565,-0
 .00067488,0.00078636,0.00040838,0.00175866,-0.00154260,-0.00333737,-0.
 00051791,-0.00005780,0.00135455,0.00003359,0.00005837,-0.00052138,-0.0
 0074138,-0.00120139,0.00075536,0.00003943,-0.00011957,-0.00040503,0.00
 024104,-0.00000416,0.00014645,0.00015926,0.00004092,0.00005492,0.00029
 106,0.00014080,-0.00002721,-0.00020838,-0.00083902,-0.00040853,0.00807
 026,-0.00201207,-0.02348684,-0.00055753,0.00189213,-0.00160377,-0.0380
 0023,0.02899283,0.04120257,0.00187159,-0.00040645,-0.00203153,0.002585
 43,0.00126911,0.00004525,0.00017559,-0.00064510,-0.00014587,-0.0004941
 1,-0.00075461,-0.00090417,0.01576650,-0.00659434,-0.00849555,0.0616413
 4,-0.03332885,-0.05327770,0.00402798,-0.00148332,-0.00415384,-0.000192
 98,-0.00029960,0.00078609,-0.00019530,0.00035234,-0.00068687,-0.000357
 98,-0.00009896,0.00023774,0.00003439,0.00033861,0.00002192,-0.00003236
 ,-0.00013549,0.00001383,-0.00003380,-0.00000455,-0.00005305,-0.0000100
 5,0.00004129,-0.00002646,0.00002064,0.00006452,0.00002780,-0.00004586,
 -0.00015971,0.00000294,0.00009210,-0.00005911,-0.00008186,0.00004513,-
 0.00001690,0.00003696,-0.00014178,0.00014277,0.00023110,-0.00028605,0.
 00024604,-0.00047207,-0.00003946,0.00014215,0.00024616,0.00026835,0.00
 013704,-0.00025147,-0.00001553,0.00004302,-0.00001542,-0.00001500,0.00
 000924,-0.00001066,-0.00000885,0.00000276,-0.00000853,-0.00000784,-0.0
 0001554,-0.00000704,0.00003100,0.00008660,-0.00001289,-0.00844126,-0.0
 0765926,0.00230744,-0.00128166,0.00076727,-0.00074402,-0.21672283,-0.1
 3571598,-0.02756168,-0.00111073,0.00011653,-0.00159195,0.00016890,0.00
 162640,-0.00065973,-0.00002282,-0.00014128,-0.00007755,0.00004272,-0.0
 0054795,-0.00016098,0.00680071,0.00689698,0.00152972,-0.01657793,-0.00
 539542,0.00805969,0.23015818,-0.00239327,0.00207558,0.00454459,-0.0002
 0013,0.00049511,-0.00077077,0.00028620,-0.00031808,0.00052462,0.000260
 07,0.00000639,0.00005255,-0.00001781,-0.00036910,-0.00011990,0.0000365
 3,0.00012027,0.00004336,0.00003006,0.00000302,0.00006396,0.00003596,0.
 00000003,0.00005210,-0.00002513,-0.00000156,0.00005209,-0.00000469,0.0
 0013218,0.00008284,-0.00006835,0.00004908,0.00004752,-0.00004704,0.000
 04117,0.00002835,0.00011701,-0.00014555,-0.00019650,0.00008647,-0.0002
 0662,0.00012410,-0.00001545,0.00002654,-0.00005452,-0.00006370,-0.0000
 9306,0.00008560,-0.00000454,0.00000507,-0.00003553,0.00002127,0.000000
 46,0.00000898,0.00002282,0.00000029,0.00000163,0.00004809,0.00001899,-
 0.00001144,-0.00002917,-0.00011593,-0.00008469,0.00333302,0.00389047,0
 .00049368,0.00026520,-0.00081227,0.00128552,-0.12849988,-0.13757933,-0
 .00354250,0.00041582,-0.00041341,-0.00000832,0.00176529,-0.00550879,0.
 00061850,0.00009119,0.00006995,-0.00009039,-0.00011293,0.00018997,-0.0
 0016408,-0.02313407,-0.01233612,-0.00313580,0.00774869,0.00020663,-0.0
 0762816,0.14094142,0.15001787,-0.00522268,0.00329840,0.00710355,-0.000
 53547,0.00047850,-0.00151430,0.00059928,-0.00055513,0.00109710,0.00069
 726,0.00016482,0.00017624,-0.00009671,-0.00052278,-0.00016977,-0.00002
 571,0.00015588,0.00008693,0.00008872,0.00006497,0.00015477,0.00007262,
 -0.00004187,0.00009772,-0.00002499,-0.00002413,0.00002920,0.00003692,0
 .00028312,0.00008589,-0.00011918,0.00009491,0.00007140,-0.00008444,0.0
 0005366,0.00003014,0.00021713,-0.00026273,-0.00039713,-0.00006305,-0.0
 0020133,0.00028261,0.00000417,-0.00003038,-0.00015719,-0.00018863,-0.0
 0025798,0.00016972,-0.00000181,-0.00001540,-0.00004914,0.00003328,-0.0
 0000720,0.00001478,0.00003764,-0.00000359,0.00000598,0.00003486,0.0000
 2499,-0.00001334,-0.00008247,-0.00017212,-0.00005353,-0.01907971,-0.01
 246768,-0.00051631,-0.00214199,0.00001549,-0.00198486,-0.01933693,0.00
 068129,-0.03478556,-0.00139579,-0.00032032,-0.00218446,-0.00086255,0.0
 0105312,-0.00073249,0.00008498,-0.00037177,-0.00021312,-0.00005315,-0.
 00098653,-0.00048571,0.00581678,0.00001357,0.00129845,0.02077110,0.003
 50362,-0.01281402,0.02233246,0.00828861,0.04289395,-0.00027687,0.00041
 346,0.00054906,-0.00004837,-0.00008383,-0.00013616,0.00006132,-0.00006
 971,0.00007484,0.00001376,0.00002502,0.00002104,-0.00008992,0.00002791
 ,-0.00004945,0.00007920,-0.00005355,0.00000498,-0.00001875,0.00005311,
 -0.00005473,0.00005459,-0.00006372,-0.00001839,-0.00009129,0.00023306,
 0.00002589,-0.00052368,0.00040604,0.00062478,0.00000009,0.00000305,-0.
 00000610,-0.00000070,0.00001013,0.00002097,0.00002057,-0.00001416,-0.0
 0003544,-0.00000943,0.00001103,-0.00001971,0.00000837,0.00001454,0.000
 01000,0.00000673,-0.00001136,-0.00000992,-0.00000608,0.00001601,-0.000
 01166,-0.00000657,0.00000441,0.00000109,-0.00001876,0.00000709,-0.0000
 0056,0.00000576,-0.00010030,-0.00000361,-0.00013170,0.00031669,0.00003
 890,0.00001898,-0.00027266,0.00011136,0.00421646,-0.00024677,-0.003261
 34,-0.00014346,0.00096714,0.00099001,-0.00004983,-0.00022907,0.0001094
 9,-0.22623366,0.01400429,0.11999410,0.00115782,0.00079235,-0.00128529,
 0.00092663,-0.00057203,0.00035881,-0.02251852,0.00218651,0.01263469,0.
 00046285,-0.00073637,-0.00098957,0.00024514,-0.00017026,-0.00031962,0.
 24875955,0.00014557,0.00027916,0.00007871,-0.00006619,-0.00008463,-0.0
 0002844,0.00004450,0.00001393,0.00003718,0.00001425,0.00004327,0.00003
 563,-0.00008236,-0.00021805,-0.00003606,-0.00002160,0.00001652,-0.0000
 5881,-0.00002190,0.00007094,-0.00003359,-0.00001783,-0.00003659,-0.000
 01252,0.00018640,0.00023049,0.00007056,0.00025509,-0.00033899,0.000105
 91,-0.00000362,0.00000127,-0.00001548,0.00000228,0.00001226,0.00002054
 ,-0.00000102,-0.00000651,-0.00001029,-0.00001407,-0.00001080,0.0000044
 7,0.00001014,0.00001304,0.00000794,-0.00000279,-0.00000134,-0.00000323
 ,-0.00000387,0.00002022,-0.00001600,-0.00001006,0.00000364,-0.00000697
 ,-0.00002019,0.00000774,-0.00002965,-0.00008323,-0.00001877,0.00000840
 ,0.00033312,-0.00003265,-0.00045475,-0.00007884,0.00098464,-0.00003388
 ,-0.01472281,0.00143519,0.00947002,0.00000052,0.00090607,0.00034345,0.
 00016311,-0.00018613,0.00009398,0.01584930,-0.05274167,-0.01123458,-0.
 00018033,-0.00143352,0.00278987,0.00019896,0.00087113,-0.00077575,-0.0
 1111760,0.00082961,0.00757167,-0.00016742,-0.00022958,-0.00026297,0.00
 016006,0.00002394,-0.00007616,-0.01513261,0.05115849,0.00004780,0.0001
 2213,-0.00028212,0.00023443,0.00000275,0.00014090,-0.00006502,0.000011
 12,-0.00003973,-0.00004160,0.00003543,-0.00005043,0.00000072,0.0002432
 4,-0.00010104,0.00002461,-0.00003158,0.00009646,-0.00006512,-0.0001172
 3,0.00000761,-0.00010044,0.00011943,-0.00020807,0.00013800,-0.00006425
 ,-0.00015790,0.00051891,-0.00052146,0.00001880,0.00000811,-0.00000260,
 0.00001133,-0.00000558,-0.00001428,-0.00003057,-0.00000976,0.00001513,
 0.00001672,0.00000174,-0.00000572,0.00000576,-0.00001780,-0.00001272,0
 .00000293,-0.00000353,0.00002160,0.00000923,0.00000275,-0.00002105,0.0
 0000063,-0.00000298,-0.00001770,0.00000845,-0.00000103,0.00001624,-0.0
 0000397,-0.00017253,-0.00002373,0.00009596,0.00042021,-0.00033113,-0.0
 0014596,-0.00020521,-0.00064087,0.00031580,0.02344951,-0.00258829,-0.0
 1811181,0.00030035,0.00072035,0.00005996,-0.00001842,0.00052667,0.0001
 2122,0.12022661,-0.01010216,-0.12345481,-0.00061129,0.00430584,-0.0039
 8535,-0.00033758,-0.00095656,0.00115656,-0.01638422,0.00110805,0.00944
 713,-0.00005433,0.00003517,0.00025417,0.00003870,0.00008483,-0.0000725
 4,-0.12892989,0.00992315,0.13801129,-0.00020812,0.00021924,0.00045255,
 -0.00010633,-0.00006955,-0.00015602,0.00005754,-0.00002843,0.00009191,
 0.00004326,-0.00001104,0.00003963,-0.00011379,-0.00015624,-0.00002412,
 0.00000521,0.00001647,-0.00002884,0.00000253,0.00007374,-0.00002810,0.
 00002226,-0.00005077,0.00004656,0.00002390,0.00017867,0.00004672,-0.00
 007231,0.00005147,0.00025937,-0.00000222,0.00000555,-0.00001589,0.0000
 0217,0.00001314,0.00002264,0.00001541,-0.00001306,-0.00003000,-0.00002
 008,0.00000280,-0.00003177,0.00000775,0.00002035,0.00001519,0.00001542
 ,-0.00001914,-0.00001467,-0.00000551,0.00001641,-0.00002158,0.00000077
 ,0.00000326,-0.00000479,-0.00001352,0.00000722,-0.00001918,0.00000788,
 -0.00001370,0.00000151,0.00001355,0.00005229,-0.00020265,-0.00003746,-
 0.00067199,-0.00161997,-0.00162715,0.00305538,0.00167049,-0.00384598,-
 0.00270758,-0.00150701,-0.00001931,-0.00037072,0.00002422,-0.05630495,
 0.04870023,0.01054975,0.00056212,-0.00061758,-0.00017223,-0.00023495,0
 .00013736,-0.00004470,0.00543734,-0.02404039,-0.00327350,0.00040696,-0
 .00031194,-0.00077625,0.00034369,-0.00129281,0.00011191,-0.00403076,0.
 02578799,0.00462452,0.05791031,-0.00025124,0.00013691,0.00038183,-0.00
 013684,0.00008495,-0.00014924,0.00005579,-0.00005081,0.00010727,0.0000
 3192,-0.00001045,0.00008012,0.00003028,-0.00002674,-0.00001780,0.00004
 720,0.00003605,-0.00000255,-0.00000391,-0.00000016,-0.00000727,0.00001
 783,0.00000045,0.00001151,-0.00004746,-0.00007914,-0.00003637,0.000105
 86,-0.00002923,-0.00003483,-0.00000012,0.00001379,-0.00000505,-0.00001
 232,0.00000499,0.00000671,0.00003104,-0.00002792,-0.00003801,-0.000006
 29,0.00001477,-0.00002559,0.00000221,0.00001740,-0.00000444,0.00001802
 ,-0.00003441,-0.00000630,-0.00001519,0.00000683,0.00000204,-0.00000067
 ,-0.00000053,0.00000778,0.00001352,-0.00000125,0.00001011,0.00001860,0
 .00001842,0.00000083,-0.00003897,-0.00003977,0.00004302,-0.00059308,-0
 .00070863,0.00223552,0.00202981,-0.01277586,-0.00504846,-0.00231967,-0
 .00048129,0.00036891,0.00011043,-0.00009057,-0.00002929,0.04584023,-0.
 29389129,-0.05201062,-0.00060958,0.00092228,0.00003303,0.00025568,-0.0
 0030422,0.00045326,0.00343929,-0.00939803,-0.00092602,0.00052332,-0.00
 014781,-0.00068183,0.00022693,-0.00067642,-0.00014048,0.00090938,-0.00
 133997,-0.00069453,-0.04898078,0.31943981,-0.00008601,-0.00005689,0.00
 013577,-0.00006325,0.00012943,-0.00006942,0.00000228,-0.00003745,0.000
 04107,0.00003741,-0.00003001,-0.00002570,0.00002485,0.00001056,0.00000
 284,-0.00000499,0.00000515,0.00005415,0.00000894,-0.00003937,0.0000412
 5,-0.00000336,0.00002692,-0.00000502,-0.00000455,-0.00009935,-0.000033
 30,0.00005690,0.00002813,-0.00015291,-0.00000268,0.00000668,0.00001039
 ,-0.00000625,0.00000140,-0.00000239,0.00001985,-0.00001280,-0.00001859
 ,-0.00001786,-0.00001120,-0.00001186,-0.00000672,0.00001286,0.00001778
 ,0.00000894,-0.00001694,0.00001015,0.00000430,-0.00001228,-0.00000278,
 0.00000910,-0.00000372,0.00000223,0.00001182,-0.00000221,0.00001159,-0
 .00000623,0.00000486,0.00000603,-0.00004111,-0.00005762,0.00013839,-0.
 00043281,0.00250732,-0.00457025,-0.00380935,0.02672134,0.00766353,-0.0
 0343976,-0.00046303,-0.00165011,-0.00004200,0.00027368,0.00009292,0.01
 007346,-0.05371272,-0.05803483,0.00029988,-0.00089915,0.00157688,-0.00
 048803,-0.00036263,0.00001164,0.00516281,-0.01512243,-0.00293816,0.000
 19209,0.00027556,-0.00022119,0.00024811,-0.00090685,0.00044546,0.00236
 576,-0.01678935,-0.00364337,-0.01074095,0.05629935,0.06014690,-0.00019
 317,-0.00012232,0.00039825,-0.00034627,0.00015512,-0.00020539,0.000112
 37,-0.00007685,0.00011542,0.00014584,-0.00006944,0.00003998,0.00003055
 ,-0.00011804,-0.00000409,-0.00002202,0.00003667,-0.00000133,0.00003707
 ,0.00000694,0.00006448,0.00002280,-0.00001597,0.00005206,0.00000169,-0
 .00003141,0.00001898,-0.00003614,0.00010501,-0.00007799,-0.00003199,0.
 00001919,0.00001116,-0.00001391,0.00001435,0.00001082,0.00004255,-0.00
 005341,-0.00005095,-0.00001222,-0.00002304,0.00001744,0.00000070,0.000
 01507,-0.00001029,-0.00001846,-0.00007008,0.00003638,-0.00000153,-0.00
 001285,-0.00001093,0.00001579,-0.00000781,0.00000499,0.00001970,-0.000
 00385,0.00000678,0.00000342,0.00001029,-0.00001730,-0.00009490,-0.0000
 3738,0.00000988,-0.00037732,0.00042189,-0.00138028,-0.00378831,-0.0013
 1058,-0.00235508,-0.00236995,0.00250033,-0.00375599,-0.00014807,0.0001
 1947,-0.00008977,0.00005828,0.00795820,-0.02207240,0.00015384,-0.00000
 245,-0.00041567,-0.00004112,0.00068230,-0.00128202,-0.04554815,-0.0003
 9043,-0.00791748,0.00103744,0.00015675,-0.00138139,0.00010339,-0.00001
 439,-0.00021795,0.00106231,0.00069411,0.00051731,0.00024103,-0.0003614
 5,0.00012137,0.04917557,-0.00082559,0.00086245,-0.00010107,0.00021165,
 -0.00021422,0.00002644,0.00000900,0.00000139,0.00008238,-0.00000318,0.
 00008331,0.00004851,0.00000915,0.00004174,-0.00002637,-0.00000268,0.00
 000674,-0.00006394,-0.00001419,0.00000495,-0.00002542,-0.00001347,-0.0
 0000583,0.00000543,-0.00001574,0.00001654,-0.00000888,0.00001440,-0.00
 005525,0.00000306,0.00000110,0.00000410,0.00000551,-0.00000184,-0.0000
 1439,-0.00001217,-0.00000107,-0.00000923,-0.00001610,0.00000605,-0.000
 00081,-0.00000465,-0.00000281,-0.00001009,-0.00001293,-0.00000322,-0.0
 0000269,-0.00000512,-0.00000180,0.00000572,0.00001242,-0.00000136,0.00
 000087,0.00000334,0.00000297,0.00000063,-0.00000151,0.00000323,0.00000
 614,-0.00000058,0.00004978,0.00001452,0.00000706,0.00102713,-0.0046162
 8,0.00021800,-0.00286452,-0.00223722,-0.00139587,0.00306532,-0.0052354
 9,0.02978275,0.00034543,-0.00016272,0.00081850,0.00115102,0.00459811,-
 0.01593209,-0.00005515,-0.00009830,0.00022601,-0.00018658,0.00083245,-
 0.00063649,0.00050496,-0.06052632,0.05992963,0.00047738,-0.00015576,0.
 00058062,-0.00029303,-0.00099274,-0.00054614,0.00069771,0.00065617,0.0
 0089095,0.00037229,-0.00029955,-0.00000006,-0.00357600,0.06546539,-0.0
 0040463,0.00004404,0.00137736,-0.00008257,0.00016665,-0.00047708,0.000
 08568,-0.00011402,0.00000796,-0.00004736,-0.00003153,-0.00005146,-0.00
 000512,0.00004545,0.00001199,-0.00001342,-0.00001726,0.00001710,-0.000
 00539,-0.00001130,0.00001755,0.00000215,0.00001397,0.00001813,-0.00000
 443,0.00001554,0.00002619,-0.00006319,0.00004232,-0.00000059,-0.000008
 42,-0.00000281,0.00000641,0.00000513,0.00000545,0.00001142,0.00001175,
 -0.00000758,-0.00002709,-0.00001461,-0.00001229,0.00003074,0.00000522,
 0.00001248,0.00001211,0.00000005,0.00000727,0.00000955,0.00000765,-0.0
 0000164,-0.00000621,0.00000405,-0.00000154,-0.00000704,0.00000827,-0.0
 0000415,-0.00000432,0.00001035,-0.00000315,-0.00001624,-0.00005776,0.0
 0003467,-0.00002934,0.00065578,-0.00047074,0.00004369,-0.00268137,-0.0
 0108907,-0.00050249,-0.00032592,0.00082174,-0.00072739,0.00000672,0.00
 010942,-0.00000620,0.00156411,0.00370009,-0.01015582,0.00009806,-0.000
 09215,0.00026427,-0.00005939,0.00054032,-0.00059533,-0.01169909,0.0601
 0031,-0.29808947,0.00051455,-0.00040548,-0.00023711,-0.00022621,0.0005
 8587,-0.00030423,-0.00014443,0.00014774,0.00109180,-0.00024146,-0.0003
 7228,-0.00042621,0.01300375,-0.06673962,0.32197134,-0.00068915,0.00024
 411,0.00133590,-0.00001095,-0.00001112,-0.00029318,0.00011717,-0.00011
 317,0.00010217,0.00006400,0.00000747,-0.00002675,-0.00004457,-0.000102
 12,-0.00006574,-0.00000116,0.00002753,-0.00001534,0.00000663,0.0000405
 4,-0.00000006,0.00003100,-0.00001286,0.00004502,-0.00001863,0.00002868
 ,0.00003664,-0.00002468,0.00003580,0.00011063,-0.00001134,0.00000536,0
 .00000307,0.00000004,0.00001420,0.00002321,0.00002683,-0.00002237,-0.0
 0006088,-0.00001028,-0.00002001,0.00003971,0.00001460,0.00000585,-0.00
 000092,-0.00002214,-0.00001287,0.00001700,0.00000341,0.00001386,-0.000
 01336,-0.00000017,0.00000842,-0.00000493,-0.00000325,-0.00000269,-0.00
 000757,0.00005877,0.00001327,-0.00001159,0.00001936,-0.00002918,-0.000
 12492,-0.00006311,0.00028482,-0.00008852,0.00054243,0.00009492,0.00099
 478,-0.00478841,0.00369649,0.00291444,-0.00001976,-0.00005572,-0.00012
 813,-0.02234442,0.00506617,0.01122100,0.00024608,0.00023559,-0.0008681
 9,0.00036609,-0.00019062,-0.00032523,-0.23479534,0.05473916,0.09301198
 ,0.00186661,-0.00020579,-0.00271751,0.00139809,0.00010813,-0.00067282,
 -0.00290388,-0.00215955,-0.00336261,0.00130100,-0.00031318,0.00018802,
 0.00094321,-0.00042660,0.00022166,0.25887804,-0.00198620,0.00124574,0.
 00324608,-0.00041766,0.00042940,-0.00128775,0.00036178,-0.00044860,0.0
 0075321,0.00028658,-0.00006974,0.00011012,-0.00025246,-0.00041160,-0.0
 0010997,0.00008823,0.00014005,0.00007406,0.00005349,0.00005512,0.00006
 620,0.00007701,-0.00002943,0.00010411,-0.00003989,0.00001451,0.0000255
 1,0.00006574,0.00012789,0.00015864,-0.00004545,0.00006730,0.00001620,-
 0.00006003,0.00004867,0.00005454,0.00018543,-0.00016168,-0.00027918,-0
 .00003998,0.00001741,0.00002673,0.00002133,0.00003147,-0.00003406,-0.0
 0000180,-0.00015300,0.00002532,-0.00001908,0.00000501,-0.00004076,0.00
 002211,-0.00000028,0.00001254,0.00002174,-0.00000021,0.00000166,0.0000
 6742,0.00003519,-0.00000583,-0.00006654,-0.00013037,-0.00011811,-0.001
 25522,-0.00072615,-0.00032648,0.00051096,0.00018831,0.00060646,0.02520
 815,-0.01229718,-0.00980994,0.00005030,0.00008392,-0.00013238,-0.01628
 051,0.00327520,0.00744125,0.00032375,0.00024047,-0.00002189,-0.0000339
 7,-0.00012309,0.00000125,0.06040150,-0.05892699,-0.02887357,0.00414674
 ,-0.00457404,-0.00413051,-0.00068298,0.00142810,-0.00022111,-0.0032662
 6,-0.00070018,-0.00234816,0.00042703,0.00066903,0.00084037,-0.00694888
 ,0.00206771,0.00287047,-0.06121593,0.06864823,0.00008181,-0.00027254,0
 .00029348,-0.00010554,0.00008461,-0.00020418,0.00003172,-0.00003367,-0
 .00000375,-0.00000545,-0.00003134,0.00002111,0.00000680,-0.00001586,0.
 00002525,0.00000144,0.00002736,-0.00003249,-0.00000210,0.00000668,-0.0
 0000838,0.00000877,-0.00000093,0.00001690,-0.00001436,-0.00002515,0.00
 001175,-0.00001730,0.00003127,-0.00002196,-0.00000315,-0.00000222,-0.0
 0000449,0.00000148,0.00000157,0.00000071,0.00001122,-0.00000568,-0.000
 00937,0.00001030,0.00001203,-0.00001180,0.00000114,0.00000666,-0.00001
 063,0.00001146,-0.00002000,-0.00000217,-0.00000557,0.00000045,0.000001
 01,0.00000373,-0.00000048,0.00000384,0.00000422,-0.00000013,0.00000292
 ,0.00001291,0.00000815,-0.00000509,-0.00005983,0.00000698,-0.00001874,
 0.00100868,-0.00013205,-0.00026400,-0.00008387,-0.00021568,0.00110745,
 -0.00422846,0.00091306,0.00092824,0.00006926,-0.00007982,0.00024424,-0
 .01346720,0.00399523,0.00601584,0.00009031,-0.00022422,-0.00018185,0.0
 0021955,-0.00011776,0.00009902,0.09266441,-0.02646094,-0.09290001,-0.0
 0001183,0.00016113,0.00053271,-0.00012987,-0.00033425,0.00076071,-0.00
 263625,-0.00079627,-0.00075434,0.00071775,0.00047388,0.00090271,0.0271
 6844,-0.00806187,-0.01317325,-0.10136032,0.03093439,0.09683037,-0.0013
 9343,0.00092878,0.00184690,-0.00055456,0.00046209,-0.00067720,0.000226
 37,-0.00028772,0.00047452,0.00025099,-0.00024599,-0.00007463,-0.000246
 17,-0.00031988,-0.00004193,0.00018135,0.00008834,0.00017800,0.00005327
 ,-0.00004896,0.00001309,0.00005638,0.00001710,-0.00006841,0.00016296,0
 .00002785,0.00020711,-0.00022699,0.00021395,0.00016662,-0.00005890,0.0
 0004175,0.00002355,-0.00002726,0.00004714,0.00003864,0.00013253,-0.000
 12792,-0.00017222,-0.00010798,0.00006749,-0.00001581,0.00001176,0.0000
 5956,0.00006490,-0.00002116,-0.00011142,0.00005023,0.00001088,0.000008
 01,-0.00002598,-0.00001005,0.00002010,0.00000595,-0.00000730,-0.000005
 32,-0.00000271,0.00000728,-0.00000191,-0.00000433,-0.00005054,-0.00008
 571,-0.00005432,-0.10120951,-0.03514820,0.03926155,-0.00265012,-0.0036
 3826,0.00293980,0.00655048,0.01210037,-0.00936723,-0.01432348,-0.01953
 764,0.02235006,-0.00098347,0.00003823,-0.00065640,0.00133166,0.0017816
 6,0.00009020,-0.00030338,-0.00000697,0.00024768,-0.00096911,0.00003206
 ,-0.00145298,0.00208239,-0.00117312,-0.00464543,0.00113017,0.00012073,
 -0.00119336,0.00002623,-0.00007304,-0.00002709,0.00020366,0.00019449,0
 .00002754,-0.00038287,0.00062868,-0.00017527,-0.00032677,0.00051941,-0
 .00005316,0.54391058,-0.00126589,0.00052922,0.00177878,-0.00033493,0.0
 0109110,-0.00035338,0.00013517,-0.00044315,0.00029998,0.00001911,-0.00
 038340,-0.00018525,0.00011339,-0.00021022,0.00009264,0.00005370,0.0001
 8248,-0.00012232,0.00001997,0.00001144,0.00003386,0.00000260,-0.000070
 07,0.00009546,-0.00014013,-0.00008416,-0.00012107,0.00017811,0.0000253
 6,-0.00007587,-0.00007283,0.00002256,0.00009690,-0.00003561,0.00002903
 ,-0.00001203,0.00012091,-0.00009632,-0.00012521,0.00035963,-0.00000235
 ,-0.00030875,0.00001467,0.00002709,-0.00001828,-0.00006017,-0.00006412
 ,0.00011021,0.00005244,-0.00006731,-0.00000254,0.00002556,-0.00000255,
 0.00002178,0.00001816,-0.00000609,0.00001290,0.00002988,0.00002305,-0.
 00000270,-0.00005175,-0.00008131,-0.00001618,-0.03302459,-0.11284236,0
 .04310726,-0.01242777,-0.02198490,0.02170135,0.00043330,-0.00150526,0.
 00789591,0.00483793,0.00728512,-0.00786626,-0.00109323,-0.00497794,-0.
 00176116,-0.00119370,0.00156338,0.00164335,-0.00053568,-0.00030294,-0.
 00036849,-0.00068463,-0.00056402,-0.00053758,0.00207939,-0.00114085,-0
 .00376956,-0.00057258,0.00060370,-0.00129834,-0.00012136,-0.00012692,0
 .00033776,0.00009822,-0.00082564,0.00129571,0.00020626,0.00003658,0.00
 008598,0.00017895,0.00000173,0.00006546,-0.02333750,0.53843505,-0.0009
 4039,0.00069804,0.00096877,-0.00019173,0.00028452,-0.00055771,0.000085
 41,-0.00017720,0.00036102,0.00027166,-0.00001153,0.00003744,-0.0000851
 4,-0.00019693,0.00004593,-0.00000334,0.00011977,0.00004370,0.00008093,
 0.00003573,0.00007336,0.00003810,-0.00009075,0.00004585,-0.00006467,-0
 .00000870,-0.00002602,0.00004610,0.00009616,0.00004606,-0.00004307,0.0
 0002336,0.00002354,-0.00002558,0.00003413,0.00001503,0.00008524,-0.000
 07235,-0.00011291,-0.00003444,-0.00015854,-0.00017937,-0.00001744,0.00
 006143,0.00003415,-0.00000494,-0.00006443,0.00005304,0.00001549,-0.000
 02783,-0.00001623,-0.00001650,0.00002823,0.00000897,-0.00001059,-0.000
 01276,0.00000322,0.00002830,0.00001616,-0.00000997,-0.00003879,-0.0000
 7196,-0.00004706,0.04168403,0.04610158,-0.13261323,-0.00466800,-0.0036
 0648,0.00906758,0.00808115,0.01729905,-0.02394860,0.00461973,0.0059250
 5,-0.00614905,-0.00037612,-0.00301955,-0.00125938,-0.00032427,-0.00092
 952,0.00064801,-0.00039953,-0.00124945,-0.00015697,-0.00103826,-0.0002
 7029,-0.00150552,0.00099981,-0.00042771,-0.00324086,0.00134899,0.00059
 995,0.00160298,-0.00002643,0.00008132,0.00008898,0.00028799,-0.0005309
 3,0.00079602,-0.00025048,0.00067418,-0.00008760,0.00002202,0.00013696,
 -0.00015070,0.03186851,0.03783971,0.52285533,0.00023844,-0.00013095,-0
 .00030206,0.00007135,-0.00008965,0.00009240,-0.00002030,0.00003238,-0.
 00004267,-0.00002262,0.00003558,0.00001808,0.00002431,0.00000227,-0.00
 001343,0.00003754,0.00001534,-0.00002774,-0.00000137,0.00000221,-0.000
 05168,0.00000216,-0.00001866,-0.00001769,0.00000259,-0.00000961,-0.000
 00889,0.00002297,-0.00001367,-0.00001138,0.00000824,-0.00000038,-0.000
 00606,-0.00000025,-0.00000397,-0.00000423,-0.00000892,0.00000807,0.000
 01410,-0.00000465,-0.00001083,-0.00004090,-0.00000543,-0.00000409,0.00
 000649,0.00001681,-0.00000027,-0.00001081,-0.00000710,0.00000707,0.000
 00239,-0.00000797,0.00000540,0.00000613,-0.00000220,0.00000388,0.00000
 500,-0.00000145,0.00000525,0.00000235,-0.00000234,0.00000854,0.0000071
 7,0.00838417,-0.00044236,0.01446967,0.00071717,0.00044564,-0.00009570,
 -0.00062786,-0.00256147,0.00102130,0.00075507,0.00075356,-0.00059692,-
 0.00010423,0.00032017,0.00008991,-0.00016274,0.00020654,-0.00014231,-0
 .00007805,0.00010471,-0.00014673,0.00042409,0.00002567,0.00048455,-0.0
 0030876,0.00033694,0.00056007,0.00027156,0.00019000,0.00025602,0.00002
 446,-0.00002493,0.00004235,-0.00002125,0.00003279,-0.00004312,0.000094
 29,-0.00020147,0.00002086,0.00006098,-0.00013947,0.00005461,-0.1250003
 2,0.00518888,-0.12131952,0.13267134,0.00036091,-0.00022469,-0.00038568
 ,0.00009808,-0.00022613,0.00012102,-0.00003724,0.00011242,-0.00014229,
 -0.00003495,0.00005827,0.00011805,-0.00001280,0.00009871,-0.00002161,-
 0.00003068,-0.00002146,0.00003078,-0.00000503,0.00001883,-0.00000438,-
 0.00000057,0.00001236,-0.00002304,0.00001606,-0.00001266,-0.00000329,0
 .00001116,-0.00002937,-0.00000632,0.00002202,-0.00001008,-0.00002086,0
 .00001101,-0.00001285,-0.00000130,-0.00003834,0.00002994,0.00005020,-0
 .00012617,0.00002354,-0.00003307,-0.00000776,-0.00001578,0.00001878,0.
 00003795,0.00001480,-0.00007782,-0.00000370,-0.00001141,-0.00002403,0.
 00001315,-0.00000300,-0.00000337,-0.00001131,0.00000125,-0.00000029,-0
 .00000934,-0.00000785,0.00000775,0.00001485,0.00001980,0.00001303,0.01
 042811,-0.00164124,0.01653889,0.00038015,0.00112933,-0.00015164,-0.002
 11282,-0.00144024,0.00146701,0.00006112,0.00062960,-0.00089176,0.00015
 955,0.00022829,0.00006653,0.00037940,-0.00011807,-0.00020650,-0.000279
 15,-0.00007915,0.00001847,0.00039856,0.00008662,0.00017153,-0.00042612
 ,0.00016015,0.00124075,0.00009470,0.00002776,0.00010235,0.00000730,0.0
 0003063,-0.00009286,-0.00002913,0.00002106,-0.00006144,0.00006900,-0.0
 0016243,0.00002095,0.00000431,-0.00006320,0.00003458,0.00529444,-0.046
 45621,0.00682799,-0.00413374,0.04706219,-0.00043792,0.00038403,0.00073
 485,-0.00036160,0.00020087,-0.00029880,0.00013411,-0.00010009,0.000202
 35,0.00012533,-0.00002250,0.00013890,-0.00004835,-0.00011427,-0.000086
 31,0.00003210,0.00003982,0.00002181,-0.00000932,-0.00000208,0.00005977
 ,0.00002708,0.00003833,0.00007234,-0.00001560,-0.00000965,-0.00000183,
 0.00004041,0.00000773,0.00002959,-0.00001719,0.00002117,-0.00000544,-0
 .00001618,0.00002556,0.00003350,0.00006220,-0.00006129,-0.00008202,-0.
 00009679,0.00005226,-0.00003137,0.00000911,0.00003076,0.00001316,0.000
 03583,-0.00008714,-0.00002892,-0.00000677,-0.00002196,-0.00005097,0.00
 005140,-0.00002006,0.00000329,0.00002409,0.00000019,-0.00000145,0.0000
 0800,0.00000363,-0.00000256,-0.00004487,-0.00004988,-0.00000111,-0.012
 53440,0.00042253,-0.01890796,0.00003344,-0.00090293,0.00096917,0.00203
 658,0.00319344,-0.00050839,0.00023366,-0.00063306,0.00054204,-0.000097
 11,0.00004789,-0.00013541,-0.00003950,0.00034181,0.00017159,0.00023185
 ,0.00055846,0.00002964,0.00004330,-0.00045450,-0.00069091,0.00080178,-
 0.00042195,-0.00181166,0.00034549,-0.00001371,0.00016661,-0.00000734,-
 0.00003434,0.00004334,0.00006237,0.00002081,0.00006329,-0.00006132,0.0
 0033322,-0.00003317,-0.00006433,0.00006506,0.00000741,-0.12064063,0.00
 717207,-0.23133172,0.13138186,-0.01036148,0.25255328,0.00014531,-0.000
 07883,-0.00017804,0.00001210,-0.00010711,-0.00005733,0.00000044,0.0000
 2464,-0.00001686,0.00003741,0.00001775,-0.00006704,-0.00010717,0.00000
 063,-0.00002160,-0.00003319,-0.00005397,0.00009055,0.00001223,-0.00001
 333,0.00005369,0.00001028,0.00003388,-0.00001113,0.00004316,0.00002432
 ,0.00003631,-0.00006491,0.00006237,0.00003837,-0.00000325,-0.00000446,
 -0.00000584,0.00000813,0.00000670,0.00001282,-0.00000734,0.00000609,0.
 00000169,-0.00006457,-0.00002413,0.00004045,0.00000380,0.00000628,0.00
 003663,-0.00000680,0.00000639,0.00000094,0.00001610,-0.00000886,-0.000
 02264,0.00001211,-0.00000129,-0.00001540,-0.00000640,-0.00000487,-0.00
 001003,-0.00000783,-0.00001519,-0.00000127,0.00001094,0.00000597,0.000
 00018,-0.01463359,0.00522727,0.00437909,0.00014766,0.00111285,0.000268
 37,0.00067368,-0.00018456,-0.00154849,-0.00002807,-0.00253294,0.002233
 69,0.00043904,-0.00013130,-0.00021794,0.00026914,-0.00106218,-0.000562
 95,0.00024570,0.00009504,-0.00015491,-0.00008266,-0.00005088,0.0004469
 9,-0.00016602,0.00026265,0.00028655,0.00037418,0.00001277,0.00048513,0
 .00000878,0.00012260,-0.00017668,-0.00000136,-0.00006937,0.00007121,0.
 00003221,-0.00011018,-0.00000273,0.00010007,-0.00009723,-0.00001658,-0
 .25760241,0.08829560,0.05029598,-0.01502833,0.00623548,0.00404832,0.28
 083993,-0.00003444,0.00007902,-0.00000024,-0.00001937,-0.00021826,-0.0
 0005124,0.00003084,0.00006171,-0.00000295,-0.00003076,0.00011917,0.000
 15902,-0.00007910,-0.00000033,-0.00000319,0.00002248,-0.00004892,0.000
 04451,0.00000527,-0.00000131,-0.00003375,0.00000414,0.00000060,-0.0000
 2028,0.00004051,0.00002959,0.00004195,-0.00005238,0.00002985,0.0000444
 0,0.00001295,0.00000283,-0.00002757,-0.00000010,-0.00000036,0.00000898
 ,-0.00000432,-0.00000055,0.00000146,0.00002145,-0.00001951,0.00007459,
 0.00000997,-0.00000863,-0.00007057,0.00001110,-0.00000409,-0.00001843,
 -0.00003364,0.00004131,0.00001856,-0.00001894,0.00000318,0.00000144,-0
 .00000241,0.00000370,0.00000090,-0.00000231,0.00000219,0.00000056,0.00
 000117,0.00000499,-0.00000633,-0.01773161,0.00573347,0.00458642,-0.001
 12601,0.00201554,0.00054331,-0.00018636,0.00064012,-0.00086938,-0.0020
 5069,-0.00176685,0.00270348,-0.00000776,0.00013376,0.00004808,0.000503
 38,-0.00003775,-0.00043856,0.00009501,-0.00002665,0.00000223,-0.000080
 57,0.00007691,-0.00012155,-0.00003444,-0.00001977,-0.00009715,0.000164
 51,0.00005052,-0.00029820,0.00003675,-0.00002680,-0.00008697,0.0000493
 4,0.00003290,-0.00008025,0.00003512,0.00002772,-0.00003697,0.00004424,
 -0.00005436,0.00007848,0.08903003,-0.08291376,-0.02187813,-0.00001695,
 -0.00125643,-0.00000906,-0.09568129,0.08780616,0.00008590,-0.00010069,
 -0.00027021,0.00007174,-0.00002302,0.00020058,-0.00004546,0.00006584,-
 0.00009367,-0.00007032,0.00002942,0.00009110,0.00011524,0.00005176,0.0
 0002132,-0.00000489,0.00002021,-0.00010617,-0.00004114,-0.00000306,-0.
 00002462,-0.00001833,0.00001019,0.00002588,-0.00005510,-0.00002282,-0.
 00005965,0.00008736,-0.00009193,-0.00004423,0.00001393,-0.00000836,-0.
 00000506,0.00000483,-0.00001389,-0.00001381,-0.00002601,0.00002347,0.0
 0003499,0.00002909,0.00007086,0.00003009,0.00000065,-0.00002138,-0.000
 04612,0.00001241,0.00001010,-0.00003245,-0.00000702,-0.00000797,0.0000
 0068,0.00001510,-0.00000985,0.00000476,0.00000667,0.00000288,0.0000037
 6,0.00000280,0.00000497,0.00000421,0.00000442,0.00001101,0.00001477,0.
 02158726,-0.00800512,-0.00712806,-0.00096574,-0.00109773,0.00012975,0.
 00134154,-0.00072961,0.00118599,0.00200734,0.00324579,-0.00274842,0.00
 002813,-0.00011822,0.00015371,-0.00032871,0.00030793,0.00042443,-0.000
 10571,-0.00005837,0.00010852,0.00000681,0.00005678,-0.00007125,-0.0002
 8784,-0.00001292,0.00064987,-0.00054085,-0.00029770,-0.00016364,-0.000
 04936,-0.00004167,0.00001732,-0.00005056,0.00000754,-0.00001541,-0.000
 04659,-0.00001063,0.00002216,-0.00007535,0.00021018,-0.00003116,0.0498
 9229,-0.02152754,-0.05784866,-0.02400220,0.01069587,0.00695051,-0.0585
 7009,0.02116176,0.06194865,0.00009234,0.00003846,-0.00017140,-0.000005
 48,-0.00024162,0.00005571,0.00001025,0.00009802,-0.00006526,-0.0001823
 4,0.00010023,0.00027060,0.00000368,0.00001819,0.00001428,0.00004430,-0
 .00006012,-0.00004064,-0.00002188,-0.00001423,-0.00006485,0.00000649,0
 .00002017,0.00000838,0.00000525,0.00003998,0.00001190,-0.00000949,-0.0
 0000114,0.00001806,0.00002059,-0.00000037,-0.00002778,0.00000249,-0.00
 000785,0.00000564,-0.00002149,0.00001500,0.00002627,0.00009118,0.00004
 702,0.00026569,0.00003515,-0.00002715,-0.00015670,0.00000494,0.0000080
 4,-0.00003292,-0.00003630,0.00006312,0.00003234,-0.00001893,-0.0000031
 5,0.00000284,0.00000824,0.00000582,0.00000311,0.00001083,0.00001080,-0
 .00000370,0.00000974,0.00001126,-0.00001617,-0.00271132,-0.01429954,-0
 .00622045,-0.00043953,-0.00089673,0.00348711,0.00026689,0.00067055,-0.
 00051199,0.00024277,0.00029385,-0.00068001,0.00014744,-0.00091342,-0.0
 0061430,0.00020085,-0.00012864,-0.00023700,0.00012707,0.00017938,-0.00
 021236,-0.00030516,-0.00000679,-0.00008105,-0.00016016,0.00001332,0.00
 030713,-0.00000216,0.00016218,0.00003882,-0.00002935,0.00003785,-0.000
 01632,0.00005176,-0.00019219,0.00030080,0.00008703,0.00003216,0.000023
 90,0.00006336,0.00000367,0.00000774,-0.04986890,-0.02748129,-0.0099877
 0,-0.00241324,-0.01679899,-0.00526376,0.00442871,0.02705791,0.00997497
 ,0.05026085,0.00015723,0.00015652,-0.00010426,-0.00007475,-0.00036543,
 -0.00000054,0.00004292,0.00014352,-0.00004865,0.00000697,0.00010335,0.
 00026074,-0.00011503,0.00001076,-0.00004674,-0.00001357,-0.00004868,0.
 00004988,-0.00001546,-0.00000058,-0.00001021,0.00001589,0.00001977,0.0
 0002910,-0.00000532,0.00005662,0.00002409,-0.00000225,0.00002972,0.000
 05435,0.00003100,0.00000588,-0.00005394,0.00000582,-0.00000162,0.00002
 779,-0.00002046,0.00000598,0.00001762,-0.00010088,0.00012570,-0.000042
 98,-0.00000614,-0.00000534,-0.00002879,0.00007594,-0.00002682,-0.00010
 954,-0.00004474,0.00003648,-0.00000441,-0.00000540,0.00000160,-0.00000
 373,0.00001130,0.00000221,-0.00000297,0.00002580,0.00001022,-0.0000105
 1,0.00000858,-0.00000195,-0.00003935,-0.00109797,-0.01655392,-0.006922
 72,-0.00146330,-0.00069657,0.00353834,-0.00049588,0.00049068,-0.001196
 74,-0.00022660,0.00083792,-0.00010934,-0.00045060,-0.00073192,-0.00065
 218,-0.00013558,0.00060322,0.00031983,-0.00026856,-0.00039565,0.000005
 21,0.00010458,-0.00014720,-0.00004112,-0.00004555,-0.00010140,0.000183
 79,0.00066536,0.00007312,0.00053784,-0.00000499,-0.00007723,0.00016571
 ,0.00009717,-0.00018451,0.00034128,0.00004299,0.00006538,0.00005318,-0
 .00002914,0.00006138,-0.00000332,-0.02756369,-0.27471287,-0.08407448,0
 .00008077,0.00202790,0.00036069,-0.00134624,-0.01048739,-0.00378179,0.
 03214433,0.29967981,0.00009857,-0.00017949,-0.00017426,0.00013950,0.00
 010157,0.00013310,-0.00006858,-0.00001578,-0.00003734,0.00004411,-0.00
 000468,-0.00035505,0.00002401,0.00000989,0.00002158,-0.00003068,-0.000
 03851,-0.00001717,-0.00000069,-0.00000943,0.00000297,-0.00002606,-0.00
 000531,-0.00002261,0.00000450,0.00000560,-0.00000290,-0.00003149,-0.00
 000052,-0.00002591,-0.00000191,-0.00001025,0.00001831,0.00000791,-0.00
 000693,-0.00001762,-0.00001410,0.00001960,0.00001226,0.00027673,-0.000
 13712,-0.00018790,-0.00003155,-0.00000405,0.00002391,-0.00006439,0.000
 03995,0.00010747,0.00000489,0.00000453,0.00003551,-0.00001724,-0.00000
 210,-0.00000787,-0.00000161,-0.00000024,-0.00000454,-0.00001072,-0.000
 00639,-0.00000186,0.00001509,0.00002558,0.00000946,0.00198401,0.022167
 28,0.00802775,0.00197350,0.00160165,-0.00302038,0.00034199,-0.00014370
 ,0.00129068,-0.00051898,-0.00092251,0.00097685,0.00000045,0.00123720,0
 .00045137,-0.00021240,0.00008576,0.00001877,0.00020807,0.00042282,0.00
 004811,0.00011072,0.00006624,0.00021340,-0.00017428,0.00015382,0.00040
 318,-0.00033192,-0.00027412,0.00003173,0.00003786,-0.00003792,0.000033
 00,-0.00002882,0.00023062,-0.00035101,-0.00000292,-0.00004249,-0.00000
 496,-0.00001552,-0.00004494,-0.00000892,-0.01039955,-0.08520603,-0.077
 58775,-0.00166132,-0.02503877,-0.00879345,-0.00118074,-0.00536864,-0.0
 0331502,0.00954648,0.09132547,0.08209072\\0.00000144,-0.00000088,-0.00
 000170,0.00000068,-0.00000066,-0.00000028,-0.00000020,0.00000008,0.000
 00008,0.00000004,-0.00000060,0.00000017,-0.00000065,0.00000060,0.00000
 028,-0.00000053,-0.00000027,0.00000023,-0.00000029,0.00000015,-0.00000
 007,0.00000009,-0.00000011,0.00000011,0.00000022,0.00000016,-0.0000004
 0,-0.00000065,-0.00000009,0.00000064,0.00000004,-0.00000011,-0.0000000
 5,0.00000005,-0.00000006,-0.00000010,0.00000012,-0.00000007,-0.0000000
 4,0.00000052,-0.00000061,-0.00000052,0.00000003,-0.00000023,0.00000009
 ,0.00000048,-0.00000004,-0.00000008,-0.00000001,-0.00000010,-0.0000001
 2,0.,0.00000022,0.,-0.00000008,-0.00000019,-0.00000012,-0.00000003,-0.
 00000016,-0.00000027,0.00000023,0.00000042,0.00000012,0.00000319,-0.00
 000281,-0.00000196,0.00000052,0.00000061,0.00000043,-0.00000445,-0.000
 00269,0.00000206,0.00000132,0.00000067,-0.00000112,-0.00000160,0.00000
 394,0.00000370,-0.00000017,0.00000031,-0.00000013,0.00000079,-0.000000
 37,0.00000037,0.00000063,0.00000076,-0.00000478,-0.00000200,0.00000033
 ,0.00000194,-0.00000052,0.00000109,0.00000241,-0.00000072,0.00000020,-
 0.00000024,-0.00000043,0.00000040,0.00000127,0.00000218,-0.00000036,-0
 .00000025,0.00000089,-0.00000023,-0.00000057,-0.00000108,0.00000024,-0
 .00000077,0.00000010,0.00000024,-0.00000036,-0.00000005,-0.00000009,0.
 00000022,-0.00000013,0.00000032,-0.00000020\\\@


 WHAT THE SLIME CONTAINS, THE GLOWING REVEALS
 BY THE FLAME'S BRIGHT HUE WHEN YOU IGNITE IT.
   --  LEONARD THURNEYSSER, 1531-1596
 DESCRIBING HIS FLAME PHOTOLYSIS ANALYTIC METHOD
 Job cpu time:       0 days  0 hours  0 minutes  0.6 seconds.
 Elapsed time:       0 days  0 hours  0 minutes 32.4 seconds.
 File lengths (MBytes):  RWF=      6 Int=      0 D2E=      0 Chk=      3 Scr=      1
 Normal termination of Gaussian 16 at Sun Nov 30 20:46:07 2025.
