%nproc=1
#p opt=(calcall,ts,noeigen,nomicro) external='python ../GauUMA_client.py'

t 

0 2 
O   -0.08063  -0.55552  -0.02716  
C   2.20108  -0.37615  -0.43479  
C   0.83028  -2.10803  -1.63288  
C   0.55612   0.38035  -2.16407  
C   0.08486   1.63366  -1.76491  
C   -0.20162   2.62172  -2.69956  
C   -0.01659   2.37434  -4.05804  
C   0.4681    1.13649  -4.46647  
C   0.75551   0.14893  -3.52584  
H   2.19591   0.62003   0.01585  
H   2.41308  -1.11514   0.34377  
H   2.9911   -0.41262  -1.19181  
H   -0.09206  -2.31395  -2.18634  
H   0.891    -2.80037  -0.78868  
H   1.67968  -2.30014  -2.29604  
H   -0.08113   1.81257  -0.70707  
H   -0.57844   3.58504  -2.36746  
H   -0.24596   3.14187  -4.79134  
H   0.61963   0.93222  -5.52257  
H   1.12383  -0.8125   -3.87005  
C   -2.3984   -1.24746  -0.77819  
C   -2.79092  -0.49449  -2.03904  
C   -3.35457   0.82944  -1.50914  
C   -4.15099   0.37597  -0.27723  
C   -3.28559  -0.73089   0.36172  
H   -2.30486  -2.33257  -0.86616  
H   -1.23967  -0.89636  -0.46117  
H   -3.5873   -1.04852  -2.56168  
H   -1.96794  -0.36032  -2.74786
C   0.83662  -0.67412  -1.08678 
H   -2.50516   1.43289  -1.16371   
H   -4.36938   1.19672   0.41336  
H   -5.11327  -0.04058  -0.60524  
H   -2.66332  -0.32491   1.16837  
H   -3.88843  -1.53131   0.80329  
C   -4.14124   1.63451  -2.53322  
H   -4.54461   2.55312  -2.09259  
H   -4.98432   1.05188  -2.92562  
H   -3.50174   1.91777  -3.37667 


