%nproc=1
#p opt=(calcall,ts,noeigen,nomicro) external='python ../GauUMA_client.py'

t 

0 2 
O   1.77018   0.28693  -0.36507  
C   1.35333   1.10969   0.69566  
C   1.58457   0.40961   2.04058  
C   2.28346   2.3369    0.60293  
C   -0.0958    1.56343   0.48203  
C   -0.48376   1.95608  -0.80257  
C   -1.77958   2.38426  -1.0611  
C   -2.72073   2.42357  -0.03356  
C   -2.34737   2.03722   1.24853  
C   -1.043     1.61534   1.50426  
H   0.89882  -0.43254   2.17603  
H   2.60761   0.02383   2.05777  
H   1.4592    1.09426   2.88573  
H   2.18537   2.81941  -0.37303  
H   3.32382   2.02657   0.73852  
H   2.01976   3.06264   1.379  
H   0.24491   1.90348  -1.60599  
H   -2.0593    2.68048  -2.0681  
H   -3.73655   2.75182  -0.23288  
H   -3.07169   2.0615    2.0577  
H   -0.77629   1.31766   2.51362  
C   -1.75784  -1.43177  -0.96655  
C   -0.84407  -1.87947   0.20066  
C    0.56888  -1.95625  -0.37119  
C   -0.84148  -1.32186  -2.20668  
H   -2.54848  -2.17074  -1.13355  
H   -2.24682  -0.478    -0.7499  
H   -1.12759  -2.87821   0.56291  
H   -0.91111  -1.2065    1.06087  
H   1.06897  -0.82074  -0.32138  
H   1.28174  -1.89219  -2.43983  
H   0.19427  -3.23564  -2.05286  
H   -0.5307   -0.28188  -2.34473  
H   -1.33707  -1.64345  -3.12758  
C   1.56557  -2.84076   0.3428  
H   1.62896  -2.59746   1.4083  
H   1.26457  -3.89409   0.25619  
H   2.5651   -2.73553  -0.09036 
C   0.39017  -2.1676   -1.86719 

