%nproc=1
#p opt=(calcall,ts,noeigen,nomicro) external='python ../GauUMA_client.py'

t 

0 2 
O   0.96329  -0.49247   5.09598  
C   0.06452   0.55514   4.83013  
C   -0.5453    0.88406   6.20677  
C   0.82468   1.77718   4.29604  
C   -1.05195   0.08513   3.88963  
C   -1.69718   0.93793   2.99287  
C   -2.69289   0.45777   2.14428  
C   -3.06284  -0.88228   2.18454  
C   -2.43774  -1.73741   3.08944  
C   -1.44552  -1.25449   3.93461  
H   -1.03528  -0.00041   6.62288  
H   0.23934   1.21128   6.89561   
H   -1.28996   1.67997   6.1036  
H   1.19372   1.59787   3.28036  
H   1.68204   1.96359   4.94868  
H   0.20266   2.67763   4.28177  
H   -1.41731   1.98539   2.93518  
H   -3.17525   1.13527   1.44546  
H   -3.83363  -1.25764   1.51791  
H   -2.72066  -2.78542   3.13395  
H   -0.9434   -1.9173    4.63194  
C   1.47727  -0.94176   1.72875  
C   1.10948  -2.39703   1.33827  
C   2.29191  -1.08092   3.02093  
H   0.55543  -0.38559   1.92904  
C   1.37047  -3.24398   2.59128  
H   1.76625  -2.73276   0.52432  
H   0.07822  -2.47568   0.98182  
C   2.57733  -2.55721   3.23952  
H   1.58271  -0.7654    4.00512  
H   3.14331  -0.40178   3.12563  
H   0.51162  -3.185     3.26856  
H   1.54619  -4.30006   2.36463  
H   2.71761  -2.8109    4.29495  
H   3.5008   -2.83387   2.70906  
C   2.24422  -0.19934   0.63244  
H   1.66363  -0.17144  -0.29636  
H   3.19895  -0.69519   0.41804  
H   2.45936   0.83445   0.92633 


