%nproc=1
#p opt=(calcall,ts,noeigen,nomicro) external='python ../GauUMA_client.py'

t 

0 2 
O   1.33958   1.28411  -0.44019  
C   0.04423   1.50281   0.05962  
C   0.0975    1.95494   1.52417  
C   -0.49547   2.66625  -0.79845  
C   -0.82501   0.2624   -0.17951  
C   -0.74957  -0.36625  -1.42694  
C   -1.52361  -1.4829   -1.7143  
C   -2.38346  -2.00518  -0.74892  
C   -2.46045  -1.3954    0.49745  
C   -1.6909   -0.26613   0.77712  
H   0.76544   2.81778   1.59625  
H   -0.88775   2.25526   1.89576  
H   -0.50252   2.39388  -1.85686  
H   0.13739   3.54908  -0.66725  
H   -1.5184    2.90936  -0.49329  
H   -0.05706   0.02294  -2.16715  
H   -1.44833  -1.95533  -2.68955  
H   -2.9843   -2.88293  -0.96757  
H   -3.12235  -1.79559   1.26013  
H   -1.7696   0.19304   1.75762  
C   1.71408  -2.82569   1.5484  
C   1.78977  -1.31935   1.83317  
C   2.51967  -0.7233    0.61656  
C   2.43776  -1.78716  -0.49412  
C   1.4869   -2.86974   0.03561  
H   2.66849  -3.30551   1.8018  
H   0.92513  -3.32365   2.12043  
H   2.27313  -1.08135   2.78534  
H   0.76694  -0.93057   1.88488  
H   1.86512   0.23678   0.17782  
H   2.11198  -1.35547  -1.44541  
H   3.43074  -2.22196  -0.66751  
H   0.44774  -2.60387  -0.18553  
H   1.68167  -3.85287  -0.40425  
C   3.89732  -0.07183   0.86151  
C   4.48592   0.42274  -0.46946  
H   5.43923   0.93462  -0.29371  
H   4.67788  -0.40389  -1.16171  
H   0.49113   1.16964   2.17584  
H   3.80272   1.12587  -0.95546  
C   3.75027   1.13549   1.80102  
H   3.09742   1.88773   1.34877  
H   3.32825   0.85193   2.77157  
H   4.72868   1.59346   1.98678  
C   4.86045  -1.09181   1.49751  
H   5.00691  -1.96827   0.85687  
H   5.84139  -0.62832   1.65414  
H   4.49834  -1.43971   2.47125 

