%nproc=1
#p opt=(calcall,ts,noeigen,nomicro) external='python ../GauUMA_client.py'

t 

0 2
O   0.07525  -0.9655    0.02729  
C   0.82832  -0.87651  -1.15619  
C   2.27929  -0.70544  -0.66118  
C   0.72305  -2.18101  -1.95536  
C   0.42826   0.37189  -1.95087  
C   0.16991   1.55209  -1.24521  
C   -0.17349   2.72364  -1.90807  
C   -0.26632   2.73781  -3.29887  
C   -0.01142   1.57141  -4.01131  
C   0.333     0.3973   -3.34165  
H   2.3683    0.18993  -0.04042  
H   2.95511  -0.6066   -1.51677  
H   -0.28482  -2.32528  -2.35556  
H   0.94441  -3.01445  -1.28325  
H   1.4333   -2.21343  -2.78795  
H   0.22926   1.5334   -0.16132  
H   -0.37429   3.62706  -1.33937  
H   -0.53616   3.65074  -3.82156  
H   -0.08315   1.56911  -5.09534  
H   0.52056  -0.50168  -3.92038  
C   -2.42246  -1.0704   -0.35847  
C   -2.90857  -1.0179   -1.80258  
C   -3.27283   0.45621  -2.04879  
C   -3.81222   0.90476  -0.68001  
C   -2.89922   0.20501   0.34201  
H   -2.62491  -2.00767   0.16637  
H   -1.16812  -1.04593  -0.27878  
H   -3.79568  -1.66016  -1.90164  
H   -2.17125  -1.38841  -2.52055  
H   -2.329     0.99014  -2.21722  
H   -3.81269   1.99214  -0.55832  
H   -4.84403   0.5567   -0.54797  
H   -2.03704   0.83951   0.57756  
H   -3.40538  -0.00616   1.28912  
C   -4.16428   0.74722  -3.28048  
C   -3.51595   0.1235   -4.52663  
H   -3.52543  -0.97132  -4.47905  
H   -4.05687   0.4203   -5.43314  
H   -2.47479   0.44959  -4.62801
H   2.57533  -1.57584  -0.06801  
C   -4.2446    2.26872  -3.48121  
H   -4.82844   2.51252  -4.37691  
H   -4.72428   2.76145  -2.62808  
H   -3.24242   2.69703  -3.60061  
C   -5.58783   0.18957  -3.13219  
H   -6.15262   0.35347  -4.05741  
H   -5.58795  -0.88868  -2.93609  
H   -6.13769   0.68122  -2.32275



