%nproc=1
#p opt=(calcall,ts,noeigen,nomicro) external='python ../GauUMA_client.py'

t 

0 2
O   0.93688  -0.5823    5.07787  
C   0.06502   0.51122   4.92469  
C   -0.62295   0.64142   6.29705  
C   0.86787   1.78307   4.62658  
C   -0.988     0.19859   3.85502  
C   -1.44229   1.14083   2.93289  
C   -2.34438   0.7814    1.93165  
C   -2.81379  -0.52458   1.84687  
C   -2.38708  -1.46732   2.78112  
C   -1.48515  -1.10587   3.77376  
H   -1.15252  -0.28196   6.54669  
H   -1.34559   1.46356   6.27409  
H   1.31258   1.73888   3.62701  
H   1.67413   1.86309   5.36084  
H   0.25261   2.68639   4.69171  
H   -1.07775   2.16264   2.96863  
H   -2.67354   1.5266    1.21308  
H   -3.5093   -0.80655   1.06198  
H   -2.74999  -2.48987   2.72809  
H   -1.12157  -1.84579   4.47991  
C   1.37549  -1.14081   1.73562  
C   1.16551  -2.66676   1.54548  
C   2.27821  -1.03498   2.97244  
H   0.40207  -0.69941   1.97019  
C   1.58802  -3.30881   2.87292  
H   1.8087   -3.0475    0.74254  
H   0.13276  -2.90043   1.27078  
C   2.7582   -2.43135   3.32556  
H   1.57254  -0.74148   3.96324  
H   3.03726  -0.24885   2.97543  
H   0.77796  -3.22857   3.60709  
H   1.85     -4.36653   2.77277  
H   3.00971  -2.53809   4.38523  
H   3.66029  -2.66884   2.74166  
C   1.8754   -0.37196   0.48188  
C   1.86136   1.13615   0.77587  
C   3.29353  -0.79014   0.06968  
C   0.89944  -0.64275  -0.67356  
H   0.86071   1.46139   1.08462  
H   0.1233    0.8402    7.07214 
H   2.56628   1.40461   1.57102  
H   2.14326   1.70681  -0.11691  
H   3.35089  -1.85526  -0.17943  
H   3.61388  -0.22886  -0.81583  
H   4.01923  -0.59166   0.86698  
H   1.17122  -0.05186  -1.55634  
H   0.90161  -1.69814  -0.96644  
H   -0.12425  -0.37418  -0.38515


