%nprocshared=1
#p opt=(nomicro,ts,noeigen,calcfc) external='python ../GauUMA_client.py'

UMA NEB DFT Confirmation

0 1
 C                 -1.31320300    0.70160100    0.29149900
 C                 -1.31311000   -0.70181300    0.29142100
 H                 -1.85021900    1.21144000    1.08746600
 H                 -1.85006700   -1.21175500    1.08736300
 C                  1.56399800    0.69159600    0.22825500
 H                  2.06478000    1.23300800   -0.56598900
 H                  1.45800900    1.23417100    1.15800200
 C                  1.56409100   -0.69130900    0.22819500
 H                  1.45813900   -1.23394200    1.15791300
 H                  2.06503800   -1.23258000   -0.56603800
 C                 -0.44437900    1.43181600   -0.49281600
 H                 -0.12810800    1.06300600   -1.45926500
 H                 -0.38538000    2.50931100   -0.38162700
 C                 -0.44399600   -1.43189600   -0.49275300
 H                 -0.38486100   -2.50936500   -0.38135800
 H                 -0.12773300   -1.06326200   -1.45927300


