 Entering Gaussian System, Link 0=g16
 Input=DA.gjf
 Output=DA.log
 Initial command:
 /home/zhouoh/g16/l1.exe "/home/zhouoh/scratch/Gau-2816603.inp" -scrdir="/home/zhouoh/scratch/"
 Entering Link 1 = /home/zhouoh/g16/l1.exe PID=   2816605.
  
 Copyright (c) 1988,1990,1992,1993,1995,1998,2003,2009,2016,
            Gaussian, Inc.  All Rights Reserved.
  
 This is part of the Gaussian(R) 16 program.  It is based on
 the Gaussian(R) 09 system (copyright 2009, Gaussian, Inc.),
 the Gaussian(R) 03 system (copyright 2003, Gaussian, Inc.),
 the Gaussian(R) 98 system (copyright 1998, Gaussian, Inc.),
 the Gaussian(R) 94 system (copyright 1995, Gaussian, Inc.),
 the Gaussian 92(TM) system (copyright 1992, Gaussian, Inc.),
 the Gaussian 90(TM) system (copyright 1990, Gaussian, Inc.),
 the Gaussian 88(TM) system (copyright 1988, Gaussian, Inc.),
 the Gaussian 86(TM) system (copyright 1986, Carnegie Mellon
 University), and the Gaussian 82(TM) system (copyright 1983,
 Carnegie Mellon University). Gaussian is a federally registered
 trademark of Gaussian, Inc.
  
 This software contains proprietary and confidential information,
 including trade secrets, belonging to Gaussian, Inc.
  
 This software is provided under written license and may be
 used, copied, transmitted, or stored only in accord with that
 written license.
  
 The following legend is applicable only to US Government
 contracts under FAR:
  
                    RESTRICTED RIGHTS LEGEND
  
 Use, reproduction and disclosure by the US Government is
 subject to restrictions as set forth in subparagraphs (a)
 and (c) of the Commercial Computer Software - Restricted
 Rights clause in FAR 52.227-19.
  
 Gaussian, Inc.
 340 Quinnipiac St., Bldg. 40, Wallingford CT 06492
  
  
 ---------------------------------------------------------------
 Warning -- This program may not be used in any manner that
 competes with the business of Gaussian, Inc. or will provide
 assistance to any competitor of Gaussian, Inc.  The licensee
 of this program is prohibited from giving any competitor of
 Gaussian, Inc. access to this program.  By using this program,
 the user acknowledges that Gaussian, Inc. is engaged in the
 business of creating and licensing software in the field of
 computational chemistry and represents and warrants to the
 licensee that it is not a competitor of Gaussian, Inc. and that
 it will not use this program in any manner prohibited above.
 ---------------------------------------------------------------
  

 Cite this work as:
 Gaussian 16, Revision A.03,
 M. J. Frisch, G. W. Trucks, H. B. Schlegel, G. E. Scuseria, 
 M. A. Robb, J. R. Cheeseman, G. Scalmani, V. Barone, 
 G. A. Petersson, H. Nakatsuji, X. Li, M. Caricato, A. V. Marenich, 
 J. Bloino, B. G. Janesko, R. Gomperts, B. Mennucci, H. P. Hratchian, 
 J. V. Ortiz, A. F. Izmaylov, J. L. Sonnenberg, D. Williams-Young, 
 F. Ding, F. Lipparini, F. Egidi, J. Goings, B. Peng, A. Petrone, 
 T. Henderson, D. Ranasinghe, V. G. Zakrzewski, J. Gao, N. Rega, 
 G. Zheng, W. Liang, M. Hada, M. Ehara, K. Toyota, R. Fukuda, 
 J. Hasegawa, M. Ishida, T. Nakajima, Y. Honda, O. Kitao, H. Nakai, 
 T. Vreven, K. Throssell, J. A. Montgomery, Jr., J. E. Peralta, 
 F. Ogliaro, M. J. Bearpark, J. J. Heyd, E. N. Brothers, K. N. Kudin, 
 V. N. Staroverov, T. A. Keith, R. Kobayashi, J. Normand, 
 K. Raghavachari, A. P. Rendell, J. C. Burant, S. S. Iyengar, 
 J. Tomasi, M. Cossi, J. M. Millam, M. Klene, C. Adamo, R. Cammi, 
 J. W. Ochterski, R. L. Martin, K. Morokuma, O. Farkas, 
 J. B. Foresman, and D. J. Fox, Gaussian, Inc., Wallingford CT, 2016.
 
 ******************************************
 Gaussian 16:  ES64L-G16RevA.03 25-Dec-2016
                 6-Oct-2025 
 ******************************************
 %nprocshared=1
 Will use up to    1 processors via shared memory.
 ----------------------------------------------------------------------
 #p opt=(nomicro,ts,noeigen,calcfc) external='python ../GauUMA_client.p
 y'
 ----------------------------------------------------------------------
 1/5=1,10=4,11=1,18=20,26=1,38=1/1,3;
 2/9=110,12=2,17=6,18=5,40=1/2;
 3/11=9,25=1,30=1,41=9900000,43=2,71=2,140=1/1;
 4/20=17,22=2,24=3,113=1,114=1/2;
 6/7=2,8=2,9=2,10=2/1;
 7/25=1,44=-1/16;
 1/5=1,10=4,11=1,18=20,26=1/3(2);
 2/9=110/2;
 99//99;
 2/9=110/2;
 3/11=9,25=1,30=1,41=9900000,43=2,71=1/1;
 4/16=2,20=17,22=1,24=3,113=1,114=1/2;
 7/44=-1/16;
 1/5=1,11=1,18=20,26=1/3(-4);
 2/9=110/2;
 6/7=2,8=2,9=2,10=2/1;
 99//99;
 Leave Link    1 at Mon Oct  6 14:26:37 2025, MaxMem=           0 cpu:               0.0 elap:               0.0
 (Enter /home/zhouoh/g16/l101.exe)
 ------------------------
 UMA NEB DFT Confirmation
 ------------------------
 Symbolic Z-matrix:
 Charge =  0 Multiplicity = 1
 C                    -1.3132    0.7016    0.2915 
 C                    -1.31311  -0.70181   0.29142 
 H                    -1.85022   1.21144   1.08747 
 H                    -1.85007  -1.21176   1.08736 
 C                     1.564     0.6916    0.22826 
 H                     2.06478   1.23301  -0.56599 
 H                     1.45801   1.23417   1.158 
 C                     1.56409  -0.69131   0.2282 
 H                     1.45814  -1.23394   1.15791 
 H                     2.06504  -1.23258  -0.56604 
 C                    -0.44438   1.43182  -0.49282 
 H                    -0.12811   1.06301  -1.45927 
 H                    -0.38538   2.50931  -0.38163 
 C                    -0.444    -1.4319   -0.49275 
 H                    -0.38486  -2.50937  -0.38136 
 H                    -0.12773  -1.06326  -1.45927 
 
 Add virtual bond connecting atoms C11        and C5         Dist= 4.27D+00.
 Add virtual bond connecting atoms H12        and H6         Dist= 4.49D+00.
 Add virtual bond connecting atoms C14        and C8         Dist= 4.27D+00.
 Add virtual bond connecting atoms H16        and H10        Dist= 4.49D+00.
 ITRead=  0  0  0  0  0  0  0  0  0  0  0  0  0  0  0  0
 MicOpt= -1 -1 -1 -1 -1 -1 -1 -1 -1 -1 -1 -1 -1 -1 -1 -1
 NAtoms=     16 NQM=       16 NQMF=       0 NMMI=      0 NMMIF=      0
                NMic=       0 NMicF=      0.
                    Isotopes and Nuclear Properties:
 (Nuclear quadrupole moments (NQMom) in fm**2, nuclear magnetic moments (NMagM)
  in nuclear magnetons)

  Atom         1           2           3           4           5           6           7           8           9          10
 IAtWgt=          12          12           1           1          12           1           1          12           1           1
 AtmWgt=  12.0000000  12.0000000   1.0078250   1.0078250  12.0000000   1.0078250   1.0078250  12.0000000   1.0078250   1.0078250
 NucSpn=           0           0           1           1           0           1           1           0           1           1
 AtZEff=  -0.0000000  -0.0000000  -0.0000000  -0.0000000  -0.0000000  -0.0000000  -0.0000000  -0.0000000  -0.0000000  -0.0000000
 NQMom=    0.0000000   0.0000000   0.0000000   0.0000000   0.0000000   0.0000000   0.0000000   0.0000000   0.0000000   0.0000000
 NMagM=    0.0000000   0.0000000   2.7928460   2.7928460   0.0000000   2.7928460   2.7928460   0.0000000   2.7928460   2.7928460
 AtZNuc=   6.0000000   6.0000000   1.0000000   1.0000000   6.0000000   1.0000000   1.0000000   6.0000000   1.0000000   1.0000000

  Atom        11          12          13          14          15          16
 IAtWgt=          12           1           1          12           1           1
 AtmWgt=  12.0000000   1.0078250   1.0078250  12.0000000   1.0078250   1.0078250
 NucSpn=           0           1           1           0           1           1
 AtZEff=  -0.0000000  -0.0000000  -0.0000000  -0.0000000  -0.0000000  -0.0000000
 NQMom=    0.0000000   0.0000000   0.0000000   0.0000000   0.0000000   0.0000000
 NMagM=    0.0000000   2.7928460   2.7928460   0.0000000   2.7928460   2.7928460
 AtZNuc=   6.0000000   1.0000000   1.0000000   6.0000000   1.0000000   1.0000000
 Leave Link  101 at Mon Oct  6 14:26:37 2025, MaxMem=   104857600 cpu:               0.1 elap:               0.1
 (Enter /home/zhouoh/g16/l103.exe)

 GradGradGradGradGradGradGradGradGradGradGradGradGradGradGradGradGradGrad
 Berny optimization.
 Initialization pass.
                           ----------------------------
                           !    Initial Parameters    !
                           ! (Angstroms and Degrees)  !
 --------------------------                            --------------------------
 ! Name  Definition              Value          Derivative Info.                !
 --------------------------------------------------------------------------------
 ! R1    R(1,2)                  1.4034         calculate D2E/DX2 analytically  !
 ! R2    R(1,3)                  1.0871         calculate D2E/DX2 analytically  !
 ! R3    R(1,11)                 1.3796         calculate D2E/DX2 analytically  !
 ! R4    R(2,4)                  1.0871         calculate D2E/DX2 analytically  !
 ! R5    R(2,14)                 1.3796         calculate D2E/DX2 analytically  !
 ! R6    R(5,6)                  1.0839         calculate D2E/DX2 analytically  !
 ! R7    R(5,7)                  1.0817         calculate D2E/DX2 analytically  !
 ! R8    R(5,8)                  1.3829         calculate D2E/DX2 analytically  !
 ! R9    R(5,11)                 2.2586         calculate D2E/DX2 analytically  !
 ! R10   R(6,12)                 2.3739         calculate D2E/DX2 analytically  !
 ! R11   R(8,9)                  1.0817         calculate D2E/DX2 analytically  !
 ! R12   R(8,10)                 1.0838         calculate D2E/DX2 analytically  !
 ! R13   R(8,14)                 2.2585         calculate D2E/DX2 analytically  !
 ! R14   R(10,16)                2.3738         calculate D2E/DX2 analytically  !
 ! R15   R(11,12)                1.0817         calculate D2E/DX2 analytically  !
 ! R16   R(11,13)                1.0848         calculate D2E/DX2 analytically  !
 ! R17   R(14,15)                1.0848         calculate D2E/DX2 analytically  !
 ! R18   R(14,16)                1.0817         calculate D2E/DX2 analytically  !
 ! A1    A(2,1,3)              117.9722         calculate D2E/DX2 analytically  !
 ! A2    A(2,1,11)             121.9536         calculate D2E/DX2 analytically  !
 ! A3    A(3,1,11)             118.6274         calculate D2E/DX2 analytically  !
 ! A4    A(1,2,4)              117.9688         calculate D2E/DX2 analytically  !
 ! A5    A(1,2,14)             121.9562         calculate D2E/DX2 analytically  !
 ! A6    A(4,2,14)             118.6251         calculate D2E/DX2 analytically  !
 ! A7    A(6,5,7)              115.1237         calculate D2E/DX2 analytically  !
 ! A8    A(6,5,8)              119.9645         calculate D2E/DX2 analytically  !
 ! A9    A(6,5,11)              90.7557         calculate D2E/DX2 analytically  !
 ! A10   A(7,5,8)              120.1088         calculate D2E/DX2 analytically  !
 ! A11   A(7,5,11)              91.3116         calculate D2E/DX2 analytically  !
 ! A12   A(8,5,11)             109.1337         calculate D2E/DX2 analytically  !
 ! A13   A(5,6,12)              79.232          calculate D2E/DX2 analytically  !
 ! A14   A(5,8,9)              120.1065         calculate D2E/DX2 analytically  !
 ! A15   A(5,8,10)             119.9643         calculate D2E/DX2 analytically  !
 ! A16   A(5,8,14)             109.1396         calculate D2E/DX2 analytically  !
 ! A17   A(9,8,10)             115.1244         calculate D2E/DX2 analytically  !
 ! A18   A(9,8,14)              91.3053         calculate D2E/DX2 analytically  !
 ! A19   A(10,8,14)             90.7604         calculate D2E/DX2 analytically  !
 ! A20   A(8,10,16)             79.2323         calculate D2E/DX2 analytically  !
 ! A21   A(1,11,5)             101.8312         calculate D2E/DX2 analytically  !
 ! A22   A(1,11,12)            120.7715         calculate D2E/DX2 analytically  !
 ! A23   A(1,11,13)            120.1132         calculate D2E/DX2 analytically  !
 ! A24   A(5,11,12)             85.0382         calculate D2E/DX2 analytically  !
 ! A25   A(5,11,13)            104.1484         calculate D2E/DX2 analytically  !
 ! A26   A(12,11,13)           114.4768         calculate D2E/DX2 analytically  !
 ! A27   A(6,12,11)             84.8062         calculate D2E/DX2 analytically  !
 ! A28   A(2,14,8)             101.8386         calculate D2E/DX2 analytically  !
 ! A29   A(2,14,15)            120.1048         calculate D2E/DX2 analytically  !
 ! A30   A(2,14,16)            120.7787         calculate D2E/DX2 analytically  !
 ! A31   A(8,14,15)            104.1491         calculate D2E/DX2 analytically  !
 ! A32   A(8,14,16)             85.0386         calculate D2E/DX2 analytically  !
 ! A33   A(15,14,16)           114.4748         calculate D2E/DX2 analytically  !
 ! A34   A(10,16,14)            84.8104         calculate D2E/DX2 analytically  !
 ! D1    D(3,1,2,4)             -0.0006         calculate D2E/DX2 analytically  !
 ! D2    D(3,1,2,14)          -166.0647         calculate D2E/DX2 analytically  !
 ! D3    D(11,1,2,4)           166.0785         calculate D2E/DX2 analytically  !
 ! D4    D(11,1,2,14)            0.0144         calculate D2E/DX2 analytically  !
 ! D5    D(2,1,11,5)           -58.3082         calculate D2E/DX2 analytically  !
 ! D6    D(2,1,11,12)           32.9457         calculate D2E/DX2 analytically  !
 ! D7    D(2,1,11,13)         -172.5256         calculate D2E/DX2 analytically  !
 ! D8    D(3,1,11,5)           107.6832         calculate D2E/DX2 analytically  !
 ! D9    D(3,1,11,12)         -161.0628         calculate D2E/DX2 analytically  !
 ! D10   D(3,1,11,13)           -6.5342         calculate D2E/DX2 analytically  !
 ! D11   D(1,2,14,8)            58.2917         calculate D2E/DX2 analytically  !
 ! D12   D(1,2,14,15)          172.5112         calculate D2E/DX2 analytically  !
 ! D13   D(1,2,14,16)          -32.9689         calculate D2E/DX2 analytically  !
 ! D14   D(4,2,14,8)          -107.6845         calculate D2E/DX2 analytically  !
 ! D15   D(4,2,14,15)            6.535          calculate D2E/DX2 analytically  !
 ! D16   D(4,2,14,16)          161.055          calculate D2E/DX2 analytically  !
 ! D17   D(7,5,6,12)          -113.0438         calculate D2E/DX2 analytically  !
 ! D18   D(8,5,6,12)            91.4644         calculate D2E/DX2 analytically  !
 ! D19   D(11,5,6,12)          -21.2404         calculate D2E/DX2 analytically  !
 ! D20   D(6,5,8,9)            154.2704         calculate D2E/DX2 analytically  !
 ! D21   D(6,5,8,10)             0.0066         calculate D2E/DX2 analytically  !
 ! D22   D(6,5,8,14)          -102.4851         calculate D2E/DX2 analytically  !
 ! D23   D(7,5,8,9)              0.0021         calculate D2E/DX2 analytically  !
 ! D24   D(7,5,8,10)          -154.2617         calculate D2E/DX2 analytically  !
 ! D25   D(7,5,8,14)           103.2466         calculate D2E/DX2 analytically  !
 ! D26   D(11,5,8,9)          -103.2475         calculate D2E/DX2 analytically  !
 ! D27   D(11,5,8,10)          102.4888         calculate D2E/DX2 analytically  !
 ! D28   D(11,5,8,14)           -0.003          calculate D2E/DX2 analytically  !
 ! D29   D(6,5,11,1)           172.0609         calculate D2E/DX2 analytically  !
 ! D30   D(6,5,11,12)           51.6299         calculate D2E/DX2 analytically  !
 ! D31   D(6,5,11,13)          -62.3871         calculate D2E/DX2 analytically  !
 ! D32   D(7,5,11,1)           -72.7869         calculate D2E/DX2 analytically  !
 ! D33   D(7,5,11,12)          166.7822         calculate D2E/DX2 analytically  !
 ! D34   D(7,5,11,13)           52.7651         calculate D2E/DX2 analytically  !
 ! D35   D(8,5,11,1)            49.8328         calculate D2E/DX2 analytically  !
 ! D36   D(8,5,11,12)          -70.5982         calculate D2E/DX2 analytically  !
 ! D37   D(8,5,11,13)          175.3848         calculate D2E/DX2 analytically  !
 ! D38   D(5,6,12,11)           49.4214         calculate D2E/DX2 analytically  !
 ! D39   D(5,8,10,16)          -91.4771         calculate D2E/DX2 analytically  !
 ! D40   D(9,8,10,16)          113.0362         calculate D2E/DX2 analytically  !
 ! D41   D(14,8,10,16)          21.2375         calculate D2E/DX2 analytically  !
 ! D42   D(5,8,14,2)           -49.8227         calculate D2E/DX2 analytically  !
 ! D43   D(5,8,14,15)         -175.3689         calculate D2E/DX2 analytically  !
 ! D44   D(5,8,14,16)           70.6159         calculate D2E/DX2 analytically  !
 ! D45   D(9,8,14,2)            72.7933         calculate D2E/DX2 analytically  !
 ! D46   D(9,8,14,15)          -52.753          calculate D2E/DX2 analytically  !
 ! D47   D(9,8,14,16)         -166.7681         calculate D2E/DX2 analytically  !
 ! D48   D(10,8,14,2)         -172.0539         calculate D2E/DX2 analytically  !
 ! D49   D(10,8,14,15)          62.3999         calculate D2E/DX2 analytically  !
 ! D50   D(10,8,14,16)         -51.6153         calculate D2E/DX2 analytically  !
 ! D51   D(8,10,16,14)         -49.407          calculate D2E/DX2 analytically  !
 ! D52   D(1,11,12,6)         -121.8891         calculate D2E/DX2 analytically  !
 ! D53   D(5,11,12,6)          -21.0632         calculate D2E/DX2 analytically  !
 ! D54   D(13,11,12,6)          82.2373         calculate D2E/DX2 analytically  !
 ! D55   D(2,14,16,10)         121.8951         calculate D2E/DX2 analytically  !
 ! D56   D(8,14,16,10)          21.0601         calculate D2E/DX2 analytically  !
 ! D57   D(15,14,16,10)        -82.2414         calculate D2E/DX2 analytically  !
 --------------------------------------------------------------------------------
 Trust Radius=3.00D-01 FncErr=1.00D-07 GrdErr=1.00D-07 EigMax=2.50D+02 EigMin=1.00D-04
 Number of steps in this run=    100 maximum allowed number of steps=    100.
 Search for a saddle point of order  1.
 GradGradGradGradGradGradGradGradGradGradGradGradGradGradGradGradGradGrad

 Leave Link  103 at Mon Oct  6 14:26:37 2025, MaxMem=   104857600 cpu:               0.0 elap:               0.0
 (Enter /home/zhouoh/g16/l202.exe)
                          Input orientation:                          
 ---------------------------------------------------------------------
 Center     Atomic      Atomic             Coordinates (Angstroms)
 Number     Number       Type             X           Y           Z
 ---------------------------------------------------------------------
      1          6           0       -1.313203    0.701601    0.291499
      2          6           0       -1.313110   -0.701813    0.291421
      3          1           0       -1.850219    1.211440    1.087466
      4          1           0       -1.850067   -1.211755    1.087363
      5          6           0        1.563998    0.691596    0.228255
      6          1           0        2.064780    1.233008   -0.565989
      7          1           0        1.458009    1.234171    1.158002
      8          6           0        1.564091   -0.691309    0.228195
      9          1           0        1.458139   -1.233942    1.157913
     10          1           0        2.065038   -1.232580   -0.566038
     11          6           0       -0.444379    1.431816   -0.492816
     12          1           0       -0.128108    1.063006   -1.459265
     13          1           0       -0.385380    2.509311   -0.381627
     14          6           0       -0.443996   -1.431896   -0.492753
     15          1           0       -0.384861   -2.509365   -0.381358
     16          1           0       -0.127733   -1.063262   -1.459273
 ---------------------------------------------------------------------
                    Distance matrix (angstroms):
                    1          2          3          4          5
     1  C    0.000000
     2  C    1.403414   0.000000
     3  H    1.087146   2.140727   0.000000
     4  H    2.140690   1.087146   2.423195   0.000000
     5  C    2.877913   3.197394   3.558842   4.002081   0.000000
     6  H    3.525400   3.986079   4.249894   4.902700   1.083851
     7  H    2.951961   3.489713   3.309058   4.114719   1.081689
     8  C    3.197347   2.877915   4.002039   3.558863   1.382905
     9  H    3.489604   2.951913   4.114619   3.309033   2.140833
    10  H    3.986093   3.525455   4.902708   4.249967   2.141120
    11  C    1.379572   2.433535   2.126557   3.385468   2.258638
    12  H    2.144817   2.753855   3.077911   3.824264   2.418448
    13  H    2.140507   3.409545   2.447132   4.260231   2.734249
    14  C    2.433594   1.379605   3.385525   2.126562   3.010168
    15  H    3.409525   2.140449   4.260177   2.446990   3.796819
    16  H    2.754139   2.144923   3.824540   3.077960   2.964664
                    6          7          8          9         10
     6  H    0.000000
     7  H    1.827654   0.000000
     8  C    2.141124   2.140857   0.000000
     9  H    3.070129   2.468113   1.081689   0.000000
    10  H    2.465588   3.070124   1.083849   1.827658   0.000000
    11  C    2.518086   2.526528   3.010227   3.667526   3.660812
    12  H    2.373942   3.065151   2.964571   3.826457   3.298099
    13  H    2.768794   2.719287   3.796879   4.447549   4.476640
    14  C    3.660742   3.667496   2.258462   2.526262   2.518005
    15  H    4.476627   4.447456   2.734099   2.718953   2.768807
    16  H    3.298170   3.826605   2.418298   3.064928   2.373770
                   11         12         13         14         15
    11  C    0.000000
    12  H    1.081699   0.000000
    13  H    1.084822   1.821892   0.000000
    14  C    2.863712   2.694154   3.943209   0.000000
    15  H    3.943206   3.740273   5.018676   1.084825   0.000000
    16  H    2.694386   2.126268   3.740452   1.081700   1.821875
                   16
    16  H    0.000000
 Stoichiometry    C6H10
 Framework group  C1[X(C6H10)]
 Deg. of freedom    42
 Full point group                 C1      NOp   1
 Largest Abelian subgroup         C1      NOp   1
 Largest concise Abelian subgroup C1      NOp   1
                         Standard orientation:                         
 ---------------------------------------------------------------------
 Center     Atomic      Atomic             Coordinates (Angstroms)
 Number     Number       Type             X           Y           Z
 ---------------------------------------------------------------------
      1          6           0       -1.313203   -0.701601   -0.291499
      2          6           0       -1.313110    0.701813   -0.291421
      3          1           0       -1.850219   -1.211440   -1.087466
      4          1           0       -1.850067    1.211755   -1.087363
      5          6           0        1.563998   -0.691596   -0.228255
      6          1           0        2.064780   -1.233008    0.565989
      7          1           0        1.458009   -1.234171   -1.158002
      8          6           0        1.564091    0.691309   -0.228195
      9          1           0        1.458139    1.233942   -1.157913
     10          1           0        2.065038    1.232580    0.566038
     11          6           0       -0.444379   -1.431816    0.492816
     12          1           0       -0.128108   -1.063006    1.459265
     13          1           0       -0.385380   -2.509311    0.381627
     14          6           0       -0.443996    1.431896    0.492753
     15          1           0       -0.384861    2.509365    0.381358
     16          1           0       -0.127733    1.063262    1.459273
 ---------------------------------------------------------------------
 Rotational constants (GHZ):           4.3588970           3.5020390           2.2817602
 Leave Link  202 at Mon Oct  6 14:26:37 2025, MaxMem=   104857600 cpu:               0.0 elap:               0.0
 (Enter /home/zhouoh/g16/l301.exe)
 Standard basis: STO-3G (5D, 7F)
 Ernie: Thresh=  0.10000D-02 Tol=  0.10000D-05 Strict=F.
 There are    40 symmetry adapted cartesian basis functions of A   symmetry.
 There are    40 symmetry adapted basis functions of A   symmetry.
    40 basis functions,   120 primitive gaussians,    40 cartesian basis functions
    23 alpha electrons       23 beta electrons
       nuclear repulsion energy       224.8435502332 Hartrees.
 IExCor=    0 DFT=F Ex=HF Corr=None ExCW=0 ScaHFX=  1.000000
 ScaDFX=  1.000000  1.000000  1.000000  1.000000 ScalE2=  1.000000  1.000000
 IRadAn=      5 IRanWt=     -1 IRanGd=            0 ICorTp=0 IEmpDi=  4
 NAtoms=   16 NActive=   16 NUniq=   16 SFac= 1.00D+00 NAtFMM=   60 NAOKFM=F Big=F
 Integral buffers will be    131072 words long.
 Raffenetti 1 integral format.
 Two-electron integral symmetry is turned on.
 Leave Link  301 at Mon Oct  6 14:26:37 2025, MaxMem=   104857600 cpu:               0.0 elap:               0.0
 (Enter /home/zhouoh/g16/l402.exe)
 External calculation of energy, first and second derivatives.
 Running external command "python ../GauUMA_client.py R"
         input file       "/home/zhouoh/scratch/Gau-2816605.EIn"
         output file      "/home/zhouoh/scratch/Gau-2816605.EOu"
         message file     "/home/zhouoh/scratch/Gau-2816605.EMs"
         fchk file        "/home/zhouoh/scratch/Gau-2816605.EFC"
         mat. el file     "/home/zhouoh/scratch/Gau-2816605.EUF"
Sent job to server.
Received result from server:
SCF Done:  E(UMA) =  -234.49345793277877     A.U.
 Recovered energy= -234.493457933     dipole=      0.000000000000      0.000000000000      0.000000000000
 Energy=    -234.493458     NIter=   0.
 Dipole moment=       0.000000       0.000000       0.000000
 Leave Link  402 at Mon Oct  6 14:26:40 2025, MaxMem=   104857600 cpu:               0.0 elap:               2.6
 (Enter /home/zhouoh/g16/l601.exe)
 Leave Link  601 at Mon Oct  6 14:26:40 2025, MaxMem=   104857600 cpu:               0.0 elap:               0.0
 (Enter /home/zhouoh/g16/l716.exe)
 Dipole        = 0.00000000D+00 0.00000000D+00 0.00000000D+00
 ***** Axes restored to original set *****
 -------------------------------------------------------------------
 Center     Atomic                   Forces (Hartrees/Bohr)
 Number     Number              X              Y              Z
 -------------------------------------------------------------------
      1        6           0.005162921    0.006360982   -0.001929538
      2        6           0.006118349   -0.006234688   -0.003331805
      3        1           0.001098447   -0.000833640   -0.001356105
      4        1           0.001168993    0.000858356   -0.001206996
      5        6           0.001548945   -0.007377531    0.001000470
      6        1          -0.001497815   -0.001021511    0.000020694
      7        1          -0.000968585   -0.000971965   -0.001010873
      8        6           0.001653639    0.007590486    0.001118685
      9        1          -0.001132979    0.000833242   -0.000982748
     10        1          -0.001624999    0.001040584    0.000088507
     11        6          -0.006440473   -0.003578871    0.001501072
     12        1           0.000725441   -0.000964811    0.001471068
     13        1          -0.000025687   -0.001487857    0.000885432
     14        6          -0.006584182    0.003203669    0.001269437
     15        1          -0.000026059    0.001587596    0.000830928
     16        1           0.000824049    0.000995957    0.001631773
 -------------------------------------------------------------------
 Cartesian Forces:  Max     0.007590486 RMS     0.002971312
 FormGI is forming the generalized inverse of G from B-inverse, IUseBI=4.
 Leave Link  716 at Mon Oct  6 14:26:40 2025, MaxMem=   104857600 cpu:               0.0 elap:               0.0
 (Enter /home/zhouoh/g16/l103.exe)

 GradGradGradGradGradGradGradGradGradGradGradGradGradGradGradGradGradGrad
 Berny optimization.
 Red2BG is reusing G-inverse.
 Internal  Forces:  Max     0.009808356 RMS     0.001682959
 Search for a saddle point.
 Step number   1 out of a maximum of  100
 All quantities printed in internal units (Hartrees-Bohrs-Radians)
 Swapping is turned off.
 Second derivative matrix not updated -- analytic derivatives used.
 ITU=  0
     Eigenvalues ---   -0.03905  -0.00878   0.00070   0.00581   0.00613
     Eigenvalues ---    0.00870   0.01128   0.01481   0.01597   0.01720
     Eigenvalues ---    0.01847   0.02159   0.02252   0.02265   0.02343
     Eigenvalues ---    0.02432   0.03306   0.03887   0.04151   0.04650
     Eigenvalues ---    0.05040   0.05211   0.05565   0.05949   0.09126
     Eigenvalues ---    0.10773   0.11722   0.11953   0.29921   0.30773
     Eigenvalues ---    0.32545   0.33451   0.33856   0.34811   0.34865
     Eigenvalues ---    0.35388   0.35496   0.35832   0.36069   0.42634
     Eigenvalues ---    0.43642   0.48816
 Eigenvectors required to have negative eigenvalues:
                          R9        R13       D20       D24       D6
   1                    0.55956   0.54386   0.16008  -0.15758  -0.15182
                          D13       A27       D9        D16       A24
   1                    0.14899   0.13474  -0.13327   0.12809  -0.12538
 Eigenvalue     2 is  -8.78D-03 should be greater than     0.000000 Eigenvector:
                          D28       D35       D4        D42       D27
   1                   -0.32805   0.25048  -0.22768   0.22519  -0.21589
                          D26       D37       D36       D25       D22
   1                   -0.21270   0.19068   0.18980  -0.18032  -0.17756
 RFO step:  Lambda0=2.233994966D-04 Lambda=-8.78477440D-03.
 Linear search not attempted -- option 19 set.
 Iteration  1 RMS(Cart)=  0.09123196 RMS(Int)=  0.00660955
 Iteration  2 RMS(Cart)=  0.00684799 RMS(Int)=  0.00302774
 Iteration  3 RMS(Cart)=  0.00002640 RMS(Int)=  0.00302765
 Iteration  4 RMS(Cart)=  0.00000014 RMS(Int)=  0.00302765
 ITry= 1 IFail=0 DXMaxC= 3.10D-01 DCOld= 1.00D+10 DXMaxT= 3.00D-01 DXLimC= 3.00D+00 Rises=F
 Variable       Old X    -DE/DX   Delta X   Delta X   Delta X     New X
                                 (Linear)    (Quad)   (Total)
    R1        2.65207  -0.00007   0.00000  -0.00336  -0.00183   2.65024
    R2        2.05441  -0.00193   0.00000  -0.00996  -0.00996   2.04445
    R3        2.60701  -0.00926   0.00000  -0.00862  -0.00754   2.59947
    R4        2.05441  -0.00186   0.00000  -0.00023  -0.00023   2.05418
    R5        2.60708  -0.00957   0.00000  -0.01909  -0.01856   2.58852
    R6        2.04818  -0.00105   0.00000  -0.00474  -0.00400   2.04418
    R7        2.04410  -0.00128   0.00000  -0.00224  -0.00224   2.04186
    R8        2.61331  -0.00981   0.00000  -0.01193  -0.01349   2.59982
    R9        4.26821  -0.00054   0.00000  -0.08161  -0.08266   4.18555
   R10        4.48610  -0.00044   0.00000   0.01871   0.01973   4.50583
   R11        2.04410  -0.00114   0.00000  -0.00191  -0.00191   2.04219
   R12        2.04818  -0.00110   0.00000  -0.00418  -0.00343   2.04475
   R13        4.26787  -0.00060   0.00000  -0.04215  -0.04513   4.22274
   R14        4.48577  -0.00059   0.00000  -0.09017  -0.08757   4.39821
   R15        2.04411  -0.00068   0.00000  -0.00037  -0.00178   2.04234
   R16        2.05002  -0.00140   0.00000  -0.00511  -0.00511   2.04491
   R17        2.05002  -0.00148   0.00000  -0.00248  -0.00248   2.04754
   R18        2.04412  -0.00087   0.00000  -0.00610  -0.00777   2.03635
    A1        2.05900   0.00063   0.00000   0.03593   0.03602   2.09502
    A2        2.12849  -0.00078   0.00000  -0.06932  -0.07321   2.05529
    A3        2.07044   0.00021   0.00000   0.05019   0.05094   2.12137
    A4        2.05894   0.00010   0.00000  -0.02992  -0.02865   2.03029
    A5        2.12854   0.00003   0.00000   0.05616   0.04927   2.17780
    A6        2.07040  -0.00007   0.00000  -0.04237  -0.03990   2.03050
    A7        2.00929   0.00042   0.00000   0.00351   0.00440   2.01369
    A8        2.09378  -0.00052   0.00000   0.05225   0.05270   2.14647
    A9        1.58399   0.00010   0.00000   0.06415   0.06621   1.65019
   A10        2.09629   0.00031   0.00000  -0.05550  -0.05539   2.04090
   A11        1.59369  -0.00034   0.00000  -0.07341  -0.07124   1.52245
   A12        1.90474  -0.00018   0.00000   0.00933  -0.00441   1.90034
   A13        1.38286  -0.00001   0.00000  -0.04323  -0.04533   1.33753
   A14        2.09625   0.00031   0.00000   0.01262   0.01336   2.10962
   A15        2.09377  -0.00045   0.00000  -0.01852  -0.01828   2.07549
   A16        1.90485  -0.00019   0.00000  -0.00798  -0.01904   1.88581
   A17        2.00930   0.00037   0.00000   0.00492   0.00572   2.01502
   A18        1.59358  -0.00026   0.00000   0.06818   0.07127   1.66485
   A19        1.58407  -0.00003   0.00000  -0.05674  -0.05463   1.52944
   A20        1.38286   0.00008   0.00000   0.01631   0.01210   1.39496
   A21        1.77729  -0.00032   0.00000   0.02916   0.02596   1.80325
   A22        2.10786   0.00012   0.00000  -0.04441  -0.04381   2.06405
   A23        2.09637  -0.00043   0.00000   0.03565   0.03674   2.13311
   A24        1.48420   0.00002   0.00000   0.00177   0.00069   1.48488
   A25        1.81773  -0.00033   0.00000  -0.04184  -0.03907   1.77866
   A26        1.99800   0.00063   0.00000   0.00937   0.00870   2.00670
   A27        1.48015  -0.00007   0.00000   0.01318   0.01348   1.49362
   A28        1.77742  -0.00051   0.00000  -0.03023  -0.03360   1.74381
   A29        2.09622  -0.00040   0.00000  -0.04836  -0.04692   2.04931
   A30        2.10799   0.00011   0.00000   0.04985   0.05003   2.15802
   A31        1.81774  -0.00029   0.00000   0.02824   0.03045   1.84820
   A32        1.48420   0.00010   0.00000  -0.00520  -0.00654   1.47767
   A33        1.99796   0.00065   0.00000   0.00697   0.00633   2.00430
   A34        1.48022  -0.00013   0.00000  -0.03153  -0.03213   1.44809
    D1       -0.00001  -0.00003   0.00000   0.00323   0.00329   0.00328
    D2       -2.89838  -0.00031   0.00000   0.08582   0.08917  -2.80921
    D3        2.89862   0.00030   0.00000   0.09027   0.08640   2.98501
    D4        0.00025   0.00003   0.00000   0.17286   0.17227   0.17253
    D5       -1.01767  -0.00085   0.00000  -0.08337  -0.07652  -1.09419
    D6        0.57501  -0.00099   0.00000  -0.07366  -0.07126   0.50376
    D7       -3.01114   0.00001   0.00000  -0.06960  -0.06521  -3.07635
    D8        1.87943  -0.00046   0.00000   0.00216   0.00557   1.88499
    D9       -2.81108  -0.00060   0.00000   0.01188   0.01083  -2.80025
   D10       -0.11404   0.00040   0.00000   0.01593   0.01687  -0.09717
   D11        1.01738   0.00083   0.00000  -0.07596  -0.08318   0.93421
   D12        3.01089  -0.00010   0.00000  -0.08629  -0.09018   2.92071
   D13       -0.57542   0.00099   0.00000  -0.06275  -0.06409  -0.63950
   D14       -1.87945   0.00053   0.00000   0.00537   0.00120  -1.87825
   D15        0.11406  -0.00040   0.00000  -0.00496  -0.00580   0.10826
   D16        2.81094   0.00069   0.00000   0.01857   0.02029   2.83123
   D17       -1.97299   0.00037   0.00000   0.06161   0.05809  -1.91490
   D18        1.59636  -0.00023   0.00000   0.07555   0.06851   1.66487
   D19       -0.37072   0.00005   0.00000   0.01073   0.01069  -0.36002
   D20        2.69253   0.00070   0.00000   0.04979   0.05337   2.74590
   D21        0.00012   0.00002   0.00000   0.05102   0.04997   0.05009
   D22       -1.78870   0.00040   0.00000   0.13629   0.13729  -1.65142
   D23        0.00004   0.00006   0.00000   0.04822   0.04875   0.04879
   D24       -2.69237  -0.00062   0.00000   0.04946   0.04535  -2.64702
   D25        1.80199  -0.00024   0.00000   0.13473   0.13267   1.93466
   D26       -1.80201   0.00045   0.00000   0.16151   0.16325  -1.63876
   D27        1.78877  -0.00023   0.00000   0.16275   0.15985   1.94862
   D28       -0.00005   0.00015   0.00000   0.24802   0.24717   0.24712
   D29        3.00303   0.00024   0.00000  -0.08433  -0.08346   2.91957
   D30        0.90111   0.00012   0.00000  -0.03994  -0.03935   0.86176
   D31       -1.08886  -0.00053   0.00000  -0.04931  -0.04806  -1.13693
   D32       -1.27037   0.00066   0.00000  -0.08067  -0.08176  -1.35213
   D33        2.91090   0.00053   0.00000  -0.03628  -0.03765   2.87325
   D34        0.92092  -0.00012   0.00000  -0.04564  -0.04636   0.87456
   D35        0.86975   0.00081   0.00000  -0.17000  -0.16998   0.69977
   D36       -1.23217   0.00068   0.00000  -0.12561  -0.12587  -1.35804
   D37        3.06104   0.00004   0.00000  -0.13498  -0.13458   2.92646
   D38        0.86257   0.00009   0.00000  -0.05673  -0.05607   0.80650
   D39       -1.59658   0.00029   0.00000   0.08315   0.09066  -1.50592
   D40        1.97285  -0.00036   0.00000   0.08204   0.08511   2.05797
   D41        0.37066  -0.00007   0.00000   0.03321   0.03200   0.40267
   D42       -0.86957  -0.00082   0.00000  -0.18571  -0.18438  -1.05395
   D43       -3.06076  -0.00001   0.00000  -0.13000  -0.12941   3.09301
   D44        1.23248  -0.00070   0.00000  -0.13645  -0.13497   1.09751
   D45        1.27048  -0.00064   0.00000  -0.14488  -0.14369   1.12679
   D46       -0.92071   0.00017   0.00000  -0.08917  -0.08873  -1.00944
   D47       -2.91065  -0.00051   0.00000  -0.09562  -0.09429  -3.00494
   D48       -3.00291  -0.00028   0.00000  -0.14001  -0.14026   3.14001
   D49        1.08908   0.00053   0.00000  -0.08430  -0.08530   1.00379
   D50       -0.90086  -0.00015   0.00000  -0.09075  -0.09086  -0.99172
   D51       -0.86231  -0.00014   0.00000  -0.09590  -0.09575  -0.95806
   D52       -2.12737   0.00048   0.00000  -0.01840  -0.01283  -2.14019
   D53       -0.36762   0.00012   0.00000   0.01546   0.01616  -0.35147
   D54        1.43531  -0.00023   0.00000  -0.02956  -0.02646   1.40885
   D55        2.12747  -0.00063   0.00000  -0.00095  -0.00812   2.11935
   D56        0.36757  -0.00010   0.00000   0.03603   0.03493   0.40250
   D57       -1.43538   0.00016   0.00000   0.00719   0.00422  -1.43116
         Item               Value     Threshold  Converged?
 Maximum Force            0.009808     0.000450     NO 
 RMS     Force            0.001683     0.000300     NO 
 Maximum Displacement     0.310182     0.001800     NO 
 RMS     Displacement     0.093536     0.001200     NO 
 Predicted change in Energy=-3.007808D-03
 GradGradGradGradGradGradGradGradGradGradGradGradGradGradGradGradGradGrad

 Leave Link  103 at Mon Oct  6 14:26:40 2025, MaxMem=   104857600 cpu:               0.0 elap:               0.0
 (Enter /home/zhouoh/g16/l202.exe)
                          Input orientation:                          
 ---------------------------------------------------------------------
 Center     Atomic      Atomic             Coordinates (Angstroms)
 Number     Number       Type             X           Y           Z
 ---------------------------------------------------------------------
      1          6           0       -1.284973    0.693691    0.381873
      2          6           0       -1.301815   -0.698331    0.212043
      3          1           0       -1.799182    1.143121    1.220950
      4          1           0       -1.851922   -1.268204    0.956524
      5          6           0        1.567423    0.693780    0.125805
      6          1           0        2.061466    1.157136   -0.717625
      7          1           0        1.490727    1.307377    1.011865
      8          6           0        1.511384   -0.669137    0.304818
      9          1           0        1.350889   -1.093461    1.285665
     10          1           0        2.020614   -1.311040   -0.401897
     11          6           0       -0.448106    1.427651   -0.426324
     12          1           0       -0.217526    1.041634   -1.409107
     13          1           0       -0.333551    2.498171   -0.317474
     14          6           0       -0.414811   -1.402220   -0.558720
     15          1           0       -0.400164   -2.479606   -0.444610
     16          1           0       -0.017453   -1.040534   -1.492792
 ---------------------------------------------------------------------
                    Distance matrix (angstroms):
                    1          2          3          4          5
     1  C    0.000000
     2  C    1.402445   0.000000
     3  H    1.081874   2.157827   0.000000
     4  H    2.121482   1.087026   2.426354   0.000000
     5  C    2.863867   3.190288   3.568653   4.028821   0.000000
     6  H    3.552791   3.952050   4.320055   4.898944   1.081735
     7  H    2.911703   3.529996   3.300636   4.220188   1.080503
     8  C    3.111728   2.814880   3.883739   3.477849   1.375765
     9  H    3.310365   2.888880   3.863863   3.224418   2.141586
    10  H    3.944634   3.433783   4.821554   4.104105   2.122063
    11  C    1.375582   2.378262   2.149390   3.339252   2.214898
    12  H    2.113791   2.613673   3.070690   3.688199   2.379705
    13  H    2.156488   3.381649   2.520116   4.256067   2.658200
    14  C    2.456570   1.369785   3.400364   2.092657   2.964969
    15  H    3.396435   2.101692   4.225577   2.353354   3.777188
    16  H    2.851054   2.161747   3.912455   3.068592   2.852986
                    6          7          8          9         10
     6  H    0.000000
     7  H    1.827416   0.000000
     8  C    2.164082   2.099274   0.000000
     9  H    3.095686   2.420443   1.080680   0.000000
    10  H    2.488622   3.022517   1.082035   1.828588   0.000000
    11  C    2.540864   2.417008   2.961536   3.538827   3.687222
    12  H    2.384385   2.974870   2.975467   3.778935   3.399825
    13  H    2.773915   2.552083   3.717913   4.278693   4.478762
    14  C    3.564758   3.666024   2.234578   2.571923   2.442172
    15  H    4.400006   4.476386   2.737418   2.825144   2.688408
    16  H    3.122906   3.749747   2.388866   3.097577   2.327432
                   11         12         13         14         15
    11  C    0.000000
    12  H    1.080758   0.000000
    13  H    1.082120   1.823904   0.000000
    14  C    2.833162   2.595092   3.908690   0.000000
    15  H    3.907594   3.655508   4.979846   1.083511   0.000000
    16  H    2.723005   2.093432   3.742155   1.077590   1.821011
                   16
    16  H    0.000000
 Stoichiometry    C6H10
 Framework group  C1[X(C6H10)]
 Deg. of freedom    42
 Full point group                 C1      NOp   1
 RotChk:  IX=3 Diff= 9.19D-02
 Largest Abelian subgroup         C1      NOp   1
 Largest concise Abelian subgroup C1      NOp   1
                         Standard orientation:                         
 ---------------------------------------------------------------------
 Center     Atomic      Atomic             Coordinates (Angstroms)
 Number     Number       Type             X           Y           Z
 ---------------------------------------------------------------------
      1          6           0       -1.247784   -0.772404   -0.351236
      2          6           0       -1.343631    0.620678   -0.220901
      3          1           0       -1.741883   -1.274755   -1.172187
      4          1           0       -1.931677    1.136190   -0.975934
      5          6           0        1.601815   -0.601071   -0.122847
      6          1           0        2.128533   -1.010647    0.728602
      7          1           0        1.553590   -1.243452   -0.990320
      8          6           0        1.465725    0.750616   -0.339991
      9          1           0        1.273142    1.136442   -1.330910
     10          1           0        1.942677    1.440921    0.343232
     11          6           0       -0.363480   -1.433331    0.469377
     12          1           0       -0.147714   -1.006411    1.438512
     13          1           0       -0.188167   -2.498194    0.389908
     14          6           0       -0.492614    1.396418    0.520928
     15          1           0       -0.541128    2.469108    0.376094
     16          1           0       -0.067563    1.085365    1.461022
 ---------------------------------------------------------------------
 Rotational constants (GHZ):           4.4228381           3.5889444           2.3450275
 Leave Link  202 at Mon Oct  6 14:26:40 2025, MaxMem=   104857600 cpu:               0.0 elap:               0.0
 (Enter /home/zhouoh/g16/l301.exe)
 Standard basis: STO-3G (5D, 7F)
 Ernie: Thresh=  0.10000D-02 Tol=  0.10000D-05 Strict=F.
 There are    40 symmetry adapted cartesian basis functions of A   symmetry.
 There are    40 symmetry adapted basis functions of A   symmetry.
    40 basis functions,   120 primitive gaussians,    40 cartesian basis functions
    23 alpha electrons       23 beta electrons
       nuclear repulsion energy       226.7191594242 Hartrees.
 IExCor=    0 DFT=F Ex=HF Corr=None ExCW=0 ScaHFX=  1.000000
 ScaDFX=  1.000000  1.000000  1.000000  1.000000 ScalE2=  1.000000  1.000000
 IRadAn=      5 IRanWt=     -1 IRanGd=            0 ICorTp=0 IEmpDi=  4
 NAtoms=   16 NActive=   16 NUniq=   16 SFac= 1.00D+00 NAtFMM=   60 NAOKFM=F Big=F
 Integral buffers will be    131072 words long.
 Raffenetti 1 integral format.
 Two-electron integral symmetry is turned on.
 Leave Link  301 at Mon Oct  6 14:26:40 2025, MaxMem=   104857600 cpu:               0.0 elap:               0.0
 (Enter /home/zhouoh/g16/l402.exe)
 External calculation of energy and first derivatives.
 Running external command "python ../GauUMA_client.py R"
         input file       "/home/zhouoh/scratch/Gau-2816605.EIn"
         output file      "/home/zhouoh/scratch/Gau-2816605.EOu"
         message file     "/home/zhouoh/scratch/Gau-2816605.EMs"
         fchk file        "/home/zhouoh/scratch/Gau-2816605.EFC"
         mat. el file     "/home/zhouoh/scratch/Gau-2816605.EUF"
Sent job to server.
Received result from server:
SCF Done:  E(UMA) =  -234.49046187099864     A.U.
 Recovered energy= -234.490461871     dipole=      0.000000000000      0.000000000000      0.000000000000
 Energy=    -234.490462     NIter=   0.
 Dipole moment=       0.000000       0.000000       0.000000
 Leave Link  402 at Mon Oct  6 14:26:40 2025, MaxMem=   104857600 cpu:               0.0 elap:               0.1
 (Enter /home/zhouoh/g16/l716.exe)
 Dipole        = 0.00000000D+00 0.00000000D+00 0.00000000D+00
 ***** Axes restored to original set *****
 -------------------------------------------------------------------
 Center     Atomic                   Forces (Hartrees/Bohr)
 Number     Number              X              Y              Z
 -------------------------------------------------------------------
      1        6           0.003722763    0.001347369   -0.018131192
      2        6          -0.003986990   -0.002000700    0.018356211
      3        1           0.000327287   -0.000135174    0.000411060
      4        1          -0.000060843   -0.000181929   -0.000535213
      5        6          -0.004187125    0.001491772    0.013881271
      6        1          -0.000453101   -0.003267143   -0.001449985
      7        1           0.001851042    0.002551772   -0.001375880
      8        6           0.005211475   -0.001893289   -0.010218540
      9        1          -0.001514767    0.000928141   -0.000571756
     10        1          -0.000077187   -0.001473296    0.000766670
     11        6          -0.002321509    0.000580191    0.001444678
     12        1           0.000460788    0.001242393   -0.000264060
     13        1          -0.000450746    0.000028086    0.001538615
     14        6           0.000687757   -0.001585217   -0.001049559
     15        1           0.000666147   -0.000052460   -0.002071635
     16        1           0.000125011    0.002419486   -0.000730682
 -------------------------------------------------------------------
 Cartesian Forces:  Max     0.018356211 RMS     0.004804491
 Leave Link  716 at Mon Oct  6 14:26:40 2025, MaxMem=   104857600 cpu:               0.0 elap:               0.0
 (Enter /home/zhouoh/g16/l103.exe)

 GradGradGradGradGradGradGradGradGradGradGradGradGradGradGradGradGradGrad
 Berny optimization.
 FormGI is forming the generalized inverse of G from B-inverse, IUseBI=4.
 Internal  Forces:  Max     0.007325794 RMS     0.001832143
 Search for a saddle point.
 Step number   2 out of a maximum of  100
 All quantities printed in internal units (Hartrees-Bohrs-Radians)
 Swapping is turned off.
 Update second derivatives using D2CorX and points    1    2
 ITU=  0  0
     Eigenvalues ---   -0.03906  -0.00209   0.00217   0.00611   0.00848
     Eigenvalues ---    0.00992   0.01142   0.01530   0.01700   0.01741
     Eigenvalues ---    0.01845   0.02216   0.02251   0.02336   0.02428
     Eigenvalues ---    0.02985   0.03390   0.03875   0.04180   0.04645
     Eigenvalues ---    0.05036   0.05211   0.05576   0.05973   0.09060
     Eigenvalues ---    0.11291   0.11698   0.11963   0.29938   0.30746
     Eigenvalues ---    0.32518   0.33433   0.33782   0.34810   0.34864
     Eigenvalues ---    0.35391   0.35494   0.35833   0.36069   0.42803
     Eigenvalues ---    0.43573   0.48683
 Eigenvectors required to have negative eigenvalues:
                          R9        R13       D24       D20       D6
   1                   -0.55975  -0.54217   0.15929  -0.15806   0.15283
                          D13       A27       D9        D16       A24
   1                   -0.14597  -0.13638   0.13071  -0.12986   0.12626
 Eigenvalue     2 is  -2.09D-03 should be greater than     0.000000 Eigenvector:
                          D36       D35       R13       D44       D50
   1                   -0.20244  -0.20238  -0.20238  -0.20076  -0.19326
                          D37       D43       D42       D28       D49
   1                   -0.19147  -0.19124  -0.18975   0.18910  -0.18375
 RFO step:  Lambda0=1.369388134D-06 Lambda=-6.22869692D-03.
 Linear search not attempted -- option 19 set.
 Maximum step size (   0.300) exceeded in Quadratic search.
    -- Step size scaled by   0.738
 Iteration  1 RMS(Cart)=  0.05144863 RMS(Int)=  0.00275153
 Iteration  2 RMS(Cart)=  0.00306132 RMS(Int)=  0.00124224
 Iteration  3 RMS(Cart)=  0.00000559 RMS(Int)=  0.00124222
 Iteration  4 RMS(Cart)=  0.00000000 RMS(Int)=  0.00124222
 ITry= 1 IFail=0 DXMaxC= 1.78D-01 DCOld= 1.00D+10 DXMaxT= 3.00D-01 DXLimC= 3.00D+00 Rises=F
 Variable       Old X    -DE/DX   Delta X   Delta X   Delta X     New X
                                 (Linear)    (Quad)   (Total)
    R1        2.65024   0.00108   0.00000   0.00249   0.00153   2.65176
    R2        2.04445   0.00011   0.00000   0.00529   0.00529   2.04973
    R3        2.59947  -0.00498   0.00000  -0.00605  -0.00671   2.59276
    R4        2.05418  -0.00024   0.00000  -0.00543  -0.00543   2.04876
    R5        2.58852   0.00580   0.00000   0.00964   0.00929   2.59781
    R6        2.04418   0.00030   0.00000  -0.00208  -0.00179   2.04239
    R7        2.04186   0.00019   0.00000   0.00000   0.00000   2.04186
    R8        2.59982   0.00033   0.00000   0.00020   0.00118   2.60100
    R9        4.18555   0.00079   0.00000   0.12303   0.12255   4.30810
   R10        4.50583  -0.00058   0.00000  -0.04967  -0.04932   4.45651
   R11        2.04219  -0.00066   0.00000  -0.00052  -0.00052   2.04167
   R12        2.04475  -0.00028   0.00000  -0.00120  -0.00061   2.04414
   R13        4.22274  -0.00064   0.00000  -0.14315  -0.14425   4.07849
   R14        4.39821   0.00080   0.00000   0.02615   0.02703   4.42524
   R15        2.04234  -0.00036   0.00000  -0.00208  -0.00162   2.04072
   R16        2.04491   0.00013   0.00000   0.00093   0.00093   2.04584
   R17        2.04754  -0.00016   0.00000  -0.00169  -0.00169   2.04585
   R18        2.03635   0.00175   0.00000   0.00664   0.00713   2.04348
    A1        2.09502  -0.00378   0.00000  -0.03925  -0.03914   2.05588
    A2        2.05529   0.00733   0.00000   0.07059   0.06669   2.12198
    A3        2.12137  -0.00375   0.00000  -0.04341  -0.04274   2.07864
    A4        2.03029   0.00400   0.00000   0.03897   0.03906   2.06935
    A5        2.17780  -0.00687   0.00000  -0.05731  -0.06112   2.11669
    A6        2.03050   0.00332   0.00000   0.04297   0.04334   2.07384
    A7        2.01369  -0.00027   0.00000   0.00489   0.00411   2.01781
    A8        2.14647  -0.00242   0.00000  -0.01249  -0.01179   2.13468
    A9        1.65019  -0.00079   0.00000   0.00274   0.00173   1.65192
   A10        2.04090   0.00248   0.00000   0.01854   0.01865   2.05955
   A11        1.52245   0.00131   0.00000  -0.00104   0.00063   1.52307
   A12        1.90034   0.00031   0.00000  -0.02388  -0.02560   1.87474
   A13        1.33753   0.00100   0.00000   0.03148   0.03000   1.36753
   A14        2.10962  -0.00094   0.00000  -0.01768  -0.01738   2.09224
   A15        2.07549   0.00102   0.00000   0.01521   0.01582   2.09131
   A16        1.88581   0.00109   0.00000   0.02694   0.02489   1.91070
   A17        2.01502   0.00010   0.00000  -0.00514  -0.00565   2.00937
   A18        1.66485  -0.00196   0.00000  -0.00681  -0.00535   1.65949
   A19        1.52944   0.00056   0.00000  -0.00279  -0.00365   1.52579
   A20        1.39496  -0.00055   0.00000  -0.04352  -0.04530   1.34967
   A21        1.80325  -0.00136   0.00000  -0.00575  -0.00556   1.79769
   A22        2.06405   0.00007   0.00000   0.03880   0.03805   2.10210
   A23        2.13311  -0.00015   0.00000  -0.03675  -0.03685   2.09626
   A24        1.48488   0.00051   0.00000  -0.04817  -0.04912   1.43576
   A25        1.77866   0.00054   0.00000   0.04021   0.04136   1.82003
   A26        2.00670   0.00028   0.00000   0.00531   0.00645   2.01315
   A27        1.49362   0.00006   0.00000   0.08423   0.08443   1.57806
   A28        1.74381   0.00095   0.00000   0.01126   0.01168   1.75549
   A29        2.04931   0.00117   0.00000   0.04129   0.04123   2.09053
   A30        2.15802  -0.00112   0.00000  -0.04622  -0.04637   2.11165
   A31        1.84820  -0.00078   0.00000  -0.03960  -0.03880   1.80939
   A32        1.47767  -0.00026   0.00000   0.03331   0.03210   1.50977
   A33        2.00430  -0.00014   0.00000  -0.00145  -0.00069   2.00360
   A34        1.44809  -0.00047   0.00000  -0.08293  -0.08312   1.36498
    D1        0.00328   0.00078   0.00000   0.03889   0.03911   0.04239
    D2       -2.80921  -0.00164   0.00000  -0.05890  -0.05702  -2.86623
    D3        2.98501  -0.00097   0.00000  -0.04822  -0.04953   2.93548
    D4        0.17253  -0.00339   0.00000  -0.14601  -0.14566   0.02687
    D5       -1.09419   0.00124   0.00000   0.12479   0.12802  -0.96617
    D6        0.50376   0.00111   0.00000   0.07541   0.07628   0.58003
    D7       -3.07635   0.00170   0.00000   0.09679   0.09877  -2.97758
    D8        1.88499  -0.00052   0.00000   0.03692   0.03878   1.92377
    D9       -2.80025  -0.00065   0.00000  -0.01247  -0.01296  -2.81321
   D10       -0.09717  -0.00005   0.00000   0.00892   0.00954  -0.08763
   D11        0.93421   0.00254   0.00000   0.12943   0.12614   1.06035
   D12        2.92071   0.00270   0.00000   0.10642   0.10446   3.02517
   D13       -0.63950   0.00243   0.00000   0.08965   0.08922  -0.55028
   D14       -1.87825   0.00001   0.00000   0.03231   0.03057  -1.84768
   D15        0.10826   0.00017   0.00000   0.00930   0.00889   0.11714
   D16        2.83123  -0.00010   0.00000  -0.00747  -0.00635   2.82487
   D17       -1.91490  -0.00057   0.00000   0.03524   0.03558  -1.87931
   D18        1.66487  -0.00071   0.00000   0.00268   0.00214   1.66700
   D19       -0.36002   0.00048   0.00000   0.03573   0.03740  -0.32262
   D20        2.74590   0.00035   0.00000   0.03691   0.03776   2.78365
   D21        0.05009  -0.00013   0.00000   0.05735   0.05700   0.10709
   D22       -1.65142  -0.00187   0.00000   0.03846   0.03946  -1.61196
   D23        0.04879   0.00087   0.00000   0.00720   0.00715   0.05594
   D24       -2.64702   0.00040   0.00000   0.02764   0.02639  -2.62063
   D25        1.93466  -0.00135   0.00000   0.00876   0.00885   1.94351
   D26       -1.63876  -0.00186   0.00000   0.01412   0.01350  -1.62526
   D27        1.94862  -0.00234   0.00000   0.03456   0.03274   1.98136
   D28        0.24712  -0.00408   0.00000   0.01568   0.01520   0.26231
   D29        2.91957  -0.00107   0.00000  -0.07974  -0.07907   2.84050
   D30        0.86176  -0.00122   0.00000  -0.10876  -0.10805   0.75371
   D31       -1.13693  -0.00160   0.00000  -0.10498  -0.10392  -1.24085
   D32       -1.35213  -0.00124   0.00000  -0.07494  -0.07493  -1.42706
   D33        2.87325  -0.00139   0.00000  -0.10397  -0.10390   2.76934
   D34        0.87456  -0.00177   0.00000  -0.10018  -0.09978   0.77478
   D35        0.69977   0.00191   0.00000  -0.05855  -0.05803   0.64174
   D36       -1.35804   0.00176   0.00000  -0.08758  -0.08701  -1.44505
   D37        2.92646   0.00137   0.00000  -0.08379  -0.08288   2.84358
   D38        0.80650  -0.00090   0.00000  -0.07432  -0.07614   0.73035
   D39       -1.50592  -0.00118   0.00000   0.00612   0.00631  -1.49961
   D40        2.05797  -0.00135   0.00000   0.02899   0.02795   2.08592
   D41        0.40267   0.00055   0.00000   0.03785   0.03556   0.43823
   D42       -1.05395   0.00177   0.00000  -0.06259  -0.06317  -1.11711
   D43        3.09301   0.00036   0.00000  -0.09811  -0.09867   2.99434
   D44        1.09751   0.00060   0.00000  -0.10456  -0.10476   0.99275
   D45        1.12679   0.00020   0.00000  -0.07608  -0.07643   1.05036
   D46       -1.00944  -0.00122   0.00000  -0.11159  -0.11194  -1.12138
   D47       -3.00494  -0.00098   0.00000  -0.11804  -0.11803  -3.12297
   D48        3.14001   0.00034   0.00000  -0.08147  -0.08238   3.05763
   D49        1.00379  -0.00107   0.00000  -0.11698  -0.11789   0.88590
   D50       -0.99172  -0.00083   0.00000  -0.12343  -0.12397  -1.11569
   D51       -0.95806  -0.00052   0.00000  -0.08793  -0.08569  -1.04375
   D52       -2.14019   0.00153   0.00000   0.06395   0.06694  -2.07325
   D53       -0.35147   0.00026   0.00000   0.03301   0.03353  -0.31794
   D54        1.40885   0.00108   0.00000   0.05533   0.05668   1.46554
   D55        2.11935   0.00109   0.00000   0.07120   0.06754   2.18689
   D56        0.40250   0.00013   0.00000   0.03588   0.03472   0.43722
   D57       -1.43116   0.00112   0.00000   0.06444   0.06284  -1.36832
         Item               Value     Threshold  Converged?
 Maximum Force            0.007326     0.000450     NO 
 RMS     Force            0.001832     0.000300     NO 
 Maximum Displacement     0.177522     0.001800     NO 
 RMS     Displacement     0.051387     0.001200     NO 
 Predicted change in Energy=-3.914833D-03
 GradGradGradGradGradGradGradGradGradGradGradGradGradGradGradGradGradGrad

 Leave Link  103 at Mon Oct  6 14:26:40 2025, MaxMem=   104857600 cpu:               0.0 elap:               0.0
 (Enter /home/zhouoh/g16/l202.exe)
                          Input orientation:                          
 ---------------------------------------------------------------------
 Center     Atomic      Atomic             Coordinates (Angstroms)
 Number     Number       Type             X           Y           Z
 ---------------------------------------------------------------------
      1          6           0       -1.312116    0.679669    0.326895
      2          6           0       -1.280412   -0.722108    0.270922
      3          1           0       -1.842616    1.140982    1.152895
      4          1           0       -1.817251   -1.283398    1.027328
      5          6           0        1.593472    0.665072    0.116418
      6          1           0        2.084511    1.093121   -0.745994
      7          1           0        1.542791    1.300965    0.988520
      8          6           0        1.482902   -0.694451    0.300599
      9          1           0        1.298054   -1.090415    1.288685
     10          1           0        1.981115   -1.371803   -0.379904
     11          6           0       -0.473784    1.448542   -0.440245
     12          1           0       -0.174239    1.117285   -1.423470
     13          1           0       -0.409259    2.515926   -0.271198
     14          6           0       -0.384071   -1.384160   -0.534104
     15          1           0       -0.306224   -2.462554   -0.478732
     16          1           0       -0.049873   -0.952646   -1.467621
 ---------------------------------------------------------------------
                    Distance matrix (angstroms):
                    1          2          3          4          5
     1  C    0.000000
     2  C    1.403253   0.000000
     3  H    1.084673   2.136599   0.000000
     4  H    2.144622   1.084155   2.427763   0.000000
     5  C    2.913238   3.194894   3.620425   4.032285   0.000000
     6  H    3.585960   3.956246   4.362384   4.900639   1.080787
     7  H    2.995705   3.546582   3.393168   4.239141   1.080505
     8  C    3.114647   2.763611   3.892852   3.430161   1.376391
     9  H    3.297155   2.796423   3.855047   3.132200   2.131482
    10  H    3.943789   3.388692   4.825399   4.051629   2.132008
    11  C    1.372031   2.422422   2.122825   3.379670   2.279747
    12  H    2.133084   2.734584   3.069479   3.803837   2.387583
    13  H    2.131831   3.396714   2.443977   4.254818   2.754422
    14  C    2.421152   1.374702   3.368926   2.121845   2.921165
    15  H    3.396237   2.130769   4.243605   2.437587   3.707437
    16  H    2.734593   2.142406   3.803197   3.075352   2.797637
                    6          7          8          9         10
     6  H    0.000000
     7  H    1.828988   0.000000
     8  C    2.157013   2.111518   0.000000
     9  H    3.086464   2.422539   1.080403   0.000000
    10  H    2.494105   3.034534   1.081714   1.824812   0.000000
    11  C    2.600900   2.475828   2.994977   3.546113   3.739587
    12  H    2.358285   2.966416   3.000153   3.794387   3.454003
    13  H    2.910102   2.621739   3.770112   4.284139   4.565100
    14  C    3.503672   3.638829   2.158244   2.497677   2.370239
    15  H    4.293002   4.442495   2.633347   2.753224   2.536025
    16  H    3.043272   3.694316   2.354287   3.071337   2.341737
                   11         12         13         14         15
    11  C    0.000000
    12  H    1.079903   0.000000
    13  H    1.082613   1.827338   0.000000
    14  C    2.835676   2.663124   3.909019   0.000000
    15  H    3.914873   3.704753   4.983869   1.082617   0.000000
    16  H    2.645922   2.074133   3.686676   1.081364   1.823030
                   16
    16  H    0.000000
 Stoichiometry    C6H10
 Framework group  C1[X(C6H10)]
 Deg. of freedom    42
 Full point group                 C1      NOp   1
 RotChk:  IX=3 Diff= 1.63D-01
 Largest Abelian subgroup         C1      NOp   1
 Largest concise Abelian subgroup C1      NOp   1
                         Standard orientation:                         
 ---------------------------------------------------------------------
 Center     Atomic      Atomic             Coordinates (Angstroms)
 Number     Number       Type             X           Y           Z
 ---------------------------------------------------------------------
      1          6           0       -1.352560   -0.609306   -0.308914
      2          6           0       -1.246383    0.788640   -0.248992
      3          1           0       -1.919882   -1.038807   -1.127565
      4          1           0       -1.765205    1.380377   -0.994689
      5          6           0        1.552817   -0.747993   -0.146104
      6          1           0        2.034624   -1.204700    0.706762
      7          1           0        1.454673   -1.376815   -1.019283
      8          6           0        1.510820    0.616193   -0.324103
      9          1           0        1.331018    1.025307   -1.307753
     10          1           0        2.054889    1.263716    0.350292
     11          6           0       -0.543428   -1.424196    0.441906
     12          1           0       -0.210990   -1.113093    1.421135
     13          1           0       -0.537795   -2.492802    0.268414
     14          6           0       -0.303572    1.399497    0.543325
     15          1           0       -0.170110    2.472539    0.490128
     16          1           0        0.022604    0.947269    1.469849
 ---------------------------------------------------------------------
 Rotational constants (GHZ):           4.4293950           3.5952075           2.3420237
 Leave Link  202 at Mon Oct  6 14:26:40 2025, MaxMem=   104857600 cpu:               0.0 elap:               0.0
 (Enter /home/zhouoh/g16/l301.exe)
 Standard basis: STO-3G (5D, 7F)
 Ernie: Thresh=  0.10000D-02 Tol=  0.10000D-05 Strict=F.
 There are    40 symmetry adapted cartesian basis functions of A   symmetry.
 There are    40 symmetry adapted basis functions of A   symmetry.
    40 basis functions,   120 primitive gaussians,    40 cartesian basis functions
    23 alpha electrons       23 beta electrons
       nuclear repulsion energy       226.7824841883 Hartrees.
 IExCor=    0 DFT=F Ex=HF Corr=None ExCW=0 ScaHFX=  1.000000
 ScaDFX=  1.000000  1.000000  1.000000  1.000000 ScalE2=  1.000000  1.000000
 IRadAn=      5 IRanWt=     -1 IRanGd=            0 ICorTp=0 IEmpDi=  4
 NAtoms=   16 NActive=   16 NUniq=   16 SFac= 1.00D+00 NAtFMM=   60 NAOKFM=F Big=F
 Integral buffers will be    131072 words long.
 Raffenetti 1 integral format.
 Two-electron integral symmetry is turned on.
 Leave Link  301 at Mon Oct  6 14:26:40 2025, MaxMem=   104857600 cpu:               0.0 elap:               0.0
 (Enter /home/zhouoh/g16/l402.exe)
 External calculation of energy and first derivatives.
 Running external command "python ../GauUMA_client.py R"
         input file       "/home/zhouoh/scratch/Gau-2816605.EIn"
         output file      "/home/zhouoh/scratch/Gau-2816605.EOu"
         message file     "/home/zhouoh/scratch/Gau-2816605.EMs"
         fchk file        "/home/zhouoh/scratch/Gau-2816605.EFC"
         mat. el file     "/home/zhouoh/scratch/Gau-2816605.EUF"
Sent job to server.
Received result from server:
SCF Done:  E(UMA) =  -234.4925594577042     A.U.
 Recovered energy= -234.492559458     dipole=      0.000000000000      0.000000000000      0.000000000000
 Energy=    -234.492559     NIter=   0.
 Dipole moment=       0.000000       0.000000       0.000000
 Leave Link  402 at Mon Oct  6 14:26:40 2025, MaxMem=   104857600 cpu:               0.0 elap:               0.1
 (Enter /home/zhouoh/g16/l716.exe)
 Dipole        = 0.00000000D+00 0.00000000D+00 0.00000000D+00
 ***** Axes restored to original set *****
 -------------------------------------------------------------------
 Center     Atomic                   Forces (Hartrees/Bohr)
 Number     Number              X              Y              Z
 -------------------------------------------------------------------
      1        6           0.001999489   -0.000885959    0.001934589
      2        6          -0.001046966    0.001241826   -0.001982719
      3        1          -0.000002463    0.000399318   -0.000464611
      4        1           0.000314432    0.000319381    0.000390822
      5        6          -0.004926881    0.001815495    0.009971481
      6        1          -0.000074221   -0.002005332   -0.001506540
      7        1           0.000646764    0.001642360   -0.001400159
      8        6           0.003849789   -0.001704905   -0.005254179
      9        1           0.000462204    0.000254260   -0.000071700
     10        1           0.000905181   -0.000180118    0.000235522
     11        6          -0.000028304   -0.001129810   -0.001383883
     12        1           0.000090151    0.000292179   -0.000319117
     13        1          -0.000095720   -0.000081032   -0.000483301
     14        6          -0.000739438    0.000490877   -0.000045620
     15        1          -0.000278650   -0.000100596   -0.000047973
     16        1          -0.001075363   -0.000367945    0.000427388
 -------------------------------------------------------------------
 Cartesian Forces:  Max     0.009971481 RMS     0.002075217
 Leave Link  716 at Mon Oct  6 14:26:40 2025, MaxMem=   104857600 cpu:               0.0 elap:               0.0
 (Enter /home/zhouoh/g16/l103.exe)

 GradGradGradGradGradGradGradGradGradGradGradGradGradGradGradGradGradGrad
 Berny optimization.
 FormGI is forming the generalized inverse of G from B-inverse, IUseBI=4.
 Internal  Forces:  Max     0.002375014 RMS     0.000662300
 Search for a saddle point.
 Step number   3 out of a maximum of  100
 All quantities printed in internal units (Hartrees-Bohrs-Radians)
 Swapping is turned off.
 Update second derivatives using D2CorX and points    2    3
 ITU=  0  0  0
     Eigenvalues ---   -0.03904   0.00052   0.00356   0.00610   0.00844
     Eigenvalues ---    0.01139   0.01186   0.01574   0.01696   0.01763
     Eigenvalues ---    0.01867   0.02219   0.02255   0.02355   0.02428
     Eigenvalues ---    0.02952   0.03513   0.03876   0.04293   0.04641
     Eigenvalues ---    0.05037   0.05214   0.05638   0.06051   0.09067
     Eigenvalues ---    0.11506   0.11722   0.12033   0.29898   0.30688
     Eigenvalues ---    0.32457   0.33353   0.33795   0.34810   0.34865
     Eigenvalues ---    0.35391   0.35495   0.35832   0.36069   0.42825
     Eigenvalues ---    0.43611   0.48724
 Eigenvectors required to have negative eigenvalues:
                          R9        R13       D20       D24       D6
   1                    0.55867   0.54280   0.15874  -0.15844  -0.15618
                          D13       A27       D9        D16       A24
   1                    0.14293   0.13607  -0.13448   0.12562  -0.12319
 RFO step:  Lambda0=1.967612578D-08 Lambda=-1.88304431D-03.
 Linear search not attempted -- option 19 set.
 Iteration  1 RMS(Cart)=  0.04715083 RMS(Int)=  0.00210891
 Iteration  2 RMS(Cart)=  0.00213592 RMS(Int)=  0.00086784
 Iteration  3 RMS(Cart)=  0.00000228 RMS(Int)=  0.00086783
 Iteration  4 RMS(Cart)=  0.00000000 RMS(Int)=  0.00086783
 ITry= 1 IFail=0 DXMaxC= 1.36D-01 DCOld= 1.00D+10 DXMaxT= 3.00D-01 DXLimC= 3.00D+00 Rises=F
 Variable       Old X    -DE/DX   Delta X   Delta X   Delta X     New X
                                 (Linear)    (Quad)   (Total)
    R1        2.65176  -0.00089   0.00000  -0.00191  -0.00195   2.64981
    R2        2.04973  -0.00018   0.00000  -0.00038  -0.00038   2.04935
    R3        2.59276  -0.00088   0.00000  -0.00106  -0.00101   2.59175
    R4        2.04876  -0.00005   0.00000  -0.00024  -0.00024   2.04852
    R5        2.59781   0.00010   0.00000  -0.00235  -0.00245   2.59536
    R6        2.04239   0.00067   0.00000   0.00372   0.00329   2.04568
    R7        2.04186  -0.00019   0.00000  -0.00194  -0.00194   2.03992
    R8        2.60100   0.00000   0.00000   0.00095   0.00099   2.60200
    R9        4.30810  -0.00083   0.00000  -0.10092  -0.10137   4.20673
   R10        4.45651  -0.00032   0.00000  -0.04842  -0.04772   4.40880
   R11        2.04167  -0.00024   0.00000   0.00025   0.00025   2.04192
   R12        2.04414  -0.00001   0.00000  -0.00004  -0.00023   2.04391
   R13        4.07849   0.00072   0.00000   0.11406   0.11342   4.19191
   R14        4.42524   0.00135   0.00000   0.06297   0.06348   4.48872
   R15        2.04072   0.00013   0.00000   0.00029   0.00062   2.04134
   R16        2.04584  -0.00016   0.00000   0.00015   0.00015   2.04599
   R17        2.04585   0.00008   0.00000  -0.00026  -0.00026   2.04559
   R18        2.04348  -0.00104   0.00000  -0.00220  -0.00225   2.04123
    A1        2.05588   0.00072   0.00000   0.00635   0.00587   2.06175
    A2        2.12198  -0.00020   0.00000   0.00402   0.00450   2.12647
    A3        2.07864  -0.00036   0.00000  -0.00663  -0.00698   2.07166
    A4        2.06935  -0.00017   0.00000  -0.00021  -0.00067   2.06869
    A5        2.11669  -0.00011   0.00000  -0.00887  -0.00864   2.10805
    A6        2.07384   0.00027   0.00000   0.00716   0.00713   2.08097
    A7        2.01781  -0.00005   0.00000  -0.00341  -0.00319   2.01462
    A8        2.13468  -0.00238   0.00000  -0.04897  -0.04824   2.08644
    A9        1.65192  -0.00028   0.00000  -0.03828  -0.03753   1.61439
   A10        2.05955   0.00232   0.00000   0.03619   0.03459   2.09414
   A11        1.52307   0.00004   0.00000   0.03864   0.03785   1.56092
   A12        1.87474   0.00071   0.00000   0.04546   0.04237   1.91711
   A13        1.36753   0.00036   0.00000   0.02104   0.01956   1.38709
   A14        2.09224  -0.00053   0.00000  -0.00199  -0.00237   2.08987
   A15        2.09131   0.00065   0.00000   0.01053   0.01074   2.10206
   A16        1.91070  -0.00093   0.00000  -0.02499  -0.02736   1.88334
   A17        2.00937   0.00002   0.00000   0.00349   0.00361   2.01298
   A18        1.65949   0.00025   0.00000  -0.03354  -0.03296   1.62653
   A19        1.52579   0.00050   0.00000   0.03501   0.03537   1.56116
   A20        1.34967  -0.00045   0.00000   0.00219   0.00047   1.35013
   A21        1.79769  -0.00048   0.00000  -0.01780  -0.01898   1.77871
   A22        2.10210  -0.00006   0.00000   0.00987   0.01067   2.11277
   A23        2.09626   0.00019   0.00000  -0.00682  -0.00752   2.08874
   A24        1.43576   0.00067   0.00000   0.04621   0.04546   1.48122
   A25        1.82003  -0.00018   0.00000  -0.01398  -0.01300   1.80703
   A26        2.01315  -0.00012   0.00000  -0.00667  -0.00656   2.00659
   A27        1.57806  -0.00038   0.00000  -0.06184  -0.06135   1.51671
   A28        1.75549   0.00012   0.00000   0.00412   0.00347   1.75896
   A29        2.09053   0.00034   0.00000   0.01200   0.01164   2.10218
   A30        2.11165  -0.00033   0.00000  -0.01242  -0.01191   2.09974
   A31        1.80939  -0.00015   0.00000   0.00556   0.00668   1.81607
   A32        1.50977   0.00005   0.00000  -0.02131  -0.02255   1.48722
   A33        2.00360  -0.00004   0.00000   0.00394   0.00396   2.00757
   A34        1.36498   0.00032   0.00000   0.05608   0.05625   1.42122
    D1        0.04239  -0.00026   0.00000  -0.02224  -0.02249   0.01990
    D2       -2.86623  -0.00023   0.00000  -0.01376  -0.01305  -2.87927
    D3        2.93548   0.00041   0.00000  -0.00610  -0.00736   2.92812
    D4        0.02687   0.00044   0.00000   0.00239   0.00208   0.02895
    D5       -0.96617  -0.00113   0.00000  -0.05585  -0.05379  -1.01996
    D6        0.58003  -0.00064   0.00000  -0.00955  -0.00889   0.57114
    D7       -2.97758  -0.00064   0.00000  -0.02114  -0.01980  -2.99738
    D8        1.92377  -0.00031   0.00000  -0.03769  -0.03679   1.88699
    D9       -2.81321   0.00019   0.00000   0.00862   0.00810  -2.80510
   D10       -0.08763   0.00018   0.00000  -0.00297  -0.00281  -0.09044
   D11        1.06035   0.00029   0.00000  -0.01632  -0.01878   1.04157
   D12        3.02517   0.00033   0.00000  -0.00131  -0.00276   3.02241
   D13       -0.55028   0.00022   0.00000   0.00906   0.00819  -0.54209
   D14       -1.84768   0.00037   0.00000  -0.00685  -0.00823  -1.85592
   D15        0.11714   0.00042   0.00000   0.00816   0.00778   0.12492
   D16        2.82487   0.00031   0.00000   0.01853   0.01874   2.84361
   D17       -1.87931   0.00029   0.00000  -0.04503  -0.04433  -1.92365
   D18        1.66700  -0.00001   0.00000  -0.01031  -0.01103   1.65597
   D19       -0.32262   0.00019   0.00000  -0.02065  -0.02044  -0.34305
   D20        2.78365   0.00017   0.00000  -0.02412  -0.02294   2.76071
   D21        0.10709  -0.00016   0.00000  -0.05415  -0.05409   0.05300
   D22       -1.61196  -0.00047   0.00000  -0.08625  -0.08493  -1.69689
   D23        0.05594   0.00043   0.00000   0.02067   0.02129   0.07723
   D24       -2.62063   0.00010   0.00000  -0.00937  -0.00986  -2.63049
   D25        1.94351  -0.00022   0.00000  -0.04147  -0.04070   1.90281
   D26       -1.62526  -0.00090   0.00000  -0.06489  -0.06569  -1.69095
   D27        1.98136  -0.00123   0.00000  -0.09493  -0.09683   1.88452
   D28        0.26231  -0.00155   0.00000  -0.12702  -0.12768   0.13464
   D29        2.84050  -0.00061   0.00000   0.06510   0.06555   2.90605
   D30        0.75371  -0.00068   0.00000   0.04581   0.04594   0.79966
   D31       -1.24085  -0.00071   0.00000   0.04215   0.04252  -1.19833
   D32       -1.42706  -0.00065   0.00000   0.06482   0.06454  -1.36252
   D33        2.76934  -0.00073   0.00000   0.04553   0.04493   2.81427
   D34        0.77478  -0.00076   0.00000   0.04187   0.04150   0.81628
   D35        0.64174   0.00189   0.00000   0.12106   0.12254   0.76427
   D36       -1.44505   0.00182   0.00000   0.10177   0.10293  -1.34212
   D37        2.84358   0.00179   0.00000   0.09811   0.09950   2.94307
   D38        0.73035  -0.00073   0.00000   0.03659   0.03602   0.76637
   D39       -1.49961   0.00032   0.00000  -0.01806  -0.01672  -1.51633
   D40        2.08592   0.00016   0.00000  -0.04522  -0.04492   2.04100
   D41        0.43823  -0.00035   0.00000  -0.02448  -0.02513   0.41310
   D42       -1.11711   0.00114   0.00000   0.10897   0.10788  -1.00923
   D43        2.99434   0.00077   0.00000   0.09182   0.09081   3.08516
   D44        0.99275   0.00081   0.00000   0.09262   0.09188   1.08463
   D45        1.05036   0.00034   0.00000   0.08169   0.08185   1.13221
   D46       -1.12138  -0.00002   0.00000   0.06454   0.06479  -1.05659
   D47       -3.12297   0.00002   0.00000   0.06534   0.06585  -3.05712
   D48        3.05763   0.00040   0.00000   0.08816   0.08772  -3.13783
   D49        0.88590   0.00003   0.00000   0.07102   0.07066   0.95656
   D50       -1.11569   0.00007   0.00000   0.07182   0.07172  -1.04397
   D51       -1.04375   0.00018   0.00000   0.05728   0.05800  -0.98575
   D52       -2.07325   0.00027   0.00000  -0.02664  -0.02589  -2.09914
   D53       -0.31794   0.00010   0.00000  -0.02112  -0.02145  -0.33939
   D54        1.46554   0.00021   0.00000  -0.01531  -0.01500   1.45054
   D55        2.18689  -0.00002   0.00000  -0.03636  -0.03747   2.14943
   D56        0.43722  -0.00018   0.00000  -0.02782  -0.02786   0.40937
   D57       -1.36832  -0.00004   0.00000  -0.02433  -0.02500  -1.39332
         Item               Value     Threshold  Converged?
 Maximum Force            0.002375     0.000450     NO 
 RMS     Force            0.000662     0.000300     NO 
 Maximum Displacement     0.136295     0.001800     NO 
 RMS     Displacement     0.047085     0.001200     NO 
 Predicted change in Energy=-1.154891D-03
 GradGradGradGradGradGradGradGradGradGradGradGradGradGradGradGradGradGrad

 Leave Link  103 at Mon Oct  6 14:26:40 2025, MaxMem=   104857600 cpu:               0.0 elap:               0.0
 (Enter /home/zhouoh/g16/l202.exe)
                          Input orientation:                          
 ---------------------------------------------------------------------
 Center     Atomic      Atomic             Coordinates (Angstroms)
 Number     Number       Type             X           Y           Z
 ---------------------------------------------------------------------
      1          6           0       -1.292360    0.684314    0.317689
      2          6           0       -1.294691   -0.717485    0.283378
      3          1           0       -1.811908    1.176682    1.132380
      4          1           0       -1.829589   -1.253444    1.059105
      5          6           0        1.549372    0.680539    0.171012
      6          1           0        2.044649    1.141776   -0.673869
      7          1           0        1.481171    1.291399    1.058410
      8          6           0        1.524173   -0.692074    0.276833
      9          1           0        1.364136   -1.152500    1.241175
     10          1           0        2.036522   -1.307222   -0.450442
     11          6           0       -0.448281    1.425870   -0.468842
     12          1           0       -0.154742    1.081816   -1.449842
     13          1           0       -0.378980    2.496066   -0.320172
     14          6           0       -0.419074   -1.402288   -0.523210
     15          1           0       -0.348816   -2.480926   -0.465147
     16          1           0       -0.088581   -0.972495   -1.457461
 ---------------------------------------------------------------------
                    Distance matrix (angstroms):
                    1          2          3          4          5
     1  C    0.000000
     2  C    1.402220   0.000000
     3  H    1.084471   2.139202   0.000000
     4  H    2.143179   1.084030   2.431294   0.000000
     5  C    2.845518   3.171086   3.531089   3.993291   0.000000
     6  H    3.511138   3.940096   4.258730   4.873397   1.082526
     7  H    2.934229   3.513075   3.295907   4.175806   1.079479
     8  C    3.135119   2.818986   3.918372   3.489241   1.376917
     9  H    3.359120   2.859366   3.940074   3.200503   2.130632
    10  H    3.954453   3.461685   4.846186   4.150716   2.138859
    11  C    1.371498   2.424090   2.117896   3.379550   2.226106
    12  H    2.139240   2.746091   3.069702   3.814888   2.385833
    13  H    2.126870   3.395542   2.429807   4.250353   2.693686
    14  C    2.413223   1.373406   3.366311   2.124954   2.948710
    15  H    3.394385   2.136515   4.250979   2.454128   3.742015
    16  H    2.710213   2.133132   3.781017   3.072971   2.840306
                    6          7          8          9         10
     6  H    0.000000
     7  H    1.827754   0.000000
     8  C    2.130196   2.132340   0.000000
     9  H    3.064995   2.453516   1.080536   0.000000
    10  H    2.459182   3.055794   1.081591   1.826912   0.000000
    11  C    2.517428   2.464420   2.988694   3.585667   3.693830
    12  H    2.333034   3.001910   2.991128   3.813231   3.392336
    13  H    2.798782   2.609957   3.760670   4.334547   4.507396
    14  C    3.544699   3.656282   2.218261   2.520970   2.458513
    15  H    4.346977   4.460999   2.694181   2.758705   2.658502
    16  H    3.104001   3.730810   2.384824   3.070086   2.375330
                   11         12         13         14         15
    11  C    0.000000
    12  H    1.080232   0.000000
    13  H    1.082693   1.823881   0.000000
    14  C    2.828831   2.664449   3.903843   0.000000
    15  H    3.908064   3.701408   4.979194   1.082482   0.000000
    16  H    2.618951   2.055390   3.661785   1.080173   1.824219
                   16
    16  H    0.000000
 Stoichiometry    C6H10
 Framework group  C1[X(C6H10)]
 Deg. of freedom    42
 Full point group                 C1      NOp   1
 RotChk:  IX=3 Diff= 7.17D-02
 Largest Abelian subgroup         C1      NOp   1
 Largest concise Abelian subgroup C1      NOp   1
                         Standard orientation:                         
 ---------------------------------------------------------------------
 Center     Atomic      Atomic             Coordinates (Angstroms)
 Number     Number       Type             X           Y           Z
 ---------------------------------------------------------------------
      1          6           0       -1.296991   -0.682752   -0.309223
      2          6           0       -1.295016    0.719038   -0.274536
      3          1           0       -1.823192   -1.173379   -1.120688
      4          1           0       -1.833320    1.256768   -1.046673
      5          6           0        1.545624   -0.687296   -0.180799
      6          1           0        2.044969   -1.150207    0.660765
      7          1           0        1.469945   -1.297708   -1.067898
      8          6           0        1.523746    0.685414   -0.286101
      9          1           0        1.358863    1.146572   -1.249276
     10          1           0        2.042546    1.298866    0.438028
     11          6           0       -0.450043   -1.426982    0.471678
     12          1           0       -0.149210   -1.084056    1.450863
     13          1           0       -0.384818   -2.497334    0.322290
     14          6           0       -0.412245    1.401064    0.526589
     15          1           0       -0.339218    2.479509    0.468355
     16          1           0       -0.077013    0.970051    1.458587
 ---------------------------------------------------------------------
 Rotational constants (GHZ):           4.4164681           3.5976659           2.3447923
 Leave Link  202 at Mon Oct  6 14:26:40 2025, MaxMem=   104857600 cpu:               0.0 elap:               0.0
 (Enter /home/zhouoh/g16/l301.exe)
 Standard basis: STO-3G (5D, 7F)
 Ernie: Thresh=  0.10000D-02 Tol=  0.10000D-05 Strict=F.
 There are    40 symmetry adapted cartesian basis functions of A   symmetry.
 There are    40 symmetry adapted basis functions of A   symmetry.
    40 basis functions,   120 primitive gaussians,    40 cartesian basis functions
    23 alpha electrons       23 beta electrons
       nuclear repulsion energy       226.7340009374 Hartrees.
 IExCor=    0 DFT=F Ex=HF Corr=None ExCW=0 ScaHFX=  1.000000
 ScaDFX=  1.000000  1.000000  1.000000  1.000000 ScalE2=  1.000000  1.000000
 IRadAn=      5 IRanWt=     -1 IRanGd=            0 ICorTp=0 IEmpDi=  4
 NAtoms=   16 NActive=   16 NUniq=   16 SFac= 1.00D+00 NAtFMM=   60 NAOKFM=F Big=F
 Integral buffers will be    131072 words long.
 Raffenetti 1 integral format.
 Two-electron integral symmetry is turned on.
 Leave Link  301 at Mon Oct  6 14:26:40 2025, MaxMem=   104857600 cpu:               0.0 elap:               0.0
 (Enter /home/zhouoh/g16/l402.exe)
 External calculation of energy and first derivatives.
 Running external command "python ../GauUMA_client.py R"
         input file       "/home/zhouoh/scratch/Gau-2816605.EIn"
         output file      "/home/zhouoh/scratch/Gau-2816605.EOu"
         message file     "/home/zhouoh/scratch/Gau-2816605.EMs"
         fchk file        "/home/zhouoh/scratch/Gau-2816605.EFC"
         mat. el file     "/home/zhouoh/scratch/Gau-2816605.EUF"
Sent job to server.
Received result from server:
SCF Done:  E(UMA) =  -234.4935681464689     A.U.
 Recovered energy= -234.493568146     dipole=      0.000000000000      0.000000000000      0.000000000000
 Energy=    -234.493568     NIter=   0.
 Dipole moment=       0.000000       0.000000       0.000000
 Leave Link  402 at Mon Oct  6 14:26:40 2025, MaxMem=   104857600 cpu:               0.0 elap:               0.1
 (Enter /home/zhouoh/g16/l716.exe)
 Dipole        = 0.00000000D+00 0.00000000D+00 0.00000000D+00
 ***** Axes restored to original set *****
 -------------------------------------------------------------------
 Center     Atomic                   Forces (Hartrees/Bohr)
 Number     Number              X              Y              Z
 -------------------------------------------------------------------
      1        6          -0.001722794    0.000134311    0.001082797
      2        6           0.001724454    0.000236654   -0.001071783
      3        1          -0.000027420   -0.000035787   -0.000012320
      4        1           0.000109593    0.000014776    0.000080149
      5        6           0.001529270    0.000414314    0.000904002
      6        1           0.000001340    0.000120901    0.000192424
      7        1          -0.000147260   -0.000115486    0.000030834
      8        6          -0.001353447    0.000029689    0.000094781
      9        1           0.000329499   -0.000410226   -0.000240531
     10        1          -0.000271458    0.000483222   -0.000577704
     11        6           0.000564733   -0.000195288   -0.000426559
     12        1          -0.000237786   -0.000295105   -0.000016739
     13        1           0.000039242    0.000057312   -0.000426078
     14        6          -0.000440253    0.000193032    0.000098084
     15        1          -0.000195778    0.000002263    0.000378664
     16        1           0.000098068   -0.000634582   -0.000090020
 -------------------------------------------------------------------
 Cartesian Forces:  Max     0.001724454 RMS     0.000582781
 Leave Link  716 at Mon Oct  6 14:26:40 2025, MaxMem=   104857600 cpu:               0.0 elap:               0.0
 (Enter /home/zhouoh/g16/l103.exe)

 GradGradGradGradGradGradGradGradGradGradGradGradGradGradGradGradGradGrad
 Berny optimization.
 FormGI is forming the generalized inverse of G from B-inverse, IUseBI=4.
 Internal  Forces:  Max     0.000882419 RMS     0.000247288
 Search for a saddle point.
 Step number   4 out of a maximum of  100
 All quantities printed in internal units (Hartrees-Bohrs-Radians)
 Swapping is turned off.
 Update second derivatives using D2CorX and points    2    3    4
 ITU=  0  0  0  0
     Eigenvalues ---   -0.03908  -0.00097   0.00500   0.00611   0.00853
     Eigenvalues ---    0.01137   0.01174   0.01580   0.01695   0.01774
     Eigenvalues ---    0.01909   0.02211   0.02256   0.02353   0.02429
     Eigenvalues ---    0.03165   0.03462   0.03883   0.04311   0.04648
     Eigenvalues ---    0.05041   0.05217   0.05644   0.06036   0.09121
     Eigenvalues ---    0.11642   0.11724   0.12075   0.29963   0.30762
     Eigenvalues ---    0.32512   0.33429   0.33837   0.34811   0.34865
     Eigenvalues ---    0.35392   0.35496   0.35833   0.36070   0.42903
     Eigenvalues ---    0.43644   0.48816
 Eigenvectors required to have negative eigenvalues:
                          R9        R13       D24       D20       D6
   1                    0.55739   0.54596  -0.15865   0.15799  -0.15489
                          D13       D9        A27       D16       A34
   1                    0.14511  -0.13356   0.13318   0.12716   0.12446
 Eigenvalue     2 is  -9.72D-04 should be greater than     0.000000 Eigenvector:
                          D37       D46       D28       D36       D43
   1                    0.20478   0.20180  -0.19952   0.19708   0.19642
                          D49       D26       D35       D47       D44
   1                    0.19618  -0.19372   0.19050   0.19018   0.18480
 RFO step:  Lambda0=3.775135054D-07 Lambda=-1.89513575D-03.
 Linear search not attempted -- option 19 set.
 Iteration  1 RMS(Cart)=  0.09637955 RMS(Int)=  0.00688599
 Iteration  2 RMS(Cart)=  0.00773633 RMS(Int)=  0.00280822
 Iteration  3 RMS(Cart)=  0.00002379 RMS(Int)=  0.00280814
 Iteration  4 RMS(Cart)=  0.00000003 RMS(Int)=  0.00280814
 ITry= 1 IFail=0 DXMaxC= 3.30D-01 DCOld= 1.00D+10 DXMaxT= 3.00D-01 DXLimC= 3.00D+00 Rises=F
 Variable       Old X    -DE/DX   Delta X   Delta X   Delta X     New X
                                 (Linear)    (Quad)   (Total)
    R1        2.64981  -0.00006   0.00000  -0.00255   0.00015   2.64996
    R2        2.04935  -0.00001   0.00000  -0.00281  -0.00281   2.04655
    R3        2.59175   0.00081   0.00000   0.00686   0.00779   2.59954
    R4        2.04852  -0.00000   0.00000   0.00248   0.00248   2.05100
    R5        2.59536  -0.00085   0.00000  -0.01156  -0.00971   2.58565
    R6        2.04568  -0.00018   0.00000  -0.00364  -0.00239   2.04329
    R7        2.03992  -0.00003   0.00000  -0.00125  -0.00125   2.03867
    R8        2.60200   0.00011   0.00000   0.00308   0.00041   2.60240
    R9        4.20673   0.00034   0.00000   0.11481   0.11161   4.31834
   R10        4.40880   0.00030   0.00000   0.02901   0.03032   4.43911
   R11        2.04192  -0.00009   0.00000  -0.00162  -0.00162   2.04030
   R12        2.04391   0.00016   0.00000   0.00065   0.00215   2.04606
   R13        4.19191  -0.00022   0.00000  -0.12455  -0.12830   4.06360
   R14        4.48872  -0.00024   0.00000  -0.09009  -0.08845   4.40027
   R15        2.04134  -0.00006   0.00000  -0.00075  -0.00056   2.04078
   R16        2.04599   0.00000   0.00000   0.00050   0.00050   2.04649
   R17        2.04559   0.00001   0.00000   0.00008   0.00008   2.04567
   R18        2.04123  -0.00006   0.00000  -0.00085   0.00048   2.04171
    A1        2.06175   0.00043   0.00000   0.01490   0.01757   2.07931
    A2        2.12647  -0.00088   0.00000  -0.03766  -0.04437   2.08210
    A3        2.07166   0.00042   0.00000   0.01277   0.01557   2.08723
    A4        2.06869  -0.00044   0.00000  -0.01912  -0.01645   2.05224
    A5        2.10805   0.00085   0.00000   0.04357   0.03776   2.14581
    A6        2.08097  -0.00038   0.00000  -0.01699  -0.01456   2.06641
    A7        2.01462  -0.00001   0.00000   0.01082   0.01087   2.02549
    A8        2.08644  -0.00005   0.00000   0.00942   0.00761   2.09405
    A9        1.61439   0.00007   0.00000  -0.06392  -0.06404   1.55035
   A10        2.09414   0.00017   0.00000   0.01835   0.01660   2.11075
   A11        1.56092   0.00015   0.00000   0.04687   0.05171   1.61263
   A12        1.91711  -0.00045   0.00000  -0.06634  -0.07371   1.84341
   A13        1.38709  -0.00005   0.00000   0.00821   0.00402   1.39111
   A14        2.08987   0.00010   0.00000   0.00452   0.00271   2.09258
   A15        2.10206  -0.00016   0.00000  -0.02551  -0.02364   2.07842
   A16        1.88334   0.00038   0.00000   0.08592   0.07850   1.96184
   A17        2.01298   0.00000   0.00000  -0.00799  -0.00924   2.00374
   A18        1.62653  -0.00007   0.00000  -0.04375  -0.03935   1.58718
   A19        1.56116  -0.00021   0.00000   0.02204   0.02258   1.58374
   A20        1.35013   0.00025   0.00000   0.05064   0.04548   1.39561
   A21        1.77871   0.00016   0.00000  -0.01600  -0.01491   1.76379
   A22        2.11277   0.00004   0.00000  -0.00193  -0.00431   2.10846
   A23        2.08874   0.00001   0.00000   0.01383   0.01636   2.10510
   A24        1.48122  -0.00009   0.00000  -0.03220  -0.03409   1.44712
   A25        1.80703  -0.00002   0.00000   0.02778   0.02641   1.83344
   A26        2.00659  -0.00008   0.00000  -0.00462  -0.00453   2.00206
   A27        1.51671   0.00006   0.00000  -0.02089  -0.02371   1.49300
   A28        1.75896  -0.00027   0.00000  -0.00668  -0.00527   1.75369
   A29        2.10218   0.00000   0.00000  -0.02153  -0.02009   2.08209
   A30        2.09974   0.00000   0.00000   0.01335   0.01131   2.11105
   A31        1.81607   0.00001   0.00000  -0.03398  -0.03666   1.77941
   A32        1.48722   0.00028   0.00000   0.06946   0.06725   1.55446
   A33        2.00757  -0.00000   0.00000  -0.00026   0.00069   2.00826
   A34        1.42122  -0.00015   0.00000   0.00537   0.00344   1.42466
    D1        0.01990  -0.00010   0.00000  -0.04952  -0.04926  -0.02936
    D2       -2.87927  -0.00024   0.00000  -0.08184  -0.08137  -2.96064
    D3        2.92812  -0.00020   0.00000  -0.09677  -0.09622   2.83190
    D4        0.02895  -0.00034   0.00000  -0.12910  -0.12833  -0.09938
    D5       -1.01996   0.00001   0.00000   0.04102   0.04141  -0.97855
    D6        0.57114   0.00001   0.00000  -0.00739  -0.00870   0.56243
    D7       -2.99738  -0.00008   0.00000   0.01124   0.01126  -2.98612
    D8        1.88699  -0.00010   0.00000  -0.00627  -0.00555   1.88143
    D9       -2.80510  -0.00010   0.00000  -0.05468  -0.05567  -2.86077
   D10       -0.09044  -0.00018   0.00000  -0.03605  -0.03571  -0.12615
   D11        1.04157   0.00020   0.00000   0.06863   0.06847   1.11004
   D12        3.02241   0.00002   0.00000   0.01138   0.01096   3.03337
   D13       -0.54209   0.00002   0.00000  -0.01172  -0.01036  -0.55245
   D14       -1.85592   0.00007   0.00000   0.03629   0.03629  -1.81962
   D15        0.12492  -0.00011   0.00000  -0.02095  -0.02122   0.10371
   D16        2.84361  -0.00010   0.00000  -0.04406  -0.04254   2.80107
   D17       -1.92365  -0.00019   0.00000  -0.07221  -0.07239  -1.99603
   D18        1.65597  -0.00050   0.00000  -0.16729  -0.17008   1.48589
   D19       -0.34305   0.00001   0.00000  -0.05016  -0.04561  -0.38866
   D20        2.76071   0.00000   0.00000  -0.07483  -0.07184   2.68887
   D21        0.05300   0.00015   0.00000   0.00323   0.00256   0.05556
   D22       -1.69689   0.00023   0.00000  -0.06931  -0.06622  -1.76311
   D23        0.07723  -0.00027   0.00000  -0.17225  -0.17278  -0.09556
   D24       -2.63049  -0.00012   0.00000  -0.09419  -0.09838  -2.72887
   D25        1.90281  -0.00005   0.00000  -0.16674  -0.16716   1.73565
   D26       -1.69095  -0.00024   0.00000  -0.19595  -0.19537  -1.88632
   D27        1.88452  -0.00009   0.00000  -0.11789  -0.12096   1.76356
   D28        0.13464  -0.00002   0.00000  -0.19044  -0.18975  -0.05511
   D29        2.90605   0.00008   0.00000   0.14770   0.14677   3.05282
   D30        0.79966   0.00006   0.00000   0.15619   0.15699   0.95664
   D31       -1.19833   0.00016   0.00000   0.16784   0.16963  -1.02870
   D32       -1.36252   0.00008   0.00000   0.15995   0.15722  -1.20529
   D33        2.81427   0.00006   0.00000   0.16844   0.16744   2.98171
   D34        0.81628   0.00016   0.00000   0.18008   0.18008   0.99637
   D35        0.76427   0.00024   0.00000   0.18535   0.17878   0.94306
   D36       -1.34212   0.00021   0.00000   0.19384   0.18900  -1.15312
   D37        2.94307   0.00031   0.00000   0.20549   0.20164  -3.13847
   D38        0.76637   0.00006   0.00000   0.16559   0.16784   0.93421
   D39       -1.51633  -0.00035   0.00000  -0.15060  -0.14862  -1.66495
   D40        2.04100  -0.00024   0.00000  -0.07903  -0.08095   1.96005
   D41        0.41310  -0.00007   0.00000  -0.04093  -0.04788   0.36522
   D42       -1.00923   0.00004   0.00000   0.15674   0.16189  -0.84734
   D43        3.08516   0.00015   0.00000   0.19758   0.20018  -2.99785
   D44        1.08463   0.00008   0.00000   0.18216   0.18583   1.27046
   D45        1.13221   0.00022   0.00000   0.16681   0.16878   1.30099
   D46       -1.05659   0.00034   0.00000   0.20764   0.20707  -0.84952
   D47       -3.05712   0.00027   0.00000   0.19222   0.19272  -2.86440
   D48       -3.13783   0.00021   0.00000   0.15938   0.15972  -2.97811
   D49        0.95656   0.00032   0.00000   0.20021   0.19800   1.15456
   D50       -1.04397   0.00026   0.00000   0.18479   0.18365  -0.86032
   D51       -0.98575   0.00025   0.00000   0.18609   0.18420  -0.80155
   D52       -2.09914  -0.00009   0.00000  -0.01411  -0.00996  -2.10910
   D53       -0.33939   0.00004   0.00000  -0.05202  -0.04743  -0.38682
   D54        1.45054  -0.00003   0.00000  -0.03615  -0.03366   1.41688
   D55        2.14943  -0.00015   0.00000  -0.00539  -0.01066   2.13876
   D56        0.40937  -0.00000   0.00000  -0.03805  -0.04511   0.36425
   D57       -1.39332  -0.00014   0.00000  -0.03248  -0.03609  -1.42941
         Item               Value     Threshold  Converged?
 Maximum Force            0.000882     0.000450     NO 
 RMS     Force            0.000247     0.000300     YES
 Maximum Displacement     0.329899     0.001800     NO 
 RMS     Displacement     0.096214     0.001200     NO 
 Predicted change in Energy=-1.823159D-03
 GradGradGradGradGradGradGradGradGradGradGradGradGradGradGradGradGradGrad

 Leave Link  103 at Mon Oct  6 14:26:40 2025, MaxMem=   104857600 cpu:               0.0 elap:               0.0
 (Enter /home/zhouoh/g16/l202.exe)
                          Input orientation:                          
 ---------------------------------------------------------------------
 Center     Atomic      Atomic             Coordinates (Angstroms)
 Number     Number       Type             X           Y           Z
 ---------------------------------------------------------------------
      1          6           0       -1.325144    0.719563    0.282105
      2          6           0       -1.247923   -0.680156    0.317655
      3          1           0       -1.875170    1.237190    1.058244
      4          1           0       -1.726307   -1.188951    1.148464
      5          6           0        1.558956    0.673845    0.274887
      6          1           0        2.050478    1.238969   -0.504963
      7          1           0        1.428902    1.181619    1.217806
      8          6           0        1.500062   -0.699791    0.196474
      9          1           0        1.410191   -1.286921    1.098090
     10          1           0        1.995490   -1.201793   -0.625017
     11          6           0       -0.450830    1.421916   -0.514511
     12          1           0       -0.090432    1.003763   -1.442695
     13          1           0       -0.393301    2.501524   -0.451834
     14          6           0       -0.412773   -1.400152   -0.492464
     15          1           0       -0.325702   -2.469330   -0.347087
     16          1           0       -0.163499   -1.051269   -1.484159
 ---------------------------------------------------------------------
                    Distance matrix (angstroms):
                    1          2          3          4          5
     1  C    0.000000
     2  C    1.402298   0.000000
     3  H    1.082985   2.148982   0.000000
     4  H    2.133995   1.085342   2.432377   0.000000
     5  C    2.884472   3.116684   3.567103   3.876351   0.000000
     6  H    3.504866   3.903741   4.225438   4.784634   1.081261
     7  H    2.945132   3.382583   3.308389   3.947120   1.078816
     8  C    3.162860   2.750725   3.985816   3.399267   1.377132
     9  H    3.489107   2.835985   4.143225   3.138432   2.131759
    10  H    3.942219   3.417669   4.874834   4.122763   2.125654
    11  C    1.375617   2.397199   2.129889   3.347978   2.285170
    12  H    2.140145   2.697073   3.081310   3.768048   2.404041
    13  H    2.140651   3.383132   2.464713   4.237625   2.771253
    14  C    2.434249   1.368270   3.390998   2.112492   2.962769
    15  H    3.400559   2.119792   4.256066   2.416141   3.717302
    16  H    2.757708   2.135471   3.825006   3.064642   3.006178
                    6          7          8          9         10
     6  H    0.000000
     7  H    1.832369   0.000000
     8  C    2.133955   2.141935   0.000000
     9  H    3.059390   2.471511   1.079680   0.000000
    10  H    2.444332   3.065562   1.082730   1.821790   0.000000
    11  C    2.508008   2.567500   2.968689   3.660830   3.588947
    12  H    2.349077   3.068921   2.849323   3.735598   3.143906
    13  H    2.751168   2.801833   3.775386   4.472936   4.410314
    14  C    3.610086   3.603099   2.150367   2.421958   2.420051
    15  H    4.407112   4.342459   2.600027   2.549500   2.659290
    16  H    3.332523   3.849953   2.390711   3.033157   2.328522
                   11         12         13         14         15
    11  C    0.000000
    12  H    1.079937   0.000000
    13  H    1.082956   1.821215   0.000000
    14  C    2.822410   2.604928   3.901936   0.000000
    15  H    3.896855   3.649395   4.972417   1.082524   0.000000
    16  H    2.671969   2.056748   3.706864   1.080424   1.824867
                   16
    16  H    0.000000
 Stoichiometry    C6H10
 Framework group  C1[X(C6H10)]
 Deg. of freedom    42
 Full point group                 C1      NOp   1
 RotChk:  IX=0 Diff= 1.77D-01
 Largest Abelian subgroup         C1      NOp   1
 Largest concise Abelian subgroup C1      NOp   1
                         Standard orientation:                         
 ---------------------------------------------------------------------
 Center     Atomic      Atomic             Coordinates (Angstroms)
 Number     Number       Type             X           Y           Z
 ---------------------------------------------------------------------
      1          6           0       -1.406419   -0.539843   -0.283489
      2          6           0       -1.151055    0.838637   -0.315481
      3          1           0       -2.017380   -0.981110   -1.061221
      4          1           0       -1.559841    1.406368   -1.145265
      5          6           0        1.459900   -0.862822   -0.274609
      6          1           0        1.874566   -1.487976    0.504081
      7          1           0        1.266872   -1.347543   -1.218871
      8          6           0        1.576834    0.506894   -0.192777
      9          1           0        1.563445    1.102877   -1.092963
     10          1           0        2.131611    0.939527    0.630239
     11          6           0       -0.629633   -1.350025    0.511829
     12          1           0       -0.219579   -0.983571    1.441253
     13          1           0       -0.710387   -2.427986    0.446469
     14          6           0       -0.231490    1.444122    0.496892
     15          1           0       -0.008474    2.493776    0.354249
     16          1           0       -0.029655    1.063860    1.487841
 ---------------------------------------------------------------------
 Rotational constants (GHZ):           4.4210462           3.6147463           2.3608472
 Leave Link  202 at Mon Oct  6 14:26:40 2025, MaxMem=   104857600 cpu:               0.0 elap:               0.0
 (Enter /home/zhouoh/g16/l301.exe)
 Standard basis: STO-3G (5D, 7F)
 Ernie: Thresh=  0.10000D-02 Tol=  0.10000D-05 Strict=F.
 There are    40 symmetry adapted cartesian basis functions of A   symmetry.
 There are    40 symmetry adapted basis functions of A   symmetry.
    40 basis functions,   120 primitive gaussians,    40 cartesian basis functions
    23 alpha electrons       23 beta electrons
       nuclear repulsion energy       227.0664985682 Hartrees.
 IExCor=    0 DFT=F Ex=HF Corr=None ExCW=0 ScaHFX=  1.000000
 ScaDFX=  1.000000  1.000000  1.000000  1.000000 ScalE2=  1.000000  1.000000
 IRadAn=      5 IRanWt=     -1 IRanGd=            0 ICorTp=0 IEmpDi=  4
 NAtoms=   16 NActive=   16 NUniq=   16 SFac= 1.00D+00 NAtFMM=   60 NAOKFM=F Big=F
 Integral buffers will be    131072 words long.
 Raffenetti 1 integral format.
 Two-electron integral symmetry is turned on.
 Leave Link  301 at Mon Oct  6 14:26:40 2025, MaxMem=   104857600 cpu:               0.0 elap:               0.0
 (Enter /home/zhouoh/g16/l402.exe)
 External calculation of energy and first derivatives.
 Running external command "python ../GauUMA_client.py R"
         input file       "/home/zhouoh/scratch/Gau-2816605.EIn"
         output file      "/home/zhouoh/scratch/Gau-2816605.EOu"
         message file     "/home/zhouoh/scratch/Gau-2816605.EMs"
         fchk file        "/home/zhouoh/scratch/Gau-2816605.EFC"
         mat. el file     "/home/zhouoh/scratch/Gau-2816605.EUF"
Sent job to server.
Received result from server:
SCF Done:  E(UMA) =  -234.49235094626465     A.U.
 Recovered energy= -234.492350946     dipole=      0.000000000000      0.000000000000      0.000000000000
 Energy=    -234.492351     NIter=   0.
 Dipole moment=       0.000000       0.000000       0.000000
 Leave Link  402 at Mon Oct  6 14:26:40 2025, MaxMem=   104857600 cpu:               0.0 elap:               0.1
 (Enter /home/zhouoh/g16/l716.exe)
 Dipole        = 0.00000000D+00 0.00000000D+00 0.00000000D+00
 ***** Axes restored to original set *****
 -------------------------------------------------------------------
 Center     Atomic                   Forces (Hartrees/Bohr)
 Number     Number              X              Y              Z
 -------------------------------------------------------------------
      1        6           0.011234023   -0.001470471   -0.002465454
      2        6          -0.013029124    0.000127920    0.003006994
      3        1          -0.000106693   -0.000133133    0.000221419
      4        1          -0.000290299   -0.000314417   -0.000345059
      5        6          -0.005293996    0.000402414   -0.004690694
      6        1           0.000927474    0.000233946    0.000502042
      7        1           0.000033222    0.000095351    0.000507988
      8        6           0.006142564   -0.001002495    0.001789664
      9        1           0.000292525    0.000351406    0.000421227
     10        1           0.000524677    0.000210241    0.000426234
     11        6          -0.001943533    0.001522890    0.001077470
     12        1          -0.000246108    0.000070723    0.000280107
     13        1          -0.000358216    0.000061599    0.000480842
     14        6           0.001695843   -0.000616982   -0.000566771
     15        1           0.000043233    0.000033260   -0.000652656
     16        1           0.000374408    0.000427749    0.000006650
 -------------------------------------------------------------------
 Cartesian Forces:  Max     0.013029124 RMS     0.002958703
 Leave Link  716 at Mon Oct  6 14:26:40 2025, MaxMem=   104857600 cpu:               0.0 elap:               0.0
 (Enter /home/zhouoh/g16/l103.exe)

 GradGradGradGradGradGradGradGradGradGradGradGradGradGradGradGradGradGrad
 Berny optimization.
 FormGI is forming the generalized inverse of G from B-inverse, IUseBI=4.
 Internal  Forces:  Max     0.004961834 RMS     0.001231211
 Search for a saddle point.
 Step number   5 out of a maximum of  100
 All quantities printed in internal units (Hartrees-Bohrs-Radians)
 Swapping is turned off.
 Update second derivatives using D2CorX and points    1    4    5
 ITU=  0  0  0  0  0
     Eigenvalues ---   -0.03897   0.00108   0.00600   0.00651   0.00878
     Eigenvalues ---    0.01111   0.01318   0.01644   0.01694   0.01775
     Eigenvalues ---    0.02065   0.02252   0.02312   0.02423   0.02551
     Eigenvalues ---    0.03155   0.03520   0.03920   0.04357   0.04651
     Eigenvalues ---    0.05044   0.05209   0.05660   0.06064   0.09130
     Eigenvalues ---    0.11710   0.11816   0.12461   0.30004   0.30771
     Eigenvalues ---    0.32534   0.33461   0.33902   0.34811   0.34866
     Eigenvalues ---    0.35397   0.35495   0.35837   0.36071   0.43026
     Eigenvalues ---    0.43667   0.48841
 Eigenvectors required to have negative eigenvalues:
                          R9        R13       D20       D24       D6
   1                   -0.56077  -0.54044  -0.16301   0.15506   0.15120
                          D13       A27       D9        D16       A24
   1                   -0.15064  -0.13652   0.13477  -0.12710   0.12630
 RFO step:  Lambda0=1.623606397D-06 Lambda=-2.86321531D-03.
 Linear search not attempted -- option 19 set.
 Iteration  1 RMS(Cart)=  0.03500849 RMS(Int)=  0.00111387
 Iteration  2 RMS(Cart)=  0.00113529 RMS(Int)=  0.00059072
 Iteration  3 RMS(Cart)=  0.00000077 RMS(Int)=  0.00059072
 ITry= 1 IFail=0 DXMaxC= 1.68D-01 DCOld= 1.00D+10 DXMaxT= 3.00D-01 DXLimC= 3.00D+00 Rises=F
 Variable       Old X    -DE/DX   Delta X   Delta X   Delta X     New X
                                 (Linear)    (Quad)   (Total)
    R1        2.64996  -0.00060   0.00000  -0.00067  -0.00011   2.64985
    R2        2.04655   0.00015   0.00000   0.00280   0.00280   2.04935
    R3        2.59954  -0.00285   0.00000  -0.00954  -0.00928   2.59026
    R4        2.05100   0.00001   0.00000  -0.00262  -0.00262   2.04838
    R5        2.58565   0.00480   0.00000   0.01097   0.01129   2.59695
    R6        2.04329   0.00035   0.00000   0.00049   0.00034   2.04363
    R7        2.03867   0.00048   0.00000   0.00216   0.00216   2.04083
    R8        2.60240   0.00076   0.00000   0.00048  -0.00008   2.60233
    R9        4.31834  -0.00138   0.00000  -0.10971  -0.10991   4.20844
   R10        4.43911  -0.00058   0.00000  -0.00876  -0.00890   4.43021
   R11        2.04030   0.00014   0.00000  -0.00047  -0.00047   2.03983
   R12        2.04606  -0.00076   0.00000  -0.00048  -0.00091   2.04515
   R13        4.06360   0.00336   0.00000   0.11874   0.11867   4.18227
   R14        4.40027   0.00095   0.00000  -0.00562  -0.00558   4.39469
   R15        2.04078  -0.00013   0.00000   0.00025   0.00038   2.04116
   R16        2.04649   0.00007   0.00000  -0.00074  -0.00074   2.04575
   R17        2.04567  -0.00012   0.00000   0.00025   0.00025   2.04593
   R18        2.04171   0.00022   0.00000  -0.00072  -0.00027   2.04144
    A1        2.07931  -0.00271   0.00000  -0.01962  -0.01951   2.05980
    A2        2.08210   0.00496   0.00000   0.04512   0.04401   2.12611
    A3        2.08723  -0.00184   0.00000  -0.01324  -0.01327   2.07396
    A4        2.05224   0.00253   0.00000   0.01691   0.01712   2.06936
    A5        2.14581  -0.00472   0.00000  -0.03666  -0.03763   2.10817
    A6        2.06641   0.00185   0.00000   0.01142   0.01133   2.07774
    A7        2.02549  -0.00006   0.00000  -0.00881  -0.00898   2.01651
    A8        2.09405   0.00056   0.00000   0.00952   0.00922   2.10327
    A9        1.55035  -0.00030   0.00000   0.00824   0.00774   1.55809
   A10        2.11075  -0.00082   0.00000  -0.01734  -0.01826   2.09249
   A11        1.61263  -0.00027   0.00000  -0.00625  -0.00592   1.60671
   A12        1.84341   0.00145   0.00000   0.04431   0.04447   1.88787
   A13        1.39111   0.00007   0.00000  -0.00675  -0.00642   1.38469
   A14        2.09258   0.00027   0.00000   0.00768   0.00661   2.09920
   A15        2.07842  -0.00017   0.00000   0.00228   0.00253   2.08095
   A16        1.96184  -0.00160   0.00000  -0.04311  -0.04285   1.91898
   A17        2.00374   0.00011   0.00000   0.00876   0.00867   2.01242
   A18        1.58718   0.00042   0.00000   0.00547   0.00574   1.59293
   A19        1.58374   0.00088   0.00000   0.00279   0.00237   1.58611
   A20        1.39561  -0.00055   0.00000  -0.00715  -0.00726   1.38835
   A21        1.76379  -0.00043   0.00000  -0.00533  -0.00528   1.75851
   A22        2.10846  -0.00052   0.00000  -0.00087  -0.00165   2.10682
   A23        2.10510   0.00020   0.00000  -0.00959  -0.00925   2.09585
   A24        1.44712   0.00052   0.00000   0.04007   0.04066   1.48779
   A25        1.83344   0.00007   0.00000  -0.01927  -0.02007   1.81337
   A26        2.00206   0.00026   0.00000   0.00619   0.00642   2.00849
   A27        1.49300  -0.00057   0.00000  -0.03968  -0.03994   1.45306
   A28        1.75369   0.00169   0.00000   0.02182   0.02150   1.77519
   A29        2.08209  -0.00039   0.00000   0.01274   0.01263   2.09472
   A30        2.11105   0.00037   0.00000  -0.00142  -0.00199   2.10906
   A31        1.77941   0.00045   0.00000   0.02624   0.02508   1.80449
   A32        1.55446  -0.00192   0.00000  -0.06797  -0.06718   1.48728
   A33        2.00826  -0.00011   0.00000  -0.00459  -0.00423   2.00402
   A34        1.42466   0.00172   0.00000   0.05984   0.05993   1.48459
    D1       -0.02936  -0.00029   0.00000   0.01044   0.01058  -0.01878
    D2       -2.96064   0.00131   0.00000   0.05491   0.05424  -2.90640
    D3        2.83190   0.00104   0.00000   0.05688   0.05781   2.88970
    D4       -0.09938   0.00264   0.00000   0.10134   0.10147   0.00209
    D5       -0.97855  -0.00085   0.00000  -0.06413  -0.06563  -1.04418
    D6        0.56243  -0.00059   0.00000  -0.02024  -0.02115   0.54129
    D7       -2.98612  -0.00071   0.00000  -0.03112  -0.03230  -3.01842
    D8        1.88143   0.00036   0.00000  -0.01846  -0.01895   1.86248
    D9       -2.86077   0.00062   0.00000   0.02543   0.02554  -2.83524
   D10       -0.12615   0.00049   0.00000   0.01455   0.01438  -0.11176
   D11        1.11004  -0.00235   0.00000  -0.08706  -0.08540   1.02465
   D12        3.03337  -0.00083   0.00000  -0.03550  -0.03415   2.99922
   D13       -0.55245  -0.00120   0.00000  -0.01930  -0.01825  -0.57070
   D14       -1.81962  -0.00080   0.00000  -0.04282  -0.04215  -1.86177
   D15        0.10371   0.00072   0.00000   0.00874   0.00910   0.11280
   D16        2.80107   0.00035   0.00000   0.02494   0.02499   2.82607
   D17       -1.99603   0.00032   0.00000  -0.00040  -0.00020  -1.99624
   D18        1.48589   0.00147   0.00000   0.05479   0.05551   1.54140
   D19       -0.38866  -0.00012   0.00000  -0.00331  -0.00304  -0.39170
   D20        2.68887  -0.00054   0.00000  -0.01256  -0.01281   2.67605
   D21        0.05556  -0.00102   0.00000  -0.05582  -0.05598  -0.00042
   D22       -1.76311  -0.00096   0.00000  -0.03143  -0.03173  -1.79484
   D23       -0.09556   0.00050   0.00000   0.04332   0.04316  -0.05239
   D24       -2.72887   0.00002   0.00000   0.00007  -0.00000  -2.72887
   D25        1.73565   0.00008   0.00000   0.02445   0.02424   1.75989
   D26       -1.88632   0.00020   0.00000   0.02837   0.02877  -1.85755
   D27        1.76356  -0.00028   0.00000  -0.01488  -0.01439   1.74917
   D28       -0.05511  -0.00022   0.00000   0.00951   0.00985  -0.04526
   D29        3.05282  -0.00018   0.00000   0.00512   0.00470   3.05752
   D30        0.95664   0.00026   0.00000  -0.00032  -0.00028   0.95636
   D31       -1.02870  -0.00013   0.00000  -0.01665  -0.01648  -1.04518
   D32       -1.20529  -0.00025   0.00000  -0.00338  -0.00402  -1.20931
   D33        2.98171   0.00019   0.00000  -0.00882  -0.00899   2.97272
   D34        0.99637  -0.00020   0.00000  -0.02514  -0.02519   0.97117
   D35        0.94306  -0.00088   0.00000  -0.01380  -0.01514   0.92792
   D36       -1.15312  -0.00045   0.00000  -0.01924  -0.02012  -1.17324
   D37       -3.13847  -0.00083   0.00000  -0.03557  -0.03632   3.10840
   D38        0.93421   0.00011   0.00000  -0.01919  -0.01925   0.91496
   D39       -1.66495   0.00133   0.00000   0.05261   0.05162  -1.61333
   D40        1.96005   0.00082   0.00000   0.01166   0.01101   1.97106
   D41        0.36522  -0.00006   0.00000   0.00414   0.00332   0.36854
   D42       -0.84734  -0.00021   0.00000  -0.00575  -0.00427  -0.85161
   D43       -2.99785  -0.00059   0.00000  -0.03715  -0.03659  -3.03444
   D44        1.27046  -0.00008   0.00000  -0.01921  -0.01838   1.25208
   D45        1.30099  -0.00016   0.00000  -0.00682  -0.00601   1.29498
   D46       -0.84952  -0.00053   0.00000  -0.03823  -0.03833  -0.88785
   D47       -2.86440  -0.00002   0.00000  -0.02028  -0.02012  -2.88452
   D48       -2.97811  -0.00002   0.00000   0.00213   0.00287  -2.97524
   D49        1.15456  -0.00040   0.00000  -0.02927  -0.02944   1.12512
   D50       -0.86032   0.00012   0.00000  -0.01133  -0.01124  -0.87155
   D51       -0.80155  -0.00032   0.00000  -0.03259  -0.03258  -0.83413
   D52       -2.10910  -0.00003   0.00000  -0.01937  -0.02016  -2.12926
   D53       -0.38682  -0.00021   0.00000  -0.00214  -0.00246  -0.38928
   D54        1.41688   0.00009   0.00000  -0.00571  -0.00618   1.41070
   D55        2.13876   0.00049   0.00000  -0.01526  -0.01408   2.12469
   D56        0.36425  -0.00036   0.00000   0.00074   0.00128   0.36553
   D57       -1.42941   0.00007   0.00000   0.00444   0.00508  -1.42433
         Item               Value     Threshold  Converged?
 Maximum Force            0.004962     0.000450     NO 
 RMS     Force            0.001231     0.000300     NO 
 Maximum Displacement     0.168493     0.001800     NO 
 RMS     Displacement     0.034956     0.001200     NO 
 Predicted change in Energy=-1.582439D-03
 GradGradGradGradGradGradGradGradGradGradGradGradGradGradGradGradGradGrad

 Leave Link  103 at Mon Oct  6 14:26:40 2025, MaxMem=   104857600 cpu:               0.0 elap:               0.0
 (Enter /home/zhouoh/g16/l202.exe)
                          Input orientation:                          
 ---------------------------------------------------------------------
 Center     Atomic      Atomic             Coordinates (Angstroms)
 Number     Number       Type             X           Y           Z
 ---------------------------------------------------------------------
      1          6           0       -1.286701    0.704956    0.292073
      2          6           0       -1.298215   -0.697139    0.308432
      3          1           0       -1.813466    1.227984    1.082664
      4          1           0       -1.815469   -1.201831    1.116324
      5          6           0        1.537372    0.688571    0.246961
      6          1           0        2.029989    1.257217   -0.529880
      7          1           0        1.407471    1.201688    1.188315
      8          6           0        1.532222   -0.687994    0.209276
      9          1           0        1.447363   -1.257084    1.122573
     10          1           0        2.027175   -1.196143   -0.608073
     11          6           0       -0.428412    1.411275   -0.509980
     12          1           0       -0.107543    1.012044   -1.460956
     13          1           0       -0.362383    2.487945   -0.418539
     14          6           0       -0.438387   -1.416996   -0.485956
     15          1           0       -0.363892   -2.490768   -0.369285
     16          1           0       -0.134124   -1.043698   -1.452953
 ---------------------------------------------------------------------
                    Distance matrix (angstroms):
                    1          2          3          4          5
     1  C    0.000000
     2  C    1.402239   0.000000
     3  H    1.084469   2.137994   0.000000
     4  H    2.143554   1.083953   2.430049   0.000000
     5  C    2.824480   3.156663   3.495351   3.946005   0.000000
     6  H    3.461363   3.949585   4.168130   4.852263   1.081440
     7  H    2.882456   3.420596   3.222777   4.021123   1.079959
     8  C    3.145392   2.832187   3.953152   3.506251   1.377091
     9  H    3.466184   2.917971   4.100019   3.263306   2.135503
    10  H    3.925076   3.485284   4.846186   4.211828   2.126768
    11  C    1.370706   2.423173   2.118604   3.375961   2.227008
    12  H    2.134906   2.733082   3.070310   3.802713   2.393190
    13  H    2.130348   3.398387   2.438597   4.252260   2.699945
    14  C    2.414052   1.374245   3.368580   2.123664   2.978960
    15  H    3.391405   2.132923   4.247180   2.444477   3.755365
    16  H    2.726049   2.139553   3.796061   3.074591   2.946924
                    6          7          8          9         10
     6  H    0.000000
     7  H    1.828335   0.000000
     8  C    2.139620   2.131896   0.000000
     9  H    3.064599   2.459974   1.079432   0.000000
    10  H    2.454608   3.059516   1.082246   1.826207   0.000000
    11  C    2.463304   2.509702   2.961139   3.647451   3.583038
    12  H    2.344367   3.057756   2.892860   3.773764   3.187558
    13  H    2.692682   2.714558   3.751036   4.435702   4.395273
    14  C    3.639537   3.614953   2.213163   2.483745   2.478444
    15  H    4.450153   4.381561   2.679548   2.651087   2.729520
    16  H    3.290845   3.794018   2.380387   3.029846   2.325570
                   11         12         13         14         15
    11  C    0.000000
    12  H    1.080137   0.000000
    13  H    1.082562   1.824790   0.000000
    14  C    2.828391   2.638242   3.906263   0.000000
    15  H    3.905112   3.677928   4.978957   1.082658   0.000000
    16  H    2.646261   2.055930   3.687088   1.080283   1.822400
                   16
    16  H    0.000000
 Stoichiometry    C6H10
 Framework group  C1[X(C6H10)]
 Deg. of freedom    42
 Full point group                 C1      NOp   1
 RotChk:  IX=3 Diff= 1.95D-01
 Largest Abelian subgroup         C1      NOp   1
 Largest concise Abelian subgroup C1      NOp   1
                         Standard orientation:                         
 ---------------------------------------------------------------------
 Center     Atomic      Atomic             Coordinates (Angstroms)
 Number     Number       Type             X           Y           Z
 ---------------------------------------------------------------------
      1          6           0       -1.281446   -0.716570   -0.287562
      2          6           0       -1.306745    0.685379   -0.300616
      3          1           0       -1.806389   -1.242926   -1.077155
      4          1           0       -1.832304    1.186823   -1.105163
      5          6           0        1.542496   -0.672633   -0.254222
      6          1           0        2.043916   -1.238199    0.519229
      7          1           0        1.413665   -1.184848   -1.196215
      8          6           0        1.524038    0.703727   -0.213320
      9          1           0        1.429776    1.274040   -1.124930
     10          1           0        2.017429    1.214832    0.603131
     11          6           0       -0.412923   -1.416278    0.509252
     12          1           0       -0.091980   -1.016095    1.459802
     13          1           0       -0.336749   -2.492039    0.415036
     14          6           0       -0.450668    1.411808    0.491839
     15          1           0       -0.387173    2.486521    0.377351
     16          1           0       -0.138704    1.039302    1.456686
 ---------------------------------------------------------------------
 Rotational constants (GHZ):           4.4116316           3.6056610           2.3475144
 Leave Link  202 at Mon Oct  6 14:26:40 2025, MaxMem=   104857600 cpu:               0.0 elap:               0.0
 (Enter /home/zhouoh/g16/l301.exe)
 Standard basis: STO-3G (5D, 7F)
 Ernie: Thresh=  0.10000D-02 Tol=  0.10000D-05 Strict=F.
 There are    40 symmetry adapted cartesian basis functions of A   symmetry.
 There are    40 symmetry adapted basis functions of A   symmetry.
    40 basis functions,   120 primitive gaussians,    40 cartesian basis functions
    23 alpha electrons       23 beta electrons
       nuclear repulsion energy       226.7922061329 Hartrees.
 IExCor=    0 DFT=F Ex=HF Corr=None ExCW=0 ScaHFX=  1.000000
 ScaDFX=  1.000000  1.000000  1.000000  1.000000 ScalE2=  1.000000  1.000000
 IRadAn=      5 IRanWt=     -1 IRanGd=            0 ICorTp=0 IEmpDi=  4
 NAtoms=   16 NActive=   16 NUniq=   16 SFac= 1.00D+00 NAtFMM=   60 NAOKFM=F Big=F
 Integral buffers will be    131072 words long.
 Raffenetti 1 integral format.
 Two-electron integral symmetry is turned on.
 Leave Link  301 at Mon Oct  6 14:26:40 2025, MaxMem=   104857600 cpu:               0.0 elap:               0.0
 (Enter /home/zhouoh/g16/l402.exe)
 External calculation of energy and first derivatives.
 Running external command "python ../GauUMA_client.py R"
         input file       "/home/zhouoh/scratch/Gau-2816605.EIn"
         output file      "/home/zhouoh/scratch/Gau-2816605.EOu"
         message file     "/home/zhouoh/scratch/Gau-2816605.EMs"
         fchk file        "/home/zhouoh/scratch/Gau-2816605.EFC"
         mat. el file     "/home/zhouoh/scratch/Gau-2816605.EUF"
Sent job to server.
Received result from server:
SCF Done:  E(UMA) =  -234.4937209727898     A.U.
 Recovered energy= -234.493720973     dipole=      0.000000000000      0.000000000000      0.000000000000
 Energy=    -234.493721     NIter=   0.
 Dipole moment=       0.000000       0.000000       0.000000
 Leave Link  402 at Mon Oct  6 14:26:40 2025, MaxMem=   104857600 cpu:               0.0 elap:               0.1
 (Enter /home/zhouoh/g16/l716.exe)
 Dipole        = 0.00000000D+00 0.00000000D+00 0.00000000D+00
 ***** Axes restored to original set *****
 -------------------------------------------------------------------
 Center     Atomic                   Forces (Hartrees/Bohr)
 Number     Number              X              Y              Z
 -------------------------------------------------------------------
      1        6          -0.002791714    0.000031041    0.002015341
      2        6           0.003011245    0.000182014   -0.001994486
      3        1           0.000041115    0.000263743   -0.000125978
      4        1          -0.000330040    0.000169696   -0.000036988
      5        6          -0.002430578   -0.000109862    0.000326401
      6        1           0.000719670   -0.000634107   -0.000071676
      7        1           0.000516781    0.000310032   -0.000101044
      8        6           0.002519283    0.000107986   -0.000855350
      9        1          -0.000586898    0.000171454    0.000252012
     10        1           0.000107114   -0.000389567    0.000296958
     11        6           0.000582678   -0.000411844   -0.000371554
     12        1          -0.000116753    0.000351135   -0.000260675
     13        1           0.000042214    0.000018130    0.000132861
     14        6          -0.000821347   -0.000204511    0.000657951
     15        1          -0.000129949   -0.000037191   -0.000075458
     16        1          -0.000332821    0.000181851    0.000211686
 -------------------------------------------------------------------
 Cartesian Forces:  Max     0.003011245 RMS     0.000940951
 Leave Link  716 at Mon Oct  6 14:26:40 2025, MaxMem=   104857600 cpu:               0.0 elap:               0.0
 (Enter /home/zhouoh/g16/l103.exe)

 GradGradGradGradGradGradGradGradGradGradGradGradGradGradGradGradGradGrad
 Berny optimization.
 FormGI is forming the generalized inverse of G from B-inverse, IUseBI=4.
 Internal  Forces:  Max     0.001628448 RMS     0.000356443
 Search for a saddle point.
 Step number   6 out of a maximum of  100
 All quantities printed in internal units (Hartrees-Bohrs-Radians)
 Swapping is turned off.
 Update second derivatives using D2CorX and points    1    5    6
 ITU=  0  0  0  0  0  0
     Eigenvalues ---   -0.03858   0.00104   0.00528   0.00600   0.00890
     Eigenvalues ---    0.01190   0.01355   0.01655   0.01754   0.01777
     Eigenvalues ---    0.02033   0.02261   0.02358   0.02446   0.02693
     Eigenvalues ---    0.03159   0.03478   0.04006   0.04433   0.04657
     Eigenvalues ---    0.05048   0.05220   0.05747   0.06107   0.09139
     Eigenvalues ---    0.11723   0.11873   0.13242   0.30051   0.30786
     Eigenvalues ---    0.32540   0.33473   0.33944   0.34813   0.34867
     Eigenvalues ---    0.35398   0.35497   0.35838   0.36073   0.43168
     Eigenvalues ---    0.43698   0.48876
 Eigenvectors required to have negative eigenvalues:
                          R9        R13       D20       D24       D6
   1                    0.55699   0.53939   0.16211  -0.16070  -0.15617
                          D13       D9        A27       D16       A24
   1                    0.14986  -0.13697   0.13165   0.13153  -0.12510
 RFO step:  Lambda0=4.557928441D-07 Lambda=-3.74278835D-04.
 Linear search not attempted -- option 19 set.
 Iteration  1 RMS(Cart)=  0.01890627 RMS(Int)=  0.00038774
 Iteration  2 RMS(Cart)=  0.00044051 RMS(Int)=  0.00021601
 Iteration  3 RMS(Cart)=  0.00000009 RMS(Int)=  0.00021601
 ITry= 1 IFail=0 DXMaxC= 6.10D-02 DCOld= 1.00D+10 DXMaxT= 3.00D-01 DXLimC= 3.00D+00 Rises=F
 Variable       Old X    -DE/DX   Delta X   Delta X   Delta X     New X
                                 (Linear)    (Quad)   (Total)
    R1        2.64985  -0.00010   0.00000  -0.00006   0.00016   2.65000
    R2        2.04935   0.00002   0.00000  -0.00101  -0.00101   2.04834
    R3        2.59026   0.00092   0.00000   0.00468   0.00480   2.59506
    R4        2.04838   0.00005   0.00000   0.00116   0.00116   2.04953
    R5        2.59695  -0.00100   0.00000  -0.00624  -0.00615   2.59080
    R6        2.04363  -0.00004   0.00000   0.00113   0.00114   2.04477
    R7        2.04083  -0.00000   0.00000  -0.00043  -0.00043   2.04040
    R8        2.60233  -0.00010   0.00000  -0.00023  -0.00044   2.60189
    R9        4.20844   0.00022   0.00000  -0.03849  -0.03877   4.16967
   R10        4.43021   0.00017   0.00000   0.01199   0.01219   4.44240
   R11        2.03983   0.00017   0.00000   0.00089   0.00089   2.04073
   R12        2.04515  -0.00006   0.00000  -0.00105  -0.00105   2.04410
   R13        4.18227   0.00011   0.00000   0.04456   0.04434   4.22661
   R14        4.39469   0.00024   0.00000   0.02569   0.02585   4.42054
   R15        2.04116   0.00024   0.00000   0.00078   0.00070   2.04187
   R16        2.04575   0.00003   0.00000   0.00052   0.00052   2.04626
   R17        2.04593   0.00002   0.00000  -0.00042  -0.00042   2.04551
   R18        2.04144  -0.00031   0.00000  -0.00097  -0.00094   2.04050
    A1        2.05980   0.00104   0.00000   0.00969   0.00977   2.06957
    A2        2.12611  -0.00163   0.00000  -0.01756  -0.01782   2.10829
    A3        2.07396   0.00055   0.00000   0.00490   0.00498   2.07895
    A4        2.06936  -0.00099   0.00000  -0.00956  -0.00951   2.05986
    A5        2.10817   0.00159   0.00000   0.01930   0.01895   2.12712
    A6        2.07774  -0.00053   0.00000  -0.00464  -0.00459   2.07315
    A7        2.01651   0.00005   0.00000  -0.00372  -0.00404   2.01248
    A8        2.10327  -0.00052   0.00000  -0.01614  -0.01697   2.08631
    A9        1.55809   0.00022   0.00000   0.02532   0.02555   1.58363
   A10        2.09249   0.00029   0.00000  -0.00173  -0.00225   2.09024
   A11        1.60671  -0.00022   0.00000  -0.00516  -0.00504   1.60168
   A12        1.88787   0.00046   0.00000   0.03295   0.03288   1.92075
   A13        1.38469  -0.00008   0.00000  -0.01273  -0.01306   1.37164
   A14        2.09920  -0.00025   0.00000   0.00120   0.00054   2.09973
   A15        2.08095   0.00042   0.00000   0.01539   0.01516   2.09610
   A16        1.91898  -0.00051   0.00000  -0.03175  -0.03200   1.88698
   A17        2.01242  -0.00001   0.00000   0.00410   0.00382   2.01624
   A18        1.59293   0.00013   0.00000  -0.00479  -0.00464   1.58829
   A19        1.58611   0.00004   0.00000  -0.00840  -0.00822   1.57789
   A20        1.38835  -0.00011   0.00000  -0.00271  -0.00299   1.38536
   A21        1.75851   0.00025   0.00000   0.01088   0.01093   1.76944
   A22        2.10682   0.00010   0.00000  -0.00154  -0.00166   2.10516
   A23        2.09585  -0.00011   0.00000   0.00069   0.00083   2.09668
   A24        1.48779  -0.00016   0.00000   0.01061   0.01050   1.49828
   A25        1.81337  -0.00002   0.00000  -0.01140  -0.01145   1.80192
   A26        2.00849  -0.00001   0.00000  -0.00343  -0.00347   2.00502
   A27        1.45306   0.00019   0.00000   0.00085   0.00072   1.45378
   A28        1.77519   0.00001   0.00000  -0.01012  -0.01001   1.76517
   A29        2.09472   0.00004   0.00000  -0.00120  -0.00104   2.09368
   A30        2.10906  -0.00011   0.00000   0.00105   0.00083   2.10989
   A31        1.80449   0.00005   0.00000   0.01226   0.01216   1.81665
   A32        1.48728   0.00000   0.00000  -0.01164  -0.01173   1.47555
   A33        2.00402   0.00004   0.00000   0.00428   0.00430   2.00833
   A34        1.48459   0.00002   0.00000   0.00077   0.00075   1.48535
    D1       -0.01878   0.00033   0.00000   0.02843   0.02844   0.00966
    D2       -2.90640   0.00008   0.00000   0.00643   0.00643  -2.89997
    D3        2.88970   0.00019   0.00000   0.01461   0.01462   2.90433
    D4        0.00209  -0.00005   0.00000  -0.00740  -0.00738  -0.00530
    D5       -1.04418   0.00024   0.00000   0.00988   0.00988  -1.03429
    D6        0.54129   0.00022   0.00000   0.02859   0.02847   0.56976
    D7       -3.01842   0.00013   0.00000   0.01598   0.01595  -3.00247
    D8        1.86248   0.00016   0.00000  -0.00346  -0.00341   1.85907
    D9       -2.83524   0.00015   0.00000   0.01524   0.01517  -2.82006
   D10       -0.11176   0.00006   0.00000   0.00264   0.00266  -0.10911
   D11        1.02465   0.00010   0.00000   0.00867   0.00872   1.03337
   D12        2.99922   0.00019   0.00000   0.01615   0.01622   3.01545
   D13       -0.57070   0.00012   0.00000   0.02833   0.02846  -0.54224
   D14       -1.86177  -0.00008   0.00000  -0.01276  -0.01278  -1.87455
   D15        0.11280   0.00001   0.00000  -0.00528  -0.00528   0.10753
   D16        2.82607  -0.00007   0.00000   0.00690   0.00695   2.83302
   D17       -1.99624   0.00017   0.00000   0.00098   0.00094  -1.99529
   D18        1.54140   0.00060   0.00000   0.05865   0.05815   1.59955
   D19       -0.39170   0.00003   0.00000   0.00734   0.00744  -0.38426
   D20        2.67605   0.00009   0.00000   0.01520   0.01559   2.69164
   D21       -0.00042  -0.00030   0.00000  -0.03585  -0.03578  -0.03620
   D22       -1.79484  -0.00022   0.00000  -0.01218  -0.01173  -1.80657
   D23       -0.05239   0.00060   0.00000   0.07600   0.07597   0.02357
   D24       -2.72887   0.00021   0.00000   0.02496   0.02459  -2.70427
   D25        1.75989   0.00029   0.00000   0.04862   0.04865   1.80854
   D26       -1.85755   0.00043   0.00000   0.06121   0.06119  -1.79636
   D27        1.74917   0.00005   0.00000   0.01016   0.00981   1.75898
   D28       -0.04526   0.00012   0.00000   0.03382   0.03387  -0.01139
   D29        3.05752  -0.00014   0.00000  -0.02612  -0.02595   3.03157
   D30        0.95636  -0.00022   0.00000  -0.02653  -0.02643   0.92994
   D31       -1.04518  -0.00016   0.00000  -0.02524  -0.02499  -1.07017
   D32       -1.20931  -0.00009   0.00000  -0.02901  -0.02913  -1.23844
   D33        2.97272  -0.00016   0.00000  -0.02942  -0.02960   2.94312
   D34        0.97117  -0.00011   0.00000  -0.02812  -0.02816   0.94301
   D35        0.92792   0.00025   0.00000  -0.02472  -0.02517   0.90274
   D36       -1.17324   0.00017   0.00000  -0.02513  -0.02565  -1.19889
   D37        3.10840   0.00023   0.00000  -0.02384  -0.02421   3.08419
   D38        0.91496  -0.00020   0.00000  -0.03518  -0.03497   0.87999
   D39       -1.61333   0.00044   0.00000   0.04610   0.04640  -1.56693
   D40        1.97106   0.00014   0.00000  -0.00154  -0.00158   1.96948
   D41        0.36854  -0.00003   0.00000   0.00761   0.00737   0.37591
   D42       -0.85161   0.00031   0.00000  -0.02468  -0.02439  -0.87600
   D43       -3.03444   0.00024   0.00000  -0.02408  -0.02391  -3.05835
   D44        1.25208   0.00020   0.00000  -0.02608  -0.02582   1.22625
   D45        1.29498  -0.00003   0.00000  -0.03382  -0.03361   1.26136
   D46       -0.88785  -0.00010   0.00000  -0.03323  -0.03314  -0.92099
   D47       -2.88452  -0.00014   0.00000  -0.03523  -0.03505  -2.91957
   D48       -2.97524  -0.00004   0.00000  -0.03012  -0.03012  -3.00536
   D49        1.12512  -0.00011   0.00000  -0.02952  -0.02964   1.09548
   D50       -0.87155  -0.00015   0.00000  -0.03152  -0.03155  -0.90310
   D51       -0.83413  -0.00012   0.00000  -0.03408  -0.03413  -0.86826
   D52       -2.12926  -0.00011   0.00000  -0.01040  -0.01016  -2.13941
   D53       -0.38928   0.00009   0.00000   0.00847   0.00869  -0.38059
   D54        1.41070   0.00000   0.00000   0.00070   0.00079   1.41149
   D55        2.12469   0.00002   0.00000  -0.01091  -0.01110   2.11358
   D56        0.36553   0.00001   0.00000   0.00774   0.00749   0.37302
   D57       -1.42433  -0.00005   0.00000  -0.00055  -0.00063  -1.42496
         Item               Value     Threshold  Converged?
 Maximum Force            0.001628     0.000450     NO 
 RMS     Force            0.000356     0.000300     NO 
 Maximum Displacement     0.060962     0.001800     NO 
 RMS     Displacement     0.018885     0.001200     NO 
 Predicted change in Energy=-1.965483D-04
 GradGradGradGradGradGradGradGradGradGradGradGradGradGradGradGradGradGrad

 Leave Link  103 at Mon Oct  6 14:26:40 2025, MaxMem=   104857600 cpu:               0.0 elap:               0.0
 (Enter /home/zhouoh/g16/l202.exe)
                          Input orientation:                          
 ---------------------------------------------------------------------
 Center     Atomic      Atomic             Coordinates (Angstroms)
 Number     Number       Type             X           Y           Z
 ---------------------------------------------------------------------
      1          6           0       -1.294458    0.705069    0.302642
      2          6           0       -1.290447   -0.697244    0.300402
      3          1           0       -1.814994    1.220804    1.101378
      4          1           0       -1.818792   -1.209554    1.097065
      5          6           0        1.524096    0.689530    0.226162
      6          1           0        2.031626    1.232896   -0.559958
      7          1           0        1.413451    1.222694    1.158535
      8          6           0        1.548724   -0.687108    0.224803
      9          1           0        1.436135   -1.235058    1.148530
     10          1           0        2.043799   -1.219994   -0.575814
     11          6           0       -0.431061    1.411898   -0.497825
     12          1           0       -0.129915    1.023452   -1.460072
     13          1           0       -0.351707    2.486958   -0.395434
     14          6           0       -0.438446   -1.417521   -0.496415
     15          1           0       -0.378291   -2.493028   -0.389950
     16          1           0       -0.116721   -1.033767   -1.453054
 ---------------------------------------------------------------------
                    Distance matrix (angstroms):
                    1          2          3          4          5
     1  C    0.000000
     2  C    1.402321   0.000000
     3  H    1.083937   2.143739   0.000000
     4  H    2.138181   1.084566   2.430365   0.000000
     5  C    2.819634   3.138519   3.492532   3.942068   0.000000
     6  H    3.476422   3.937236   4.190068   4.851496   1.082043
     7  H    2.886738   3.425437   3.228952   4.045616   1.079734
     8  C    3.166686   2.840195   3.965238   3.517664   1.376859
     9  H    3.454816   2.905651   4.074717   3.255434   2.136009
    10  H    3.952405   3.486863   4.864231   4.209304   2.135307
    11  C    1.373247   2.413336   2.123496   3.367712   2.206493
    12  H    2.136513   2.721561   3.072371   3.791777   2.385507
    13  H    2.133357   3.391837   2.446385   4.247834   2.671285
    14  C    2.424177   1.370993   3.377659   2.118439   2.968729
    15  H    3.398069   2.129191   4.252143   2.435891   3.758636
    16  H    2.737350   2.136701   3.806881   3.071003   2.912353
                    6          7          8          9         10
     6  H    0.000000
     7  H    1.826325   0.000000
     8  C    2.129662   2.130140   0.000000
     9  H    3.060120   2.457877   1.079905   0.000000
    10  H    2.452971   3.061376   1.081690   1.828344   0.000000
    11  C    2.469965   2.486272   2.974486   3.633631   3.613567
    12  H    2.350815   3.046109   2.929616   3.789219   3.246535
    13  H    2.698150   2.670012   3.751136   4.408355   4.417292
    14  C    3.623534   3.624792   2.236628   2.500638   2.491357
    15  H    4.440621   4.406215   2.711578   2.691012   2.742568
    16  H    3.248196   3.775373   2.389370   3.036465   2.339247
                   11         12         13         14         15
    11  C    0.000000
    12  H    1.080509   0.000000
    13  H    1.082836   1.823320   0.000000
    14  C    2.829429   2.642380   3.906747   0.000000
    15  H    3.906772   3.684085   4.980060   1.082437   0.000000
    16  H    2.644343   2.057273   3.683650   1.079784   1.824295
                   16
    16  H    0.000000
 Stoichiometry    C6H10
 Framework group  C1[X(C6H10)]
 Deg. of freedom    42
 Full point group                 C1      NOp   1
 RotChk:  IX=0 Diff= 2.41D-02
 Largest Abelian subgroup         C1      NOp   1
 Largest concise Abelian subgroup C1      NOp   1
                         Standard orientation:                         
 ---------------------------------------------------------------------
 Center     Atomic      Atomic             Coordinates (Angstroms)
 Number     Number       Type             X           Y           Z
 ---------------------------------------------------------------------
      1          6           0       -1.301422   -0.696106   -0.293904
      2          6           0       -1.287827    0.706148   -0.293628
      3          1           0       -1.829851   -1.209347   -1.089055
      4          1           0       -1.817036    1.220984   -1.088087
      5          6           0        1.517550   -0.699725   -0.232919
      6          1           0        2.025674   -1.245487    0.551155
      7          1           0        1.398143   -1.233376   -1.163931
      8          6           0        1.551581    0.676713   -0.233602
      9          1           0        1.437657    1.224174   -1.157454
     10          1           0        2.054677    1.207281    0.563547
     11          6           0       -0.438482   -1.407740    0.502789
     12          1           0       -0.129405   -1.020064    1.462830
     13          1           0       -0.367032   -2.483453    0.401453
     14          6           0       -0.426561    1.421659    0.497502
     15          1           0       -0.359652    2.496586    0.389219
     16          1           0       -0.102207    1.037005    1.452891
 ---------------------------------------------------------------------
 Rotational constants (GHZ):           4.4122091           3.6014885           2.3445486
 Leave Link  202 at Mon Oct  6 14:26:40 2025, MaxMem=   104857600 cpu:               0.0 elap:               0.0
 (Enter /home/zhouoh/g16/l301.exe)
 Standard basis: STO-3G (5D, 7F)
 Ernie: Thresh=  0.10000D-02 Tol=  0.10000D-05 Strict=F.
 There are    40 symmetry adapted cartesian basis functions of A   symmetry.
 There are    40 symmetry adapted basis functions of A   symmetry.
    40 basis functions,   120 primitive gaussians,    40 cartesian basis functions
    23 alpha electrons       23 beta electrons
       nuclear repulsion energy       226.7430001677 Hartrees.
 IExCor=    0 DFT=F Ex=HF Corr=None ExCW=0 ScaHFX=  1.000000
 ScaDFX=  1.000000  1.000000  1.000000  1.000000 ScalE2=  1.000000  1.000000
 IRadAn=      5 IRanWt=     -1 IRanGd=            0 ICorTp=0 IEmpDi=  4
 NAtoms=   16 NActive=   16 NUniq=   16 SFac= 1.00D+00 NAtFMM=   60 NAOKFM=F Big=F
 Integral buffers will be    131072 words long.
 Raffenetti 1 integral format.
 Two-electron integral symmetry is turned on.
 Leave Link  301 at Mon Oct  6 14:26:40 2025, MaxMem=   104857600 cpu:               0.0 elap:               0.0
 (Enter /home/zhouoh/g16/l402.exe)
 External calculation of energy and first derivatives.
 Running external command "python ../GauUMA_client.py R"
         input file       "/home/zhouoh/scratch/Gau-2816605.EIn"
         output file      "/home/zhouoh/scratch/Gau-2816605.EOu"
         message file     "/home/zhouoh/scratch/Gau-2816605.EMs"
         fchk file        "/home/zhouoh/scratch/Gau-2816605.EFC"
         mat. el file     "/home/zhouoh/scratch/Gau-2816605.EUF"
Sent job to server.
Received result from server:
SCF Done:  E(UMA) =  -234.4938017032883     A.U.
 Recovered energy= -234.493801703     dipole=      0.000000000000      0.000000000000      0.000000000000
 Energy=    -234.493802     NIter=   0.
 Dipole moment=       0.000000       0.000000       0.000000
 Leave Link  402 at Mon Oct  6 14:26:41 2025, MaxMem=   104857600 cpu:               0.0 elap:               0.1
 (Enter /home/zhouoh/g16/l716.exe)
 Dipole        = 0.00000000D+00 0.00000000D+00 0.00000000D+00
 ***** Axes restored to original set *****
 -------------------------------------------------------------------
 Center     Atomic                   Forces (Hartrees/Bohr)
 Number     Number              X              Y              Z
 -------------------------------------------------------------------
      1        6           0.001809726   -0.000474616   -0.001068928
      2        6          -0.002178420   -0.000099994    0.001239973
      3        1          -0.000155547   -0.000154885   -0.000000900
      4        1           0.000136620   -0.000148188    0.000013384
      5        6           0.002250268    0.000280843    0.000442794
      6        1          -0.000184167    0.000111683   -0.000164838
      7        1          -0.000093751    0.000178339   -0.000001751
      8        6          -0.001970309   -0.000036712   -0.000079898
      9        1           0.000127849    0.000080392   -0.000065356
     10        1           0.000316406    0.000177517    0.000054260
     11        6          -0.000212591    0.000046304    0.000231803
     12        1          -0.000101629    0.000082125    0.000030187
     13        1          -0.000231118   -0.000005983   -0.000031414
     14        6           0.000442906    0.000045837   -0.000463887
     15        1           0.000150375   -0.000020146   -0.000003774
     16        1          -0.000106616   -0.000062514   -0.000131655
 -------------------------------------------------------------------
 Cartesian Forces:  Max     0.002250268 RMS     0.000664140
 Leave Link  716 at Mon Oct  6 14:26:41 2025, MaxMem=   104857600 cpu:               0.0 elap:               0.0
 (Enter /home/zhouoh/g16/l103.exe)

 GradGradGradGradGradGradGradGradGradGradGradGradGradGradGradGradGradGrad
 Berny optimization.
 FormGI is forming the generalized inverse of G from B-inverse, IUseBI=4.
 Internal  Forces:  Max     0.001139911 RMS     0.000266627
 Search for a saddle point.
 Step number   7 out of a maximum of  100
 All quantities printed in internal units (Hartrees-Bohrs-Radians)
 Swapping is turned off.
 Update second derivatives using D2CorX and points    1    5    6    7
 ITU=  0  0  0  0  0  0  0
     Eigenvalues ---   -0.03895   0.00032   0.00573   0.00607   0.00899
     Eigenvalues ---    0.01173   0.01352   0.01658   0.01775   0.01841
     Eigenvalues ---    0.02100   0.02263   0.02361   0.02446   0.02690
     Eigenvalues ---    0.03198   0.03811   0.03976   0.04529   0.04665
     Eigenvalues ---    0.05075   0.05221   0.05772   0.06110   0.09140
     Eigenvalues ---    0.11722   0.11882   0.13614   0.30069   0.30790
     Eigenvalues ---    0.32546   0.33489   0.33978   0.34815   0.34868
     Eigenvalues ---    0.35398   0.35497   0.35841   0.36072   0.43174
     Eigenvalues ---    0.43716   0.48887
 Eigenvectors required to have negative eigenvalues:
                          R9        R13       D24       D20       D6
   1                    0.56505   0.53261  -0.16142   0.15788  -0.15387
                          D13       D9        A27       D16       A24
   1                    0.14817  -0.13812   0.13222   0.12857  -0.12674
 RFO step:  Lambda0=4.564542198D-08 Lambda=-2.56035970D-04.
 Linear search not attempted -- option 19 set.
 Iteration  1 RMS(Cart)=  0.04332387 RMS(Int)=  0.00151469
 Iteration  2 RMS(Cart)=  0.00149952 RMS(Int)=  0.00065439
 Iteration  3 RMS(Cart)=  0.00000129 RMS(Int)=  0.00065439
 Iteration  4 RMS(Cart)=  0.00000000 RMS(Int)=  0.00065439
 ITry= 1 IFail=0 DXMaxC= 1.57D-01 DCOld= 1.00D+10 DXMaxT= 3.00D-01 DXLimC= 3.00D+00 Rises=F
 Variable       Old X    -DE/DX   Delta X   Delta X   Delta X     New X
                                 (Linear)    (Quad)   (Total)
    R1        2.65000  -0.00013   0.00000   0.00066   0.00070   2.65071
    R2        2.04834   0.00000   0.00000   0.00065   0.00065   2.04899
    R3        2.59506  -0.00022   0.00000  -0.00435  -0.00438   2.59068
    R4        2.04953   0.00001   0.00000  -0.00106  -0.00106   2.04847
    R5        2.59080   0.00063   0.00000   0.00256   0.00263   2.59343
    R6        2.04477   0.00004   0.00000   0.00117   0.00136   2.04612
    R7        2.04040   0.00010   0.00000  -0.00046  -0.00046   2.03994
    R8        2.60189   0.00015   0.00000  -0.00057  -0.00060   2.60128
    R9        4.16967   0.00009   0.00000   0.01763   0.01727   4.18694
   R10        4.44240   0.00020   0.00000  -0.00903  -0.00875   4.43364
   R11        2.04073  -0.00011   0.00000   0.00004   0.00004   2.04076
   R12        2.04410   0.00002   0.00000  -0.00037   0.00006   2.04416
   R13        4.22661   0.00020   0.00000  -0.01102  -0.01192   4.21469
   R14        4.42054  -0.00001   0.00000   0.04850   0.04883   4.46936
   R15        2.04187  -0.00023   0.00000  -0.00076  -0.00058   2.04129
   R16        2.04626  -0.00003   0.00000  -0.00055  -0.00055   2.04571
   R17        2.04551   0.00003   0.00000   0.00024   0.00024   2.04575
   R18        2.04050   0.00019   0.00000  -0.00002   0.00042   2.04092
    A1        2.06957  -0.00066   0.00000  -0.00828  -0.00835   2.06122
    A2        2.10829   0.00109   0.00000   0.01711   0.01685   2.12514
    A3        2.07895  -0.00037   0.00000  -0.00609  -0.00598   2.07297
    A4        2.05986   0.00068   0.00000   0.01096   0.01086   2.07071
    A5        2.12712  -0.00114   0.00000  -0.02058  -0.02078   2.10634
    A6        2.07315   0.00041   0.00000   0.00743   0.00752   2.08066
    A7        2.01248  -0.00008   0.00000   0.00055   0.00040   2.01288
    A8        2.08631   0.00025   0.00000   0.00402   0.00446   2.09077
    A9        1.58363   0.00005   0.00000   0.02133   0.02130   1.60493
   A10        2.09024   0.00003   0.00000   0.00589   0.00559   2.09583
   A11        1.60168   0.00023   0.00000  -0.02172  -0.02078   1.58089
   A12        1.92075  -0.00069   0.00000  -0.02168  -0.02324   1.89751
   A13        1.37164  -0.00005   0.00000   0.01001   0.00885   1.38049
   A14        2.09973   0.00008   0.00000  -0.00842  -0.00839   2.09134
   A15        2.09610  -0.00029   0.00000   0.00255   0.00302   2.09913
   A16        1.88698   0.00061   0.00000   0.01990   0.01794   1.90492
   A17        2.01624   0.00007   0.00000  -0.00051  -0.00078   2.01546
   A18        1.58829  -0.00020   0.00000   0.01211   0.01322   1.60150
   A19        1.57789  -0.00006   0.00000  -0.01690  -0.01682   1.56107
   A20        1.38536   0.00008   0.00000  -0.01904  -0.02062   1.36475
   A21        1.76944   0.00004   0.00000   0.00760   0.00785   1.77730
   A22        2.10516  -0.00005   0.00000   0.00425   0.00440   2.10956
   A23        2.09668   0.00004   0.00000  -0.00652  -0.00662   2.09006
   A24        1.49828   0.00005   0.00000  -0.00183  -0.00276   1.49552
   A25        1.80192  -0.00000   0.00000  -0.00015   0.00013   1.80204
   A26        2.00502  -0.00003   0.00000   0.00018   0.00028   2.00530
   A27        1.45378   0.00004   0.00000   0.03301   0.03282   1.48660
   A28        1.76517   0.00008   0.00000  -0.01788  -0.01754   1.74763
   A29        2.09368  -0.00007   0.00000   0.00987   0.00962   2.10330
   A30        2.10989   0.00007   0.00000  -0.00588  -0.00569   2.10420
   A31        1.81665  -0.00001   0.00000  -0.00354  -0.00335   1.81331
   A32        1.47555  -0.00005   0.00000   0.00828   0.00715   1.48271
   A33        2.00833  -0.00000   0.00000   0.00118   0.00138   2.00970
   A34        1.48535   0.00001   0.00000  -0.04444  -0.04461   1.44074
    D1        0.00966  -0.00034   0.00000  -0.00187  -0.00190   0.00775
    D2       -2.89997  -0.00018   0.00000   0.00781   0.00853  -2.89144
    D3        2.90433  -0.00016   0.00000   0.00976   0.00908   2.91341
    D4       -0.00530   0.00001   0.00000   0.01945   0.01952   0.01422
    D5       -1.03429  -0.00022   0.00000  -0.00784  -0.00652  -1.04081
    D6        0.56976  -0.00015   0.00000  -0.00451  -0.00407   0.56569
    D7       -3.00247  -0.00027   0.00000  -0.01007  -0.00918  -3.01165
    D8        1.85907  -0.00008   0.00000   0.00358   0.00424   1.86331
    D9       -2.82006  -0.00000   0.00000   0.00691   0.00669  -2.81337
   D10       -0.10911  -0.00012   0.00000   0.00135   0.00158  -0.10753
   D11        1.03337  -0.00020   0.00000   0.00664   0.00523   1.03861
   D12        3.01545  -0.00019   0.00000  -0.00594  -0.00709   3.00836
   D13       -0.54224  -0.00020   0.00000   0.00874   0.00832  -0.53393
   D14       -1.87455  -0.00007   0.00000   0.01597   0.01533  -1.85922
   D15        0.10753  -0.00006   0.00000   0.00340   0.00300   0.11053
   D16        2.83302  -0.00007   0.00000   0.01808   0.01841   2.85143
   D17       -1.99529  -0.00020   0.00000   0.03877   0.03877  -1.95652
   D18        1.59955  -0.00063   0.00000   0.01367   0.01303   1.61258
   D19       -0.38426   0.00008   0.00000   0.02486   0.02588  -0.35838
   D20        2.69164   0.00001   0.00000   0.05820   0.05898   2.75063
   D21       -0.03620   0.00039   0.00000   0.07600   0.07583   0.03963
   D22       -1.80657   0.00019   0.00000   0.08273   0.08354  -1.72303
   D23        0.02357  -0.00043   0.00000   0.03339   0.03337   0.05694
   D24       -2.70427  -0.00004   0.00000   0.05119   0.05022  -2.65406
   D25        1.80854  -0.00024   0.00000   0.05792   0.05793   1.86647
   D26       -1.79636  -0.00026   0.00000   0.07258   0.07235  -1.72401
   D27        1.75898   0.00012   0.00000   0.09038   0.08920   1.84818
   D28       -0.01139  -0.00007   0.00000   0.09711   0.09691   0.08552
   D29        3.03157  -0.00011   0.00000  -0.07750  -0.07733   2.95424
   D30        0.92994  -0.00006   0.00000  -0.08175  -0.08156   0.84837
   D31       -1.07017  -0.00004   0.00000  -0.08151  -0.08123  -1.15140
   D32       -1.23844  -0.00018   0.00000  -0.07672  -0.07695  -1.31539
   D33        2.94312  -0.00014   0.00000  -0.08097  -0.08118   2.86193
   D34        0.94301  -0.00012   0.00000  -0.08074  -0.08085   0.86216
   D35        0.90274  -0.00024   0.00000  -0.08598  -0.08556   0.81718
   D36       -1.19889  -0.00019   0.00000  -0.09022  -0.08979  -1.28868
   D37        3.08419  -0.00017   0.00000  -0.08999  -0.08946   2.99473
   D38        0.87999  -0.00007   0.00000  -0.07382  -0.07391   0.80608
   D39       -1.56693  -0.00059   0.00000   0.01535   0.01576  -1.55116
   D40        1.96948  -0.00023   0.00000   0.03419   0.03371   2.00318
   D41        0.37591   0.00003   0.00000   0.02885   0.02710   0.40301
   D42       -0.87600  -0.00026   0.00000  -0.09607  -0.09649  -0.97249
   D43       -3.05835  -0.00021   0.00000  -0.09762  -0.09814   3.12670
   D44        1.22625  -0.00020   0.00000  -0.10073  -0.10117   1.12508
   D45        1.26136  -0.00012   0.00000  -0.09575  -0.09573   1.16563
   D46       -0.92099  -0.00007   0.00000  -0.09730  -0.09738  -1.01836
   D47       -2.91957  -0.00006   0.00000  -0.10041  -0.10041  -3.01998
   D48       -3.00536  -0.00005   0.00000  -0.09645  -0.09682  -3.10218
   D49        1.09548  -0.00000   0.00000  -0.09800  -0.09847   0.99701
   D50       -0.90310   0.00001   0.00000  -0.10111  -0.10150  -1.00461
   D51       -0.86826  -0.00003   0.00000  -0.08792  -0.08753  -0.95578
   D52       -2.13941  -0.00005   0.00000   0.01709   0.01827  -2.12115
   D53       -0.38059   0.00003   0.00000   0.02502   0.02595  -0.35463
   D54        1.41149   0.00005   0.00000   0.02402   0.02483   1.43632
   D55        2.11358   0.00006   0.00000   0.01239   0.01059   2.12417
   D56        0.37302   0.00000   0.00000   0.02837   0.02682   0.39984
   D57       -1.42496   0.00003   0.00000   0.02847   0.02720  -1.39775
         Item               Value     Threshold  Converged?
 Maximum Force            0.001140     0.000450     NO 
 RMS     Force            0.000267     0.000300     YES
 Maximum Displacement     0.156629     0.001800     NO 
 RMS     Displacement     0.043330     0.001200     NO 
 Predicted change in Energy=-1.570567D-04
 GradGradGradGradGradGradGradGradGradGradGradGradGradGradGradGradGradGrad

 Leave Link  103 at Mon Oct  6 14:26:41 2025, MaxMem=   104857600 cpu:               0.0 elap:               0.0
 (Enter /home/zhouoh/g16/l202.exe)
                          Input orientation:                          
 ---------------------------------------------------------------------
 Center     Atomic      Atomic             Coordinates (Angstroms)
 Number     Number       Type             X           Y           Z
 ---------------------------------------------------------------------
      1          6           0       -1.283327    0.685488    0.314735
      2          6           0       -1.294436   -0.716999    0.293385
      3          1           0       -1.796466    1.187952    1.127064
      4          1           0       -1.819146   -1.244540    1.081702
      5          6           0        1.548546    0.693572    0.194322
      6          1           0        2.048380    1.184287   -0.631350
      7          1           0        1.465677    1.278813    1.097609
      8          6           0        1.521966   -0.681235    0.258051
      9          1           0        1.365110   -1.171987    1.207154
     10          1           0        2.029263   -1.271829   -0.492929
     11          6           0       -0.435608    1.412619   -0.480317
     12          1           0       -0.144186    1.051310   -1.455696
     13          1           0       -0.367298    2.485434   -0.352628
     14          6           0       -0.435911   -1.411843   -0.521208
     15          1           0       -0.359360   -2.489181   -0.447517
     16          1           0       -0.110207   -0.991833   -1.461382
 ---------------------------------------------------------------------
                    Distance matrix (angstroms):
                    1          2          3          4          5
     1  C    0.000000
     2  C    1.402693   0.000000
     3  H    1.084279   2.139134   0.000000
     4  H    2.144842   1.084004   2.433021   0.000000
     5  C    2.834443   3.175227   3.507638   3.985608   0.000000
     6  H    3.499164   3.955306   4.227869   4.877654   1.082761
     7  H    2.919238   3.499752   3.263541   4.142176   1.079492
     8  C    3.121027   2.816850   3.906538   3.486939   1.376539
     9  H    3.355718   2.848714   3.946047   3.187552   2.130677
    10  H    3.931496   3.460216   4.828157   4.158179   2.136868
    11  C    1.370931   2.423111   2.118037   3.378546   2.215634
    12  H    2.136795   2.740306   3.069096   3.809831   2.390790
    13  H    2.127038   3.395953   2.432174   4.251808   2.679624
    14  C    2.411579   1.372383   3.365539   2.123829   2.980407
    15  H    3.393121   2.136337   4.250399   2.453287   3.765897
    16  H    2.710019   2.134745   3.780871   3.074347   2.886764
                    6          7          8          9         10
     6  H    0.000000
     7  H    1.826959   0.000000
     8  C    2.132679   2.133030   0.000000
     9  H    3.065776   2.455307   1.079925   0.000000
    10  H    2.460088   3.058303   1.081722   1.827936   0.000000
    11  C    2.499029   2.474397   2.959984   3.573560   3.644449
    12  H    2.346183   3.027009   2.952067   3.783093   3.323819
    13  H    2.757928   2.630384   3.737651   4.337152   4.458723
    14  C    3.594959   3.671000   2.230318   2.507678   2.469309
    15  H    4.396064   4.462730   2.702940   2.728871   2.681329
    16  H    3.175524   3.766654   2.391006   3.054521   2.365086
                   11         12         13         14         15
    11  C    0.000000
    12  H    1.080202   0.000000
    13  H    1.082545   1.822979   0.000000
    14  C    2.824758   2.650565   3.901525   0.000000
    15  H    3.902683   3.687520   4.975527   1.082566   0.000000
    16  H    2.617205   2.043433   3.658800   1.080008   1.825391
                   16
    16  H    0.000000
 Stoichiometry    C6H10
 Framework group  C1[X(C6H10)]
 Deg. of freedom    42
 Full point group                 C1      NOp   1
 RotChk:  IX=3 Diff= 1.02D-01
 Largest Abelian subgroup         C1      NOp   1
 Largest concise Abelian subgroup C1      NOp   1
                         Standard orientation:                         
 ---------------------------------------------------------------------
 Center     Atomic      Atomic             Coordinates (Angstroms)
 Number     Number       Type             X           Y           Z
 ---------------------------------------------------------------------
      1          6           0       -1.238214   -0.770912   -0.304922
      2          6           0       -1.340627    0.627939   -0.288356
      3          1           0       -1.721650   -1.308832   -1.112754
      4          1           0       -1.902639    1.117164   -1.075672
      5          6           0        1.588740   -0.593947   -0.199635
      6          1           0        2.123719   -1.047905    0.625041
      7          1           0        1.539585   -1.186769   -1.100440
      8          6           0        1.472258    0.775952   -0.267968
      9          1           0        1.278890    1.251831   -1.217908
     10          1           0        1.943805    1.401200    0.478243
     11          6           0       -0.340838   -1.438222    0.488089
     12          1           0       -0.068607   -1.054989    1.460642
     13          1           0       -0.203383   -2.504781    0.363742
     14          6           0       -0.525076    1.380349    0.519228
     15          1           0       -0.519304    2.460098    0.441408
     16          1           0       -0.167878    0.986031    1.459089
 ---------------------------------------------------------------------
 Rotational constants (GHZ):           4.4151650           3.6044400           2.3513590
 Leave Link  202 at Mon Oct  6 14:26:41 2025, MaxMem=   104857600 cpu:               0.0 elap:               0.0
 (Enter /home/zhouoh/g16/l301.exe)
 Standard basis: STO-3G (5D, 7F)
 Ernie: Thresh=  0.10000D-02 Tol=  0.10000D-05 Strict=F.
 There are    40 symmetry adapted cartesian basis functions of A   symmetry.
 There are    40 symmetry adapted basis functions of A   symmetry.
    40 basis functions,   120 primitive gaussians,    40 cartesian basis functions
    23 alpha electrons       23 beta electrons
       nuclear repulsion energy       226.8496230626 Hartrees.
 IExCor=    0 DFT=F Ex=HF Corr=None ExCW=0 ScaHFX=  1.000000
 ScaDFX=  1.000000  1.000000  1.000000  1.000000 ScalE2=  1.000000  1.000000
 IRadAn=      5 IRanWt=     -1 IRanGd=            0 ICorTp=0 IEmpDi=  4
 NAtoms=   16 NActive=   16 NUniq=   16 SFac= 1.00D+00 NAtFMM=   60 NAOKFM=F Big=F
 Integral buffers will be    131072 words long.
 Raffenetti 1 integral format.
 Two-electron integral symmetry is turned on.
 Leave Link  301 at Mon Oct  6 14:26:41 2025, MaxMem=   104857600 cpu:               0.0 elap:               0.0
 (Enter /home/zhouoh/g16/l402.exe)
 External calculation of energy and first derivatives.
 Running external command "python ../GauUMA_client.py R"
         input file       "/home/zhouoh/scratch/Gau-2816605.EIn"
         output file      "/home/zhouoh/scratch/Gau-2816605.EOu"
         message file     "/home/zhouoh/scratch/Gau-2816605.EMs"
         fchk file        "/home/zhouoh/scratch/Gau-2816605.EFC"
         mat. el file     "/home/zhouoh/scratch/Gau-2816605.EUF"
Sent job to server.
Received result from server:
SCF Done:  E(UMA) =  -234.49369708395713     A.U.
 Recovered energy= -234.493697084     dipole=      0.000000000000      0.000000000000      0.000000000000
 Energy=    -234.493697     NIter=   0.
 Dipole moment=       0.000000       0.000000       0.000000
 Leave Link  402 at Mon Oct  6 14:26:41 2025, MaxMem=   104857600 cpu:               0.0 elap:               0.1
 (Enter /home/zhouoh/g16/l716.exe)
 Dipole        = 0.00000000D+00 0.00000000D+00 0.00000000D+00
 ***** Axes restored to original set *****
 -------------------------------------------------------------------
 Center     Atomic                   Forces (Hartrees/Bohr)
 Number     Number              X              Y              Z
 -------------------------------------------------------------------
      1        6          -0.002468277    0.000149651    0.001626905
      2        6           0.001821529    0.000420037   -0.001818582
      3        1          -0.000081087    0.000142225    0.000012046
      4        1          -0.000084015    0.000128996    0.000039968
      5        6           0.000133270   -0.000348140   -0.000317119
      6        1           0.000066767   -0.000320641    0.000260569
      7        1          -0.000282050   -0.000147117    0.000148051
      8        6           0.000735890   -0.000319737    0.000312765
      9        1           0.000604011   -0.000483908   -0.000032823
     10        1          -0.000118999    0.000301979   -0.000230731
     11        6          -0.000200347    0.000747018   -0.000617797
     12        1           0.000151530   -0.000149296   -0.000013508
     13        1           0.000019472    0.000141243   -0.000179646
     14        6           0.000163223    0.000235349    0.000793388
     15        1          -0.000330854    0.000058747    0.000140083
     16        1          -0.000130063   -0.000556405   -0.000123570
 -------------------------------------------------------------------
 Cartesian Forces:  Max     0.002468277 RMS     0.000644160
 Leave Link  716 at Mon Oct  6 14:26:41 2025, MaxMem=   104857600 cpu:               0.0 elap:               0.0
 (Enter /home/zhouoh/g16/l103.exe)

 GradGradGradGradGradGradGradGradGradGradGradGradGradGradGradGradGradGrad
 Berny optimization.
 FormGI is forming the generalized inverse of G from B-inverse, IUseBI=4.
 Internal  Forces:  Max     0.001426161 RMS     0.000339054
 Search for a saddle point.
 Step number   8 out of a maximum of  100
 All quantities printed in internal units (Hartrees-Bohrs-Radians)
 Swapping is turned off.
 Update second derivatives using D2CorX and points    1    2    4    7    8
 ITU=  0  0  0  0  0  0  0  0
     Eigenvalues ---   -0.03854   0.00124   0.00599   0.00678   0.00905
     Eigenvalues ---    0.01176   0.01374   0.01662   0.01770   0.01893
     Eigenvalues ---    0.02100   0.02265   0.02380   0.02454   0.02661
     Eigenvalues ---    0.03141   0.03895   0.04115   0.04622   0.04664
     Eigenvalues ---    0.05127   0.05231   0.05775   0.06096   0.09136
     Eigenvalues ---    0.11722   0.11896   0.14023   0.30083   0.30778
     Eigenvalues ---    0.32538   0.33482   0.33983   0.34819   0.34868
     Eigenvalues ---    0.35399   0.35498   0.35841   0.36072   0.43216
     Eigenvalues ---    0.43728   0.48883
 Eigenvectors required to have negative eigenvalues:
                          R9        R13       D20       D24       D6
   1                    0.55759   0.53614   0.16375  -0.15977  -0.15641
                          D13       D9        D16       A27       A24
   1                    0.15157  -0.13924   0.13297   0.13087  -0.12339
 RFO step:  Lambda0=8.940391030D-06 Lambda=-3.27814297D-04.
 Linear search not attempted -- option 19 set.
 Iteration  1 RMS(Cart)=  0.02713573 RMS(Int)=  0.00055990
 Iteration  2 RMS(Cart)=  0.00055119 RMS(Int)=  0.00025394
 Iteration  3 RMS(Cart)=  0.00000011 RMS(Int)=  0.00025394
 ITry= 1 IFail=0 DXMaxC= 9.86D-02 DCOld= 1.00D+10 DXMaxT= 3.00D-01 DXLimC= 3.00D+00 Rises=F
 Variable       Old X    -DE/DX   Delta X   Delta X   Delta X     New X
                                 (Linear)    (Quad)   (Total)
    R1        2.65071   0.00012   0.00000  -0.00169  -0.00163   2.64908
    R2        2.04899   0.00011   0.00000  -0.00021  -0.00021   2.04878
    R3        2.59068   0.00103   0.00000   0.00288   0.00288   2.59356
    R4        2.04847   0.00001   0.00000   0.00065   0.00065   2.04912
    R5        2.59343  -0.00038   0.00000   0.00043   0.00049   2.59392
    R6        2.04612  -0.00030   0.00000  -0.00143  -0.00135   2.04477
    R7        2.03994   0.00007   0.00000   0.00031   0.00031   2.04026
    R8        2.60128   0.00007   0.00000   0.00168   0.00162   2.60290
    R9        4.18694   0.00109   0.00000   0.01490   0.01484   4.20178
   R10        4.43364   0.00004   0.00000   0.00296   0.00303   4.43668
   R11        2.04076   0.00010   0.00000   0.00015   0.00015   2.04091
   R12        2.04416  -0.00011   0.00000  -0.00011   0.00011   2.04427
   R13        4.21469  -0.00001   0.00000  -0.01981  -0.02026   4.19443
   R14        4.46936   0.00009   0.00000  -0.02640  -0.02629   4.44308
   R15        2.04129   0.00026   0.00000   0.00014   0.00017   2.04146
   R16        2.04571   0.00012   0.00000   0.00036   0.00036   2.04607
   R17        2.04575  -0.00007   0.00000  -0.00001  -0.00001   2.04575
   R18        2.04092  -0.00026   0.00000  -0.00035  -0.00014   2.04078
    A1        2.06122   0.00074   0.00000   0.00412   0.00419   2.06540
    A2        2.12514  -0.00143   0.00000  -0.00750  -0.00772   2.11742
    A3        2.07297   0.00064   0.00000   0.00303   0.00314   2.07611
    A4        2.07071  -0.00080   0.00000  -0.00660  -0.00658   2.06414
    A5        2.10634   0.00137   0.00000   0.01200   0.01184   2.11818
    A6        2.08066  -0.00053   0.00000  -0.00514  -0.00505   2.07561
    A7        2.01288   0.00017   0.00000   0.00211   0.00208   2.01496
    A8        2.09077  -0.00023   0.00000  -0.00200  -0.00182   2.08895
    A9        1.60493  -0.00009   0.00000  -0.01590  -0.01590   1.58903
   A10        2.09583  -0.00003   0.00000   0.00011   0.00006   2.09589
   A11        1.58089  -0.00023   0.00000   0.00760   0.00796   1.58886
   A12        1.89751   0.00053   0.00000   0.00768   0.00707   1.90458
   A13        1.38049   0.00017   0.00000  -0.00017  -0.00050   1.37999
   A14        2.09134   0.00007   0.00000   0.00427   0.00431   2.09565
   A15        2.09913   0.00011   0.00000  -0.00761  -0.00743   2.09169
   A16        1.90492  -0.00054   0.00000  -0.00143  -0.00224   1.90268
   A17        2.01546  -0.00013   0.00000  -0.00191  -0.00206   2.01339
   A18        1.60150   0.00034   0.00000  -0.00186  -0.00142   1.60008
   A19        1.56107   0.00010   0.00000   0.01603   0.01613   1.57719
   A20        1.36475   0.00000   0.00000   0.00979   0.00912   1.37387
   A21        1.77730   0.00021   0.00000  -0.00680  -0.00669   1.77061
   A22        2.10956   0.00002   0.00000  -0.00191  -0.00196   2.10759
   A23        2.09006  -0.00005   0.00000   0.00382   0.00387   2.09393
   A24        1.49552  -0.00041   0.00000  -0.00605  -0.00632   1.48919
   A25        1.80204   0.00018   0.00000   0.00707   0.00710   1.80914
   A26        2.00530   0.00004   0.00000   0.00031   0.00034   2.00564
   A27        1.48660   0.00029   0.00000  -0.00983  -0.00991   1.47668
   A28        1.74763   0.00026   0.00000   0.01697   0.01714   1.76477
   A29        2.10330   0.00003   0.00000  -0.00828  -0.00836   2.09494
   A30        2.10420  -0.00009   0.00000   0.00293   0.00281   2.10701
   A31        1.81331  -0.00006   0.00000  -0.00181  -0.00181   1.81150
   A32        1.48271   0.00009   0.00000   0.00712   0.00667   1.48938
   A33        2.00970  -0.00006   0.00000  -0.00307  -0.00304   2.00666
   A34        1.44074   0.00007   0.00000   0.01839   0.01823   1.45897
    D1        0.00775   0.00023   0.00000  -0.00652  -0.00655   0.00120
    D2       -2.89144   0.00012   0.00000  -0.00699  -0.00679  -2.89823
    D3        2.91341   0.00007   0.00000  -0.00774  -0.00795   2.90546
    D4        0.01422  -0.00005   0.00000  -0.00821  -0.00819   0.00603
    D5       -1.04081   0.00051   0.00000   0.00861   0.00896  -1.03185
    D6        0.56569   0.00015   0.00000  -0.00313  -0.00301   0.56268
    D7       -3.01165   0.00015   0.00000   0.00284   0.00307  -3.00858
    D8        1.86331   0.00035   0.00000   0.00752   0.00768   1.87099
    D9       -2.81337  -0.00000   0.00000  -0.00423  -0.00429  -2.81766
   D10       -0.10753  -0.00000   0.00000   0.00175   0.00179  -0.10574
   D11        1.03861   0.00015   0.00000  -0.00302  -0.00344   1.03516
   D12        3.00836   0.00027   0.00000   0.00320   0.00277   3.01112
   D13       -0.53393  -0.00008   0.00000  -0.02194  -0.02205  -0.55597
   D14       -1.85922   0.00007   0.00000  -0.00331  -0.00349  -1.86272
   D15        0.11053   0.00019   0.00000   0.00291   0.00272   0.11325
   D16        2.85143  -0.00016   0.00000  -0.02223  -0.02209   2.82934
   D17       -1.95652   0.00026   0.00000  -0.01507  -0.01510  -1.97162
   D18        1.61258   0.00048   0.00000  -0.01566  -0.01592   1.59667
   D19       -0.35838  -0.00003   0.00000  -0.01409  -0.01376  -0.37213
   D20        2.75063  -0.00013   0.00000  -0.04055  -0.04032   2.71030
   D21        0.03963  -0.00021   0.00000  -0.02622  -0.02635   0.01328
   D22       -1.72303  -0.00003   0.00000  -0.04174  -0.04149  -1.76452
   D23        0.05694   0.00005   0.00000  -0.04163  -0.04165   0.01529
   D24       -2.65406  -0.00003   0.00000  -0.02730  -0.02767  -2.68173
   D25        1.86647   0.00015   0.00000  -0.04281  -0.04281   1.82365
   D26       -1.72401   0.00000   0.00000  -0.05626  -0.05637  -1.78037
   D27        1.84818  -0.00008   0.00000  -0.04194  -0.04239   1.80579
   D28        0.08552   0.00010   0.00000  -0.05745  -0.05753   0.02799
   D29        2.95424  -0.00004   0.00000   0.04045   0.04041   2.99465
   D30        0.84837   0.00002   0.00000   0.04385   0.04384   0.89222
   D31       -1.15140   0.00007   0.00000   0.04471   0.04476  -1.10663
   D32       -1.31539   0.00012   0.00000   0.04244   0.04233  -1.27305
   D33        2.86193   0.00018   0.00000   0.04584   0.04576   2.90770
   D34        0.86216   0.00023   0.00000   0.04670   0.04669   0.90885
   D35        0.81718   0.00011   0.00000   0.04738   0.04735   0.86453
   D36       -1.28868   0.00017   0.00000   0.05078   0.05078  -1.23791
   D37        2.99473   0.00022   0.00000   0.05164   0.05170   3.04643
   D38        0.80608   0.00019   0.00000   0.04428   0.04437   0.85045
   D39       -1.55116   0.00042   0.00000  -0.02250  -0.02236  -1.57352
   D40        2.00318   0.00030   0.00000  -0.01031  -0.01061   1.99258
   D41        0.40301  -0.00013   0.00000  -0.01588  -0.01667   0.38634
   D42       -0.97249   0.00037   0.00000   0.05924   0.05916  -0.91333
   D43        3.12670   0.00025   0.00000   0.06181   0.06171  -3.09478
   D44        1.12508   0.00029   0.00000   0.06336   0.06333   1.18841
   D45        1.16563   0.00045   0.00000   0.06272   0.06266   1.22830
   D46       -1.01836   0.00033   0.00000   0.06529   0.06521  -0.95315
   D47       -3.01998   0.00037   0.00000   0.06684   0.06683  -2.95315
   D48       -3.10218   0.00032   0.00000   0.06128   0.06110  -3.04107
   D49        0.99701   0.00020   0.00000   0.06384   0.06365   1.06066
   D50       -1.00461   0.00025   0.00000   0.06539   0.06528  -0.93933
   D51       -0.95578   0.00026   0.00000   0.06232   0.06226  -0.89353
   D52       -2.12115   0.00005   0.00000  -0.00271  -0.00236  -2.12351
   D53       -0.35463   0.00006   0.00000  -0.01431  -0.01397  -0.36860
   D54        1.43632   0.00007   0.00000  -0.00928  -0.00903   1.42729
   D55        2.12417   0.00025   0.00000   0.00783   0.00704   2.13121
   D56        0.39984  -0.00010   0.00000  -0.01604  -0.01684   0.38300
   D57       -1.39775  -0.00007   0.00000  -0.01727  -0.01785  -1.41560
         Item               Value     Threshold  Converged?
 Maximum Force            0.001426     0.000450     NO 
 RMS     Force            0.000339     0.000300     NO 
 Maximum Displacement     0.098639     0.001800     NO 
 RMS     Displacement     0.027101     0.001200     NO 
 Predicted change in Energy=-1.733093D-04
 GradGradGradGradGradGradGradGradGradGradGradGradGradGradGradGradGradGrad

 Leave Link  103 at Mon Oct  6 14:26:41 2025, MaxMem=   104857600 cpu:               0.0 elap:               0.0
 (Enter /home/zhouoh/g16/l202.exe)
                          Input orientation:                          
 ---------------------------------------------------------------------
 Center     Atomic      Atomic             Coordinates (Angstroms)
 Number     Number       Type             X           Y           Z
 ---------------------------------------------------------------------
      1          6           0       -1.292994    0.698386    0.306125
      2          6           0       -1.292326   -0.703417    0.297245
      3          1           0       -1.817025    1.207713    1.107000
      4          1           0       -1.817267   -1.222225    1.091653
      5          6           0        1.540831    0.687641    0.215244
      6          1           0        2.042376    1.208776   -0.589552
      7          1           0        1.439301    1.243149    1.135440
      8          6           0        1.532804   -0.689580    0.235638
      9          1           0        1.410728   -1.216265    1.170575
     10          1           0        2.037704   -1.242510   -0.545127
     11          6           0       -0.437383    1.417265   -0.490602
     12          1           0       -0.133126    1.039879   -1.456026
     13          1           0       -0.368309    2.491967   -0.378545
     14          6           0       -0.431498   -1.412356   -0.503089
     15          1           0       -0.363621   -2.488429   -0.406121
     16          1           0       -0.117194   -1.019966   -1.458863
 ---------------------------------------------------------------------
                    Distance matrix (angstroms):
                    1          2          3          4          5
     1  C    0.000000
     2  C    1.401832   0.000000
     3  H    1.084169   2.140895   0.000000
     4  H    2.140249   1.084348   2.429986   0.000000
     5  C    2.835303   3.157300   3.512962   3.961377   0.000000
     6  H    3.491050   3.945013   4.215835   4.861385   1.082047
     7  H    2.906883   3.457381   3.256643   4.084756   1.079657
     8  C    3.149056   2.825836   3.947195   3.498493   1.377395
     9  H    3.423927   2.886558   4.037090   3.228966   2.134114
    10  H    3.947817   3.476968   4.857165   4.188110   2.133197
    11  C    1.372455   2.418455   2.121240   3.372614   2.223488
    12  H    2.137075   2.730711   3.071284   3.800542   2.391515
    13  H    2.130903   3.394257   2.440272   4.249257   2.693139
    14  C    2.419140   1.372644   3.372956   2.121252   2.969187
    15  H    3.395117   2.131544   4.250103   2.441247   3.755056
    16  H    2.729547   2.136599   3.799426   3.071856   2.909915
                    6          7          8          9         10
     6  H    0.000000
     7  H    1.827697   0.000000
     8  C    2.131750   2.133970   0.000000
     9  H    3.062328   2.459831   1.080003   0.000000
    10  H    2.451694   3.059558   1.081781   1.826861   0.000000
    11  C    2.490474   2.489231   2.974534   3.620843   3.633652
    12  H    2.347788   3.038016   2.937359   3.791135   3.278954
    13  H    2.739070   2.668174   3.756820   4.394966   4.445556
    14  C    3.605255   3.638184   2.219596   2.496678   2.475393
    15  H    4.414951   4.421721   2.691494   2.693081   2.708874
    16  H    3.222846   3.778198   2.388092   3.047462   2.351175
                   11         12         13         14         15
    11  C    0.000000
    12  H    1.080294   0.000000
    13  H    1.082734   1.823414   0.000000
    14  C    2.829655   2.647748   3.906820   0.000000
    15  H    3.907303   3.688412   4.980474   1.082562   0.000000
    16  H    2.641997   2.059909   3.682910   1.079936   1.823561
                   16
    16  H    0.000000
 Stoichiometry    C6H10
 Framework group  C1[X(C6H10)]
 Deg. of freedom    42
 Full point group                 C1      NOp   1
 RotChk:  IX=3 Diff= 9.32D-02
 Largest Abelian subgroup         C1      NOp   1
 Largest concise Abelian subgroup C1      NOp   1
                         Standard orientation:                         
 ---------------------------------------------------------------------
 Center     Atomic      Atomic             Coordinates (Angstroms)
 Number     Number       Type             X           Y           Z
 ---------------------------------------------------------------------
      1          6           0       -1.295729   -0.698058   -0.297744
      2          6           0       -1.294202    0.703750   -0.289789
      3          1           0       -1.824492   -1.207604   -1.095362
      4          1           0       -1.823247    1.222343   -1.081613
      5          6           0        1.538563   -0.688898   -0.222604
      6          1           0        2.044268   -1.209799    0.579737
      7          1           0        1.431605   -1.244950   -1.141857
      8          6           0        1.531218    0.688313   -0.243859
      9          1           0        1.404257    1.214457   -1.178450
     10          1           0        2.040763    1.241461    0.533727
     11          6           0       -0.436121   -1.416912    0.494693
     12          1           0       -0.126291   -1.039071    1.458165
     13          1           0       -0.368292   -2.491727    0.382961
     14          6           0       -0.428535    1.412713    0.505286
     15          1           0       -0.360577    2.488682    0.407235
     16          1           0       -0.109155    1.020766    1.459559
 ---------------------------------------------------------------------
 Rotational constants (GHZ):           4.4114806           3.5999596           2.3437574
 Leave Link  202 at Mon Oct  6 14:26:41 2025, MaxMem=   104857600 cpu:               0.0 elap:               0.0
 (Enter /home/zhouoh/g16/l301.exe)
 Standard basis: STO-3G (5D, 7F)
 Ernie: Thresh=  0.10000D-02 Tol=  0.10000D-05 Strict=F.
 There are    40 symmetry adapted cartesian basis functions of A   symmetry.
 There are    40 symmetry adapted basis functions of A   symmetry.
    40 basis functions,   120 primitive gaussians,    40 cartesian basis functions
    23 alpha electrons       23 beta electrons
       nuclear repulsion energy       226.7072322287 Hartrees.
 IExCor=    0 DFT=F Ex=HF Corr=None ExCW=0 ScaHFX=  1.000000
 ScaDFX=  1.000000  1.000000  1.000000  1.000000 ScalE2=  1.000000  1.000000
 IRadAn=      5 IRanWt=     -1 IRanGd=            0 ICorTp=0 IEmpDi=  4
 NAtoms=   16 NActive=   16 NUniq=   16 SFac= 1.00D+00 NAtFMM=   60 NAOKFM=F Big=F
 Integral buffers will be    131072 words long.
 Raffenetti 1 integral format.
 Two-electron integral symmetry is turned on.
 Leave Link  301 at Mon Oct  6 14:26:41 2025, MaxMem=   104857600 cpu:               0.0 elap:               0.0
 (Enter /home/zhouoh/g16/l402.exe)
 External calculation of energy and first derivatives.
 Running external command "python ../GauUMA_client.py R"
         input file       "/home/zhouoh/scratch/Gau-2816605.EIn"
         output file      "/home/zhouoh/scratch/Gau-2816605.EOu"
         message file     "/home/zhouoh/scratch/Gau-2816605.EMs"
         fchk file        "/home/zhouoh/scratch/Gau-2816605.EFC"
         mat. el file     "/home/zhouoh/scratch/Gau-2816605.EUF"
Sent job to server.
Received result from server:
SCF Done:  E(UMA) =  -234.493868730455     A.U.
 Recovered energy= -234.493868730     dipole=      0.000000000000      0.000000000000      0.000000000000
 Energy=    -234.493869     NIter=   0.
 Dipole moment=       0.000000       0.000000       0.000000
 Leave Link  402 at Mon Oct  6 14:26:41 2025, MaxMem=   104857600 cpu:               0.0 elap:               0.1
 (Enter /home/zhouoh/g16/l716.exe)
 Dipole        = 0.00000000D+00 0.00000000D+00 0.00000000D+00
 ***** Axes restored to original set *****
 -------------------------------------------------------------------
 Center     Atomic                   Forces (Hartrees/Bohr)
 Number     Number              X              Y              Z
 -------------------------------------------------------------------
      1        6           0.000000303    0.000056413   -0.000044892
      2        6          -0.000006267   -0.000063564    0.000097059
      3        1          -0.000008695   -0.000016785    0.000014321
      4        1          -0.000002002   -0.000010689   -0.000010585
      5        6          -0.000097715    0.000005331   -0.000081157
      6        1           0.000071337    0.000031602    0.000029412
      7        1           0.000014531   -0.000060198    0.000032548
      8        6          -0.000098777    0.000055342    0.000237060
      9        1           0.000049696   -0.000034773   -0.000057005
     10        1          -0.000061901    0.000061311   -0.000142867
     11        6           0.000076450   -0.000063291   -0.000050241
     12        1          -0.000032634   -0.000052663   -0.000002029
     13        1           0.000027765    0.000011595   -0.000007850
     14        6           0.000009485    0.000081625    0.000021696
     15        1          -0.000007138    0.000007597    0.000036537
     16        1           0.000065560   -0.000008853   -0.000072008
 -------------------------------------------------------------------
 Cartesian Forces:  Max     0.000237060 RMS     0.000062393
 Leave Link  716 at Mon Oct  6 14:26:41 2025, MaxMem=   104857600 cpu:               0.0 elap:               0.0
 (Enter /home/zhouoh/g16/l103.exe)

 GradGradGradGradGradGradGradGradGradGradGradGradGradGradGradGradGradGrad
 Berny optimization.
 FormGI is forming the generalized inverse of G from B-inverse, IUseBI=4.
 Internal  Forces:  Max     0.000096476 RMS     0.000026985
 Search for a saddle point.
 Step number   9 out of a maximum of  100
 All quantities printed in internal units (Hartrees-Bohrs-Radians)
 Swapping is turned off.
 Update second derivatives using D2CorX and points    1    4    5    6    7
                                                      8    9
 ITU=  0  0  0  0  0  0  0  0  0
     Eigenvalues ---   -0.03885   0.00115   0.00604   0.00721   0.00901
     Eigenvalues ---    0.01182   0.01376   0.01672   0.01771   0.01894
     Eigenvalues ---    0.02100   0.02266   0.02380   0.02455   0.02684
     Eigenvalues ---    0.03141   0.03896   0.04099   0.04635   0.04668
     Eigenvalues ---    0.05129   0.05233   0.05782   0.06104   0.09140
     Eigenvalues ---    0.11722   0.11898   0.14159   0.30097   0.30790
     Eigenvalues ---    0.32552   0.33499   0.33996   0.34820   0.34869
     Eigenvalues ---    0.35399   0.35498   0.35842   0.36072   0.43229
     Eigenvalues ---    0.43741   0.48887
 Eigenvectors required to have negative eigenvalues:
                          R9        R13       D20       D24       D6
   1                    0.55836   0.53638   0.16486  -0.15766  -0.15477
                          D13       D9        D16       A27       A24
   1                    0.15168  -0.13811   0.13308   0.13190  -0.12392
 RFO step:  Lambda0=1.205423518D-07 Lambda=-1.06091624D-05.
 Linear search not attempted -- option 19 set.
 Iteration  1 RMS(Cart)=  0.00814704 RMS(Int)=  0.00005943
 Iteration  2 RMS(Cart)=  0.00005523 RMS(Int)=  0.00002144
 Iteration  3 RMS(Cart)=  0.00000000 RMS(Int)=  0.00002144
 ITry= 1 IFail=0 DXMaxC= 3.04D-02 DCOld= 1.00D+10 DXMaxT= 3.00D-01 DXLimC= 3.00D+00 Rises=F
 Variable       Old X    -DE/DX   Delta X   Delta X   Delta X     New X
                                 (Linear)    (Quad)   (Total)
    R1        2.64908   0.00001   0.00000   0.00053   0.00054   2.64962
    R2        2.04878   0.00001   0.00000   0.00001   0.00001   2.04880
    R3        2.59356   0.00002   0.00000  -0.00021  -0.00020   2.59336
    R4        2.04912  -0.00000   0.00000  -0.00005  -0.00005   2.04907
    R5        2.59392  -0.00002   0.00000  -0.00051  -0.00050   2.59342
    R6        2.04477   0.00001   0.00000   0.00011   0.00011   2.04488
    R7        2.04026  -0.00000   0.00000   0.00019   0.00019   2.04044
    R8        2.60290  -0.00010   0.00000  -0.00062  -0.00064   2.60226
    R9        4.20178  -0.00005   0.00000  -0.00597  -0.00600   4.19579
   R10        4.43668   0.00001   0.00000   0.00768   0.00770   4.44437
   R11        2.04091  -0.00004   0.00000  -0.00041  -0.00041   2.04050
   R12        2.04427   0.00005   0.00000   0.00024   0.00025   2.04452
   R13        4.19443  -0.00004   0.00000   0.00828   0.00826   4.20269
   R14        4.44308  -0.00004   0.00000  -0.01310  -0.01309   4.42999
   R15        2.04146  -0.00000   0.00000   0.00003   0.00004   2.04150
   R16        2.04607   0.00001   0.00000   0.00003   0.00003   2.04610
   R17        2.04575  -0.00000   0.00000   0.00001   0.00001   2.04575
   R18        2.04078   0.00008   0.00000   0.00020   0.00021   2.04099
    A1        2.06540  -0.00002   0.00000  -0.00010  -0.00010   2.06530
    A2        2.11742   0.00000   0.00000  -0.00057  -0.00058   2.11684
    A3        2.07611   0.00002   0.00000   0.00047   0.00048   2.07659
    A4        2.06414   0.00005   0.00000   0.00060   0.00060   2.06474
    A5        2.11818  -0.00007   0.00000  -0.00050  -0.00052   2.11766
    A6        2.07561   0.00003   0.00000   0.00021   0.00022   2.07584
    A7        2.01496   0.00001   0.00000  -0.00051  -0.00052   2.01444
    A8        2.08895  -0.00001   0.00000   0.00087   0.00089   2.08983
    A9        1.58903   0.00001   0.00000  -0.00283  -0.00283   1.58620
   A10        2.09589  -0.00001   0.00000  -0.00153  -0.00153   2.09436
   A11        1.58886   0.00004   0.00000   0.00677   0.00681   1.59567
   A12        1.90458  -0.00002   0.00000  -0.00116  -0.00122   1.90335
   A13        1.37999  -0.00002   0.00000  -0.00317  -0.00322   1.37677
   A14        2.09565   0.00006   0.00000   0.00233   0.00233   2.09797
   A15        2.09169  -0.00007   0.00000  -0.00154  -0.00151   2.09018
   A16        1.90268   0.00002   0.00000   0.00095   0.00088   1.90356
   A17        2.01339   0.00001   0.00000   0.00125   0.00123   2.01463
   A18        1.60008  -0.00002   0.00000  -0.00550  -0.00546   1.59463
   A19        1.57719  -0.00001   0.00000  -0.00024  -0.00024   1.57696
   A20        1.37387   0.00002   0.00000   0.00611   0.00607   1.37994
   A21        1.77061   0.00000   0.00000  -0.00094  -0.00093   1.76968
   A22        2.10759   0.00000   0.00000  -0.00082  -0.00082   2.10678
   A23        2.09393  -0.00001   0.00000   0.00042   0.00042   2.09435
   A24        1.48919   0.00001   0.00000   0.00317   0.00314   1.49233
   A25        1.80914  -0.00002   0.00000  -0.00176  -0.00175   1.80739
   A26        2.00564   0.00000   0.00000   0.00025   0.00025   2.00589
   A27        1.47668  -0.00001   0.00000  -0.00910  -0.00911   1.46758
   A28        1.76477   0.00001   0.00000   0.00051   0.00052   1.76530
   A29        2.09494  -0.00002   0.00000  -0.00017  -0.00017   2.09477
   A30        2.10701   0.00001   0.00000   0.00130   0.00129   2.10830
   A31        1.81150  -0.00001   0.00000  -0.00015  -0.00015   1.81135
   A32        1.48938   0.00001   0.00000  -0.00374  -0.00377   1.48561
   A33        2.00666   0.00000   0.00000   0.00024   0.00024   2.00690
   A34        1.45897  -0.00001   0.00000   0.00979   0.00979   1.46876
    D1        0.00120  -0.00000   0.00000  -0.00108  -0.00108   0.00012
    D2       -2.89823  -0.00002   0.00000  -0.00256  -0.00255  -2.90078
    D3        2.90546  -0.00000   0.00000  -0.00195  -0.00196   2.90350
    D4        0.00603  -0.00002   0.00000  -0.00344  -0.00344   0.00259
    D5       -1.03185  -0.00002   0.00000  -0.00392  -0.00388  -1.03573
    D6        0.56268   0.00000   0.00000  -0.00091  -0.00091   0.56177
    D7       -3.00858   0.00001   0.00000  -0.00126  -0.00123  -3.00981
    D8        1.87099  -0.00002   0.00000  -0.00488  -0.00486   1.86614
    D9       -2.81766  -0.00000   0.00000  -0.00187  -0.00188  -2.81954
   D10       -0.10574   0.00000   0.00000  -0.00221  -0.00220  -0.10794
   D11        1.03516   0.00002   0.00000  -0.00188  -0.00191   1.03325
   D12        3.01112   0.00001   0.00000  -0.00178  -0.00180   3.00932
   D13       -0.55597   0.00001   0.00000   0.00196   0.00196  -0.55401
   D14       -1.86272   0.00001   0.00000  -0.00343  -0.00345  -1.86616
   D15        0.11325  -0.00001   0.00000  -0.00333  -0.00334   0.10991
   D16        2.82934  -0.00001   0.00000   0.00041   0.00042   2.82976
   D17       -1.97162  -0.00005   0.00000  -0.01117  -0.01116  -1.98278
   D18        1.59667  -0.00003   0.00000  -0.00795  -0.00797   1.58869
   D19       -0.37213  -0.00000   0.00000  -0.00503  -0.00498  -0.37712
   D20        2.71030  -0.00003   0.00000  -0.00918  -0.00915   2.70115
   D21        0.01328  -0.00003   0.00000  -0.01470  -0.01469  -0.00141
   D22       -1.76452  -0.00001   0.00000  -0.01430  -0.01426  -1.77879
   D23        0.01529  -0.00001   0.00000  -0.00610  -0.00610   0.00919
   D24       -2.68173  -0.00001   0.00000  -0.01161  -0.01164  -2.69337
   D25        1.82365   0.00001   0.00000  -0.01122  -0.01121   1.81244
   D26       -1.78037  -0.00004   0.00000  -0.01307  -0.01307  -1.79344
   D27        1.80579  -0.00004   0.00000  -0.01858  -0.01861   1.78718
   D28        0.02799  -0.00001   0.00000  -0.01818  -0.01818   0.00981
   D29        2.99465   0.00002   0.00000   0.01678   0.01678   3.01144
   D30        0.89222   0.00001   0.00000   0.01704   0.01706   0.90927
   D31       -1.10663   0.00001   0.00000   0.01610   0.01612  -1.09052
   D32       -1.27305   0.00003   0.00000   0.01638   0.01637  -1.25668
   D33        2.90770   0.00003   0.00000   0.01665   0.01664   2.92434
   D34        0.90885   0.00002   0.00000   0.01570   0.01570   0.92455
   D35        0.86453   0.00003   0.00000   0.01730   0.01730   0.88183
   D36       -1.23791   0.00002   0.00000   0.01757   0.01757  -1.22034
   D37        3.04643   0.00002   0.00000   0.01662   0.01663   3.06306
   D38        0.85045   0.00000   0.00000   0.01409   0.01407   0.86453
   D39       -1.57352   0.00000   0.00000  -0.00519  -0.00516  -1.57868
   D40        1.99258  -0.00001   0.00000  -0.01076  -0.01077   1.98181
   D41        0.38634   0.00001   0.00000  -0.00459  -0.00464   0.38170
   D42       -0.91333  -0.00005   0.00000   0.01530   0.01531  -0.89802
   D43       -3.09478  -0.00003   0.00000   0.01533   0.01533  -3.07945
   D44        1.18841  -0.00003   0.00000   0.01596   0.01595   1.20437
   D45        1.22830   0.00001   0.00000   0.01572   0.01573   1.24402
   D46       -0.95315   0.00003   0.00000   0.01575   0.01575  -0.93740
   D47       -2.95315   0.00003   0.00000   0.01638   0.01638  -2.93677
   D48       -3.04107   0.00002   0.00000   0.01685   0.01685  -3.02423
   D49        1.06066   0.00005   0.00000   0.01688   0.01687   1.07753
   D50       -0.93933   0.00004   0.00000   0.01751   0.01749  -0.92184
   D51       -0.89353   0.00004   0.00000   0.01306   0.01309  -0.88044
   D52       -2.12351  -0.00002   0.00000  -0.00576  -0.00572  -2.12923
   D53       -0.36860  -0.00001   0.00000  -0.00501  -0.00497  -0.37358
   D54        1.42729  -0.00002   0.00000  -0.00549  -0.00547   1.42183
   D55        2.13121   0.00002   0.00000  -0.00594  -0.00599   2.12522
   D56        0.38300   0.00000   0.00000  -0.00437  -0.00441   0.37859
   D57       -1.41560   0.00001   0.00000  -0.00249  -0.00252  -1.41812
         Item               Value     Threshold  Converged?
 Maximum Force            0.000096     0.000450     YES
 RMS     Force            0.000027     0.000300     YES
 Maximum Displacement     0.030443     0.001800     NO 
 RMS     Displacement     0.008148     0.001200     NO 
 Predicted change in Energy=-5.288603D-06
 GradGradGradGradGradGradGradGradGradGradGradGradGradGradGradGradGradGrad

 Leave Link  103 at Mon Oct  6 14:26:41 2025, MaxMem=   104857600 cpu:               0.0 elap:               0.0
 (Enter /home/zhouoh/g16/l202.exe)
                          Input orientation:                          
 ---------------------------------------------------------------------
 Center     Atomic      Atomic             Coordinates (Angstroms)
 Number     Number       Type             X           Y           Z
 ---------------------------------------------------------------------
      1          6           0       -1.292121    0.699981    0.303711
      2          6           0       -1.293400   -0.702134    0.299998
      3          1           0       -1.815707    1.212894    1.102595
      4          1           0       -1.818252   -1.217846    1.096444
      5          6           0        1.538149    0.689661    0.222393
      6          1           0        2.041807    1.221177   -0.574334
      7          1           0        1.431848    1.234801    1.148350
      8          6           0        1.535759   -0.687374    0.229983
      9          1           0        1.419282   -1.225295    1.158966
     10          1           0        2.036243   -1.229616   -0.561237
     11          6           0       -0.434331    1.413988   -0.494869
     12          1           0       -0.129455    1.030996   -1.457909
     13          1           0       -0.363959    2.489172   -0.388231
     14          6           0       -0.435249   -1.414454   -0.499751
     15          1           0       -0.367123   -2.490080   -0.398068
     16          1           0       -0.120493   -1.025844   -1.457046
 ---------------------------------------------------------------------
                    Distance matrix (angstroms):
                    1          2          3          4          5
     1  C    0.000000
     2  C    1.402120   0.000000
     3  H    1.084176   2.141097   0.000000
     4  H    2.140864   1.084322   2.430749   0.000000
     5  C    2.831457   3.156071   3.506691   3.958280   0.000000
     6  H    3.486787   3.948060   4.206254   4.862138   1.082106
     7  H    2.901630   3.449404   3.247951   4.072017   1.079757
     8  C    3.150729   2.830064   3.950291   3.504504   1.377058
     9  H    3.433636   2.893123   4.051308   3.238146   2.135031
    10  H    3.943284   3.479438   4.855071   4.195853   2.132088
    11  C    1.372348   2.418219   2.121445   3.372545   2.220314
    12  H    2.136508   2.729238   3.071272   3.799216   2.391826
    13  H    2.131074   3.394400   2.441111   4.249849   2.688702
    14  C    2.418805   1.372378   3.372853   2.121130   2.973734
    15  H    3.394790   2.131205   4.249988   2.440885   3.758429
    16  H    2.729734   2.137219   3.799666   3.072387   2.917973
                    6          7          8          9         10
     6  H    0.000000
     7  H    1.827533   0.000000
     8  C    2.132036   2.132827   0.000000
     9  H    3.062203   2.460151   1.079784   0.000000
    10  H    2.450834   3.059630   1.081915   1.827500   0.000000
    11  C    2.484905   2.492970   2.970251   3.624481   3.618948
    12  H    2.351862   3.044962   2.928262   3.786485   3.256477
    13  H    2.725832   2.675716   3.752541   4.401254   4.429480
    14  C    3.617723   3.636047   2.223967   2.495277   2.479157
    15  H    4.428028   4.416157   2.695395   2.686126   2.718742
    16  H    3.240960   3.782640   2.388263   3.042072   2.344250
                   11         12         13         14         15
    11  C    0.000000
    12  H    1.080314   0.000000
    13  H    1.082749   1.823590   0.000000
    14  C    2.828446   2.644202   3.905870   0.000000
    15  H    3.905846   3.684796   4.979263   1.082567   0.000000
    16  H    2.641412   2.056860   3.681980   1.080048   1.823800
                   16
    16  H    0.000000
 Stoichiometry    C6H10
 Framework group  C1[X(C6H10)]
 Deg. of freedom    42
 Full point group                 C1      NOp   1
 RotChk:  IX=3 Diff= 1.27D-02
 Largest Abelian subgroup         C1      NOp   1
 Largest concise Abelian subgroup C1      NOp   1
                         Standard orientation:                         
 ---------------------------------------------------------------------
 Center     Atomic      Atomic             Coordinates (Angstroms)
 Number     Number       Type             X           Y           Z
 ---------------------------------------------------------------------
      1          6           0       -1.288368   -0.711031   -0.295630
      2          6           0       -1.301354    0.691026   -0.292925
      3          1           0       -1.811797   -1.228916   -1.091404
      4          1           0       -1.834641    1.201722   -1.086996
      5          6           0        1.542102   -0.676988   -0.229072
      6          1           0        2.054329   -1.203663    0.565403
      7          1           0        1.435546   -1.223706   -1.154068
      8          6           0        1.528155    0.699973   -0.237645
      9          1           0        1.402348    1.236190   -1.166396
     10          1           0        2.028198    1.246987    0.550564
     11          6           0       -0.420490   -1.417230    0.498984
     12          1           0       -0.113820   -1.030964    1.460145
     13          1           0       -0.341684   -2.491870    0.392758
     14          6           0       -0.445040    1.411109    0.501827
     15          1           0       -0.386444    2.487188    0.399012
     16          1           0       -0.122066    1.025877    1.457749
 ---------------------------------------------------------------------
 Rotational constants (GHZ):           4.4125697           3.5989666           2.3441099
 Leave Link  202 at Mon Oct  6 14:26:41 2025, MaxMem=   104857600 cpu:               0.0 elap:               0.0
 (Enter /home/zhouoh/g16/l301.exe)
 Standard basis: STO-3G (5D, 7F)
 Ernie: Thresh=  0.10000D-02 Tol=  0.10000D-05 Strict=F.
 There are    40 symmetry adapted cartesian basis functions of A   symmetry.
 There are    40 symmetry adapted basis functions of A   symmetry.
    40 basis functions,   120 primitive gaussians,    40 cartesian basis functions
    23 alpha electrons       23 beta electrons
       nuclear repulsion energy       226.7131632928 Hartrees.
 IExCor=    0 DFT=F Ex=HF Corr=None ExCW=0 ScaHFX=  1.000000
 ScaDFX=  1.000000  1.000000  1.000000  1.000000 ScalE2=  1.000000  1.000000
 IRadAn=      5 IRanWt=     -1 IRanGd=            0 ICorTp=0 IEmpDi=  4
 NAtoms=   16 NActive=   16 NUniq=   16 SFac= 1.00D+00 NAtFMM=   60 NAOKFM=F Big=F
 Integral buffers will be    131072 words long.
 Raffenetti 1 integral format.
 Two-electron integral symmetry is turned on.
 Leave Link  301 at Mon Oct  6 14:26:41 2025, MaxMem=   104857600 cpu:               0.0 elap:               0.0
 (Enter /home/zhouoh/g16/l402.exe)
 External calculation of energy and first derivatives.
 Running external command "python ../GauUMA_client.py R"
         input file       "/home/zhouoh/scratch/Gau-2816605.EIn"
         output file      "/home/zhouoh/scratch/Gau-2816605.EOu"
         message file     "/home/zhouoh/scratch/Gau-2816605.EMs"
         fchk file        "/home/zhouoh/scratch/Gau-2816605.EFC"
         mat. el file     "/home/zhouoh/scratch/Gau-2816605.EUF"
Sent job to server.
Received result from server:
SCF Done:  E(UMA) =  -234.49387163496556     A.U.
 Recovered energy= -234.493871635     dipole=      0.000000000000      0.000000000000      0.000000000000
 Energy=    -234.493872     NIter=   0.
 Dipole moment=       0.000000       0.000000       0.000000
 Leave Link  402 at Mon Oct  6 14:26:41 2025, MaxMem=   104857600 cpu:               0.0 elap:               0.1
 (Enter /home/zhouoh/g16/l716.exe)
 Dipole        = 0.00000000D+00 0.00000000D+00 0.00000000D+00
 ***** Axes restored to original set *****
 -------------------------------------------------------------------
 Center     Atomic                   Forces (Hartrees/Bohr)
 Number     Number              X              Y              Z
 -------------------------------------------------------------------
      1        6          -0.000096025   -0.000017244    0.000097868
      2        6           0.000080720    0.000053847   -0.000154354
      3        1           0.000003457    0.000014281   -0.000006832
      4        1           0.000008145    0.000013739    0.000013466
      5        6           0.000058843   -0.000020076    0.000091775
      6        1          -0.000055178   -0.000055682   -0.000017696
      7        1          -0.000024865    0.000039394   -0.000019903
      8        6           0.000088838   -0.000049878   -0.000154325
      9        1           0.000009964    0.000002160    0.000029873
     10        1           0.000041731   -0.000025489    0.000078348
     11        6          -0.000062209    0.000086349   -0.000003035
     12        1           0.000044885    0.000026496    0.000030690
     13        1          -0.000021490    0.000000123   -0.000005382
     14        6          -0.000018918   -0.000046970    0.000025875
     15        1          -0.000003578   -0.000001431   -0.000018811
     16        1          -0.000054318   -0.000019620    0.000012445
 -------------------------------------------------------------------
 Cartesian Forces:  Max     0.000154354 RMS     0.000054131
 Leave Link  716 at Mon Oct  6 14:26:41 2025, MaxMem=   104857600 cpu:               0.0 elap:               0.0
 (Enter /home/zhouoh/g16/l103.exe)

 GradGradGradGradGradGradGradGradGradGradGradGradGradGradGradGradGradGrad
 Berny optimization.
 FormGI is forming the generalized inverse of G from B-inverse, IUseBI=4.
 Internal  Forces:  Max     0.000111535 RMS     0.000026202
 Search for a saddle point.
 Step number  10 out of a maximum of  100
 All quantities printed in internal units (Hartrees-Bohrs-Radians)
 Swapping is turned off.
 Update second derivatives using D2CorX and points    1    5    6    7    8
                                                      9   10
 ITU=  0  0  0  0  0  0  0  0  0  0
     Eigenvalues ---   -0.03870   0.00139   0.00602   0.00703   0.00906
     Eigenvalues ---    0.01175   0.01377   0.01677   0.01771   0.01894
     Eigenvalues ---    0.02098   0.02266   0.02382   0.02456   0.02685
     Eigenvalues ---    0.03152   0.03897   0.04116   0.04649   0.04670
     Eigenvalues ---    0.05137   0.05237   0.05796   0.06105   0.09143
     Eigenvalues ---    0.11722   0.11899   0.14291   0.30105   0.30791
     Eigenvalues ---    0.32554   0.33504   0.33995   0.34820   0.34869
     Eigenvalues ---    0.35399   0.35498   0.35842   0.36072   0.43240
     Eigenvalues ---    0.43748   0.48890
 Eigenvectors required to have negative eigenvalues:
                          R9        R13       D20       D24       D6
   1                    0.55677   0.53694   0.16355  -0.16056  -0.15546
                          D13       D9        D16       A27       A24
   1                    0.15231  -0.13832   0.13376   0.12975  -0.12360
 RFO step:  Lambda0=1.378507716D-07 Lambda=-2.07432975D-06.
 Linear search not attempted -- option 19 set.
 Iteration  1 RMS(Cart)=  0.00199421 RMS(Int)=  0.00000383
 Iteration  2 RMS(Cart)=  0.00000335 RMS(Int)=  0.00000131
 Iteration  3 RMS(Cart)=  0.00000000 RMS(Int)=  0.00000131
 ITry= 1 IFail=0 DXMaxC= 7.07D-03 DCOld= 1.00D+10 DXMaxT= 3.00D-01 DXLimC= 3.00D+00 Rises=F
 Variable       Old X    -DE/DX   Delta X   Delta X   Delta X     New X
                                 (Linear)    (Quad)   (Total)
    R1        2.64962   0.00001   0.00000  -0.00027  -0.00027   2.64935
    R2        2.04880  -0.00000   0.00000  -0.00002  -0.00002   2.04878
    R3        2.59336   0.00002   0.00000   0.00016   0.00016   2.59352
    R4        2.04907   0.00000   0.00000   0.00005   0.00005   2.04912
    R5        2.59342  -0.00000   0.00000   0.00023   0.00023   2.59365
    R6        2.04488  -0.00003   0.00000  -0.00011  -0.00011   2.04477
    R7        2.04044   0.00000   0.00000  -0.00007  -0.00007   2.04037
    R8        2.60226   0.00006   0.00000   0.00033   0.00032   2.60259
    R9        4.19579   0.00008   0.00000   0.00258   0.00258   4.19837
   R10        4.44437  -0.00002   0.00000  -0.00427  -0.00427   4.44011
   R11        2.04050   0.00002   0.00000   0.00017   0.00017   2.04067
   R12        2.04452  -0.00003   0.00000  -0.00008  -0.00008   2.04444
   R13        4.20269   0.00002   0.00000  -0.00393  -0.00393   4.19876
   R14        4.42999   0.00004   0.00000   0.00474   0.00474   4.43473
   R15        2.04150   0.00000   0.00000  -0.00006  -0.00006   2.04144
   R16        2.04610  -0.00000   0.00000  -0.00000  -0.00000   2.04610
   R17        2.04575   0.00000   0.00000  -0.00000  -0.00000   2.04575
   R18        2.04099  -0.00005   0.00000  -0.00003  -0.00003   2.04097
    A1        2.06530   0.00005   0.00000   0.00019   0.00019   2.06549
    A2        2.11684  -0.00006   0.00000  -0.00002  -0.00003   2.11681
    A3        2.07659   0.00002   0.00000  -0.00009  -0.00009   2.07650
    A4        2.06474  -0.00007   0.00000  -0.00055  -0.00055   2.06419
    A5        2.11766   0.00011   0.00000   0.00068   0.00068   2.11834
    A6        2.07584  -0.00004   0.00000  -0.00031  -0.00031   2.07553
    A7        2.01444   0.00000   0.00000   0.00035   0.00035   2.01479
    A8        2.08983  -0.00002   0.00000  -0.00059  -0.00058   2.08925
    A9        1.58620  -0.00001   0.00000   0.00006   0.00006   1.58625
   A10        2.09436   0.00002   0.00000   0.00083   0.00083   2.09519
   A11        1.59567  -0.00004   0.00000  -0.00214  -0.00214   1.59353
   A12        1.90335   0.00004   0.00000   0.00068   0.00068   1.90403
   A13        1.37677   0.00002   0.00000   0.00141   0.00141   1.37818
   A14        2.09797  -0.00004   0.00000  -0.00083  -0.00084   2.09714
   A15        2.09018   0.00005   0.00000   0.00029   0.00029   2.09047
   A16        1.90356  -0.00003   0.00000  -0.00033  -0.00033   1.90323
   A17        2.01463  -0.00001   0.00000  -0.00060  -0.00060   2.01402
   A18        1.59463   0.00003   0.00000   0.00206   0.00207   1.59669
   A19        1.57696   0.00000   0.00000   0.00097   0.00097   1.57793
   A20        1.37994  -0.00001   0.00000  -0.00197  -0.00198   1.37797
   A21        1.76968   0.00000   0.00000  -0.00003  -0.00003   1.76965
   A22        2.10678  -0.00001   0.00000   0.00027   0.00027   2.10704
   A23        2.09435   0.00001   0.00000   0.00003   0.00003   2.09438
   A24        1.49233  -0.00003   0.00000  -0.00177  -0.00177   1.49056
   A25        1.80739   0.00002   0.00000   0.00119   0.00119   1.80858
   A26        2.00589   0.00000   0.00000  -0.00007  -0.00007   2.00582
   A27        1.46758   0.00003   0.00000   0.00325   0.00325   1.47083
   A28        1.76530  -0.00001   0.00000   0.00039   0.00039   1.76568
   A29        2.09477   0.00002   0.00000  -0.00024  -0.00024   2.09454
   A30        2.10830  -0.00001   0.00000  -0.00038  -0.00038   2.10791
   A31        1.81135  -0.00000   0.00000  -0.00025  -0.00025   1.81110
   A32        1.48561   0.00001   0.00000   0.00203   0.00203   1.48765
   A33        2.00690  -0.00001   0.00000  -0.00024  -0.00024   2.00666
   A34        1.46876  -0.00000   0.00000  -0.00315  -0.00315   1.46561
    D1        0.00012   0.00000   0.00000  -0.00050  -0.00050  -0.00037
    D2       -2.90078   0.00001   0.00000   0.00040   0.00040  -2.90038
    D3        2.90350  -0.00000   0.00000  -0.00013  -0.00014   2.90336
    D4        0.00259   0.00001   0.00000   0.00076   0.00076   0.00336
    D5       -1.03573   0.00003   0.00000   0.00179   0.00179  -1.03395
    D6        0.56177  -0.00000   0.00000  -0.00027  -0.00027   0.56150
    D7       -3.00981  -0.00000   0.00000   0.00032   0.00032  -3.00949
    D8        1.86614   0.00003   0.00000   0.00219   0.00219   1.86832
    D9       -2.81954  -0.00001   0.00000   0.00013   0.00013  -2.81941
   D10       -0.10794  -0.00000   0.00000   0.00072   0.00072  -0.10722
   D11        1.03325  -0.00000   0.00000   0.00058   0.00058   1.03383
   D12        3.00932   0.00000   0.00000   0.00043   0.00043   3.00976
   D13       -0.55401  -0.00001   0.00000  -0.00198  -0.00198  -0.55599
   D14       -1.86616   0.00001   0.00000   0.00152   0.00152  -1.86465
   D15        0.10991   0.00001   0.00000   0.00137   0.00137   0.11128
   D16        2.82976   0.00000   0.00000  -0.00104  -0.00104   2.82872
   D17       -1.98278   0.00005   0.00000   0.00353   0.00353  -1.97924
   D18        1.58869   0.00004   0.00000   0.00189   0.00189   1.59058
   D19       -0.37712   0.00000   0.00000   0.00120   0.00120  -0.37592
   D20        2.70115   0.00001   0.00000   0.00181   0.00181   2.70296
   D21       -0.00141   0.00001   0.00000   0.00490   0.00490   0.00349
   D22       -1.77879   0.00001   0.00000   0.00377   0.00377  -1.77501
   D23        0.00919   0.00000   0.00000   0.00023   0.00023   0.00942
   D24       -2.69337   0.00001   0.00000   0.00332   0.00332  -2.69005
   D25        1.81244   0.00000   0.00000   0.00219   0.00219   1.81463
   D26       -1.79344   0.00001   0.00000   0.00205   0.00205  -1.79140
   D27        1.78718   0.00002   0.00000   0.00514   0.00514   1.79232
   D28        0.00981   0.00001   0.00000   0.00401   0.00401   0.01381
   D29        3.01144  -0.00002   0.00000  -0.00461  -0.00461   3.00683
   D30        0.90927  -0.00001   0.00000  -0.00455  -0.00455   0.90473
   D31       -1.09052  -0.00001   0.00000  -0.00410  -0.00410  -1.09461
   D32       -1.25668  -0.00002   0.00000  -0.00432  -0.00432  -1.26100
   D33        2.92434  -0.00001   0.00000  -0.00426  -0.00426   2.92008
   D34        0.92455  -0.00001   0.00000  -0.00381  -0.00381   0.92074
   D35        0.88183  -0.00001   0.00000  -0.00415  -0.00415   0.87767
   D36       -1.22034   0.00001   0.00000  -0.00409  -0.00409  -1.22443
   D37        3.06306   0.00001   0.00000  -0.00365  -0.00364   3.05941
   D38        0.86453   0.00001   0.00000  -0.00319  -0.00319   0.86134
   D39       -1.57868   0.00002   0.00000   0.00060   0.00060  -1.57809
   D40        1.98181   0.00003   0.00000   0.00362   0.00362   1.98543
   D41        0.38170  -0.00001   0.00000   0.00089   0.00088   0.38258
   D42       -0.89802   0.00005   0.00000  -0.00294  -0.00294  -0.90096
   D43       -3.07945   0.00003   0.00000  -0.00274  -0.00274  -3.08219
   D44        1.20437   0.00004   0.00000  -0.00296  -0.00296   1.20141
   D45        1.24402   0.00001   0.00000  -0.00305  -0.00305   1.24097
   D46       -0.93740  -0.00001   0.00000  -0.00285  -0.00286  -0.94026
   D47       -2.93677   0.00000   0.00000  -0.00307  -0.00307  -2.93984
   D48       -3.02423   0.00000   0.00000  -0.00359  -0.00359  -3.02781
   D49        1.07753  -0.00002   0.00000  -0.00339  -0.00339   1.07414
   D50       -0.92184  -0.00001   0.00000  -0.00360  -0.00360  -0.92544
   D51       -0.88044  -0.00001   0.00000  -0.00194  -0.00193  -0.88237
   D52       -2.12923   0.00002   0.00000   0.00224   0.00224  -2.12699
   D53       -0.37358   0.00001   0.00000   0.00116   0.00117  -0.37241
   D54        1.42183   0.00002   0.00000   0.00166   0.00166   1.42349
   D55        2.12522  -0.00001   0.00000   0.00241   0.00241   2.12763
   D56        0.37859  -0.00001   0.00000   0.00077   0.00077   0.37936
   D57       -1.41812  -0.00001   0.00000   0.00012   0.00012  -1.41800
         Item               Value     Threshold  Converged?
 Maximum Force            0.000112     0.000450     YES
 RMS     Force            0.000026     0.000300     YES
 Maximum Displacement     0.007067     0.001800     NO 
 RMS     Displacement     0.001994     0.001200     NO 
 Predicted change in Energy=-9.682452D-07
 GradGradGradGradGradGradGradGradGradGradGradGradGradGradGradGradGradGrad

 Leave Link  103 at Mon Oct  6 14:26:41 2025, MaxMem=   104857600 cpu:               0.0 elap:               0.0
 (Enter /home/zhouoh/g16/l202.exe)
                          Input orientation:                          
 ---------------------------------------------------------------------
 Center     Atomic      Atomic             Coordinates (Angstroms)
 Number     Number       Type             X           Y           Z
 ---------------------------------------------------------------------
      1          6           0       -1.292746    0.699947    0.304179
      2          6           0       -1.292892   -0.702019    0.299126
      3          1           0       -1.817035    1.211851    1.103236
      4          1           0       -1.817446   -1.218402    1.095368
      5          6           0        1.538688    0.688647    0.220848
      6          1           0        2.041436    1.217606   -0.578074
      7          1           0        1.433320    1.236375    1.145338
      8          6           0        1.534976   -0.688540    0.231015
      9          1           0        1.418059   -1.223873    1.161541
     10          1           0        2.037169   -1.232989   -0.557543
     11          6           0       -0.435408    1.415425   -0.493717
     12          1           0       -0.129810    1.033709   -1.456999
     13          1           0       -0.365655    2.490528   -0.385884
     14          6           0       -0.433777   -1.413745   -0.500330
     15          1           0       -0.365875   -2.489437   -0.399211
     16          1           0       -0.120005   -1.025054   -1.457898
 ---------------------------------------------------------------------
                    Distance matrix (angstroms):
                    1          2          3          4          5
     1  C    0.000000
     2  C    1.401976   0.000000
     3  H    1.084166   2.141078   0.000000
     4  H    2.140410   1.084347   2.430266   0.000000
     5  C    2.832683   3.155619   3.509021   3.957937   0.000000
     6  H    3.487565   3.946161   4.208875   4.860608   1.082048
     7  H    2.902885   3.450461   3.250721   4.073808   1.079717
     8  C    3.151073   2.828720   3.950726   3.502370   1.377230
     9  H    3.432873   2.892291   4.049936   3.236186   2.134757
    10  H    3.945521   3.479241   4.856986   4.194089   2.132384
    11  C    1.372433   2.418150   2.121460   3.372279   2.221680
    12  H    2.136718   2.729375   3.071362   3.799302   2.391260
    13  H    2.131165   3.394314   2.441106   4.249467   2.690990
    14  C    2.419247   1.372502   3.373215   2.121073   2.971661
    15  H    3.394999   2.131173   4.250028   2.440564   3.756601
    16  H    2.730543   2.137089   3.800403   3.072110   2.916543
                    6          7          8          9         10
     6  H    0.000000
     7  H    1.827650   0.000000
     8  C    2.131788   2.133452   0.000000
     9  H    3.061972   2.460348   1.079874   0.000000
    10  H    2.450684   3.059770   1.081872   1.827192   0.000000
    11  C    2.486162   2.492128   2.972258   3.625067   3.623783
    12  H    2.349603   3.042467   2.930366   3.788050   3.262321
    13  H    2.729718   2.674669   3.754922   4.401470   4.434818
    14  C    3.613410   3.635576   2.221886   2.495429   2.478209
    15  H    4.423720   4.416379   2.693260   2.687010   2.716312
    16  H    3.236578   3.782025   2.388437   3.044114   2.346758
                   11         12         13         14         15
    11  C    0.000000
    12  H    1.080282   0.000000
    13  H    1.082747   1.823522   0.000000
    14  C    2.829178   2.645306   3.906544   0.000000
    15  H    3.906624   3.686082   4.979983   1.082566   0.000000
    16  H    2.642927   2.058787   3.683596   1.080032   1.823647
                   16
    16  H    0.000000
 Stoichiometry    C6H10
 Framework group  C1[X(C6H10)]
 Deg. of freedom    42
 Full point group                 C1      NOp   1
 RotChk:  IX=3 Diff= 8.38D-03
 Largest Abelian subgroup         C1      NOp   1
 Largest concise Abelian subgroup C1      NOp   1
                         Standard orientation:                         
 ---------------------------------------------------------------------
 Center     Atomic      Atomic             Coordinates (Angstroms)
 Number     Number       Type             X           Y           Z
 ---------------------------------------------------------------------
      1          6           0       -1.293221   -0.703325   -0.296049
      2          6           0       -1.296760    0.698640   -0.291897
      3          1           0       -1.820501   -1.217029   -1.091976
      4          1           0       -1.826800    1.213220   -1.085669
      5          6           0        1.538581   -0.685072   -0.227788
      6          1           0        2.046859   -1.212280    0.568788
      7          1           0        1.429635   -1.233661   -1.151352
      8          6           0        1.531454    0.692095   -0.238821
      9          1           0        1.408285    1.226530   -1.169056
     10          1           0        2.036503    1.238283    0.546705
     11          6           0       -0.429909   -1.416188    0.497735
     12          1           0       -0.120125   -1.033097    1.459132
     13          1           0       -0.358108   -2.491190    0.390224
     14          6           0       -0.435146    1.412980    0.502520
     15          1           0       -0.370407    2.488768    0.400349
     16          1           0       -0.115338    1.025684    1.458655
 ---------------------------------------------------------------------
 Rotational constants (GHZ):           4.4118950           3.5994760           2.3438213
 Leave Link  202 at Mon Oct  6 14:26:41 2025, MaxMem=   104857600 cpu:               0.0 elap:               0.0
 (Enter /home/zhouoh/g16/l301.exe)
 Standard basis: STO-3G (5D, 7F)
 Ernie: Thresh=  0.10000D-02 Tol=  0.10000D-05 Strict=F.
 There are    40 symmetry adapted cartesian basis functions of A   symmetry.
 There are    40 symmetry adapted basis functions of A   symmetry.
    40 basis functions,   120 primitive gaussians,    40 cartesian basis functions
    23 alpha electrons       23 beta electrons
       nuclear repulsion energy       226.7081347324 Hartrees.
 IExCor=    0 DFT=F Ex=HF Corr=None ExCW=0 ScaHFX=  1.000000
 ScaDFX=  1.000000  1.000000  1.000000  1.000000 ScalE2=  1.000000  1.000000
 IRadAn=      5 IRanWt=     -1 IRanGd=            0 ICorTp=0 IEmpDi=  4
 NAtoms=   16 NActive=   16 NUniq=   16 SFac= 1.00D+00 NAtFMM=   60 NAOKFM=F Big=F
 Integral buffers will be    131072 words long.
 Raffenetti 1 integral format.
 Two-electron integral symmetry is turned on.
 Leave Link  301 at Mon Oct  6 14:26:41 2025, MaxMem=   104857600 cpu:               0.0 elap:               0.0
 (Enter /home/zhouoh/g16/l402.exe)
 External calculation of energy and first derivatives.
 Running external command "python ../GauUMA_client.py R"
         input file       "/home/zhouoh/scratch/Gau-2816605.EIn"
         output file      "/home/zhouoh/scratch/Gau-2816605.EOu"
         message file     "/home/zhouoh/scratch/Gau-2816605.EMs"
         fchk file        "/home/zhouoh/scratch/Gau-2816605.EFC"
         mat. el file     "/home/zhouoh/scratch/Gau-2816605.EUF"
Sent job to server.
Received result from server:
SCF Done:  E(UMA) =  -234.49387248923335     A.U.
 Recovered energy= -234.493872489     dipole=      0.000000000000      0.000000000000      0.000000000000
 Energy=    -234.493872     NIter=   0.
 Dipole moment=       0.000000       0.000000       0.000000
 Leave Link  402 at Mon Oct  6 14:26:41 2025, MaxMem=   104857600 cpu:               0.0 elap:               0.1
 (Enter /home/zhouoh/g16/l716.exe)
 Dipole        = 0.00000000D+00 0.00000000D+00 0.00000000D+00
 ***** Axes restored to original set *****
 -------------------------------------------------------------------
 Center     Atomic                   Forces (Hartrees/Bohr)
 Number     Number              X              Y              Z
 -------------------------------------------------------------------
      1        6          -0.000482524   -0.000003957    0.000609615
      2        6           0.000483167   -0.000003534   -0.000601824
      3        1           0.000003586   -0.000002897    0.000008246
      4        1          -0.000005472   -0.000003502   -0.000010064
      5        6          -0.000007398    0.000001488   -0.000019201
      6        1           0.000009900    0.000004988    0.000003974
      7        1           0.000006900   -0.000005477    0.000003339
      8        6          -0.000006551    0.000006408    0.000025048
      9        1          -0.000006079   -0.000000917   -0.000006019
     10        1          -0.000003868    0.000004204   -0.000006995
     11        6           0.000045467   -0.000010589    0.000008804
     12        1          -0.000005436    0.000001966    0.000006786
     13        1           0.000002609    0.000000466    0.000005944
     14        6          -0.000033193    0.000004987   -0.000012242
     15        1          -0.000000740    0.000000659   -0.000004648
     16        1          -0.000000369    0.000005709   -0.000010762
 -------------------------------------------------------------------
 Cartesian Forces:  Max     0.000609615 RMS     0.000158490
 Leave Link  716 at Mon Oct  6 14:26:41 2025, MaxMem=   104857600 cpu:               0.0 elap:               0.0
 (Enter /home/zhouoh/g16/l103.exe)

 GradGradGradGradGradGradGradGradGradGradGradGradGradGradGradGradGradGrad
 Berny optimization.
 FormGI is forming the generalized inverse of G from B-inverse, IUseBI=4.
 Internal  Forces:  Max     0.000373370 RMS     0.000074208
 Search for a saddle point.
 Step number  11 out of a maximum of  100
 All quantities printed in internal units (Hartrees-Bohrs-Radians)
 Swapping is turned off.
 Update second derivatives using D2CorX and points    1    4    5    6    7
                                                      8    9   10   11
 ITU=  0  0  0  0  0  0  0  0  0  0  0
     Eigenvalues ---   -0.03871  -0.00829   0.00570   0.00677   0.00916
     Eigenvalues ---    0.01170   0.01393   0.01699   0.01796   0.01890
     Eigenvalues ---    0.02101   0.02265   0.02382   0.02452   0.02690
     Eigenvalues ---    0.03348   0.03902   0.04126   0.04668   0.04673
     Eigenvalues ---    0.05139   0.05233   0.05772   0.06103   0.09143
     Eigenvalues ---    0.11722   0.11899   0.14277   0.30096   0.30791
     Eigenvalues ---    0.32554   0.33501   0.33999   0.34820   0.34870
     Eigenvalues ---    0.35398   0.35499   0.35841   0.36072   0.43227
     Eigenvalues ---    0.43739   0.48888
 Eigenvectors required to have negative eigenvalues:
                          R9        R13       D24       D20       D13
   1                    0.54916   0.54281  -0.16538   0.15965   0.15844
                          D6        D9        D16       D40       A34
   1                   -0.15028  -0.13708   0.13533  -0.12693   0.12420
 Eigenvalue     2 is  -8.29D-03 should be greater than     0.000000 Eigenvector:
                          D28       D22       D27       D35       D29
   1                    0.26454   0.22898   0.22718  -0.20558  -0.20500
                          D32       D21       D42       D48       D45
   1                   -0.19198   0.19162  -0.18375  -0.18304  -0.16968
 RFO step:  Lambda0=2.160225595D-08 Lambda=-8.30262758D-03.
 Linear search not attempted -- option 19 set.
 Maximum step size (   0.300) exceeded in Quadratic search.
    -- Step size scaled by   0.978
 Iteration  1 RMS(Cart)=  0.08017552 RMS(Int)=  0.00546401
 Iteration  2 RMS(Cart)=  0.00499912 RMS(Int)=  0.00191973
 Iteration  3 RMS(Cart)=  0.00001097 RMS(Int)=  0.00191970
 Iteration  4 RMS(Cart)=  0.00000002 RMS(Int)=  0.00191970
 ITry= 1 IFail=0 DXMaxC= 2.71D-01 DCOld= 1.00D+10 DXMaxT= 3.00D-01 DXLimC= 3.00D+00 Rises=F
 Variable       Old X    -DE/DX   Delta X   Delta X   Delta X     New X
                                 (Linear)    (Quad)   (Total)
    R1        2.64935  -0.00000   0.00000   0.00194   0.00383   2.65318
    R2        2.04878  -0.00000   0.00000  -0.00515  -0.00515   2.04362
    R3        2.59352   0.00020   0.00000   0.00817   0.00901   2.60254
    R4        2.04912   0.00000   0.00000   0.00544   0.00544   2.05456
    R5        2.59365  -0.00021   0.00000  -0.01171  -0.01059   2.58306
    R6        2.04477  -0.00001   0.00000   0.00035  -0.00024   2.04454
    R7        2.04037  -0.00002   0.00000  -0.00350  -0.00350   2.03687
    R8        2.60259  -0.00001   0.00000  -0.00279  -0.00462   2.59796
    R9        4.19837   0.00004   0.00000   0.11508   0.11328   4.31164
   R10        4.44011   0.00003   0.00000  -0.05999  -0.05869   4.38142
   R11        2.04067   0.00001   0.00000   0.00418   0.00418   2.04484
   R12        2.04444   0.00002   0.00000  -0.00126  -0.00158   2.04286
   R13        4.19876  -0.00005   0.00000  -0.08213  -0.08427   4.11448
   R14        4.43473  -0.00003   0.00000   0.04264   0.04431   4.47904
   R15        2.04144   0.00005   0.00000   0.00214   0.00244   2.04388
   R16        2.04610  -0.00001   0.00000  -0.00074  -0.00074   2.04535
   R17        2.04575   0.00001   0.00000   0.00060   0.00060   2.04635
   R18        2.04097  -0.00005   0.00000  -0.00072  -0.00107   2.03990
    A1        2.06549   0.00023   0.00000   0.04417   0.04370   2.10919
    A2        2.11681  -0.00037   0.00000  -0.07165  -0.07161   2.04520
    A3        2.07650   0.00014   0.00000   0.03355   0.03345   2.10995
    A4        2.06419  -0.00023   0.00000  -0.04931  -0.04962   2.01457
    A5        2.11834   0.00037   0.00000   0.07940   0.07903   2.19737
    A6        2.07553  -0.00014   0.00000  -0.03631  -0.03606   2.03947
    A7        2.01479   0.00001   0.00000   0.01074   0.00998   2.02477
    A8        2.08925  -0.00004   0.00000  -0.00927  -0.00790   2.08135
    A9        1.58625   0.00004   0.00000   0.02472   0.02561   1.61186
   A10        2.09519   0.00003   0.00000   0.01748   0.01700   2.11219
   A11        1.59353  -0.00006   0.00000  -0.06772  -0.06406   1.52947
   A12        1.90403   0.00002   0.00000  -0.00030  -0.00736   1.89667
   A13        1.37818  -0.00003   0.00000   0.01584   0.01214   1.39032
   A14        2.09714  -0.00003   0.00000  -0.01783  -0.01773   2.07941
   A15        2.09047   0.00004   0.00000   0.00950   0.01044   2.10091
   A16        1.90323  -0.00003   0.00000   0.00067  -0.00645   1.89678
   A17        2.01402  -0.00001   0.00000  -0.01047  -0.01102   2.00300
   A18        1.59669   0.00006   0.00000   0.06893   0.07158   1.66827
   A19        1.57793  -0.00004   0.00000  -0.02606  -0.02410   1.55383
   A20        1.37797   0.00003   0.00000  -0.01113  -0.01483   1.36314
   A21        1.76965   0.00006   0.00000   0.02323   0.02056   1.79021
   A22        2.10704  -0.00001   0.00000  -0.02181  -0.02162   2.08542
   A23        2.09438   0.00001   0.00000   0.03640   0.03640   2.13077
   A24        1.49056  -0.00004   0.00000  -0.06663  -0.06819   1.42236
   A25        1.80858  -0.00002   0.00000   0.00498   0.00598   1.81456
   A26        2.00582  -0.00001   0.00000  -0.00323  -0.00341   2.00241
   A27        1.47083   0.00003   0.00000   0.10539   0.10666   1.57749
   A28        1.76568  -0.00006   0.00000  -0.01473  -0.01702   1.74866
   A29        2.09454  -0.00002   0.00000  -0.03942  -0.03909   2.05544
   A30        2.10791   0.00001   0.00000   0.02236   0.02284   2.13076
   A31        1.81110   0.00001   0.00000   0.00622   0.00737   1.81847
   A32        1.48765   0.00004   0.00000   0.04730   0.04573   1.53338
   A33        2.00666   0.00001   0.00000   0.00534   0.00470   2.01137
   A34        1.46561  -0.00003   0.00000  -0.08346  -0.08230   1.38331
    D1       -0.00037   0.00002   0.00000  -0.00587  -0.00594  -0.00632
    D2       -2.90038   0.00002   0.00000   0.02913   0.03065  -2.86973
    D3        2.90336   0.00002   0.00000   0.02830   0.02636   2.92972
    D4        0.00336   0.00003   0.00000   0.06330   0.06295   0.06631
    D5       -1.03395  -0.00000   0.00000   0.01827   0.02237  -1.01157
    D6        0.56150  -0.00002   0.00000  -0.05136  -0.05027   0.51123
    D7       -3.00949  -0.00003   0.00000  -0.02151  -0.01922  -3.02871
    D8        1.86832   0.00002   0.00000   0.05394   0.05605   1.92437
    D9       -2.81941   0.00000   0.00000  -0.01569  -0.01660  -2.83601
   D10       -0.10722  -0.00001   0.00000   0.01416   0.01446  -0.09276
   D11        1.03383  -0.00000   0.00000   0.00198  -0.00190   1.03193
   D12        3.00976  -0.00003   0.00000  -0.01902  -0.02140   2.98836
   D13       -0.55599  -0.00002   0.00000  -0.04979  -0.05076  -0.60675
   D14       -1.86465   0.00002   0.00000   0.03881   0.03667  -1.82797
   D15        0.11128  -0.00001   0.00000   0.01781   0.01718   0.12846
   D16        2.82872  -0.00000   0.00000  -0.01296  -0.01219   2.81653
   D17       -1.97924   0.00004   0.00000   0.09660   0.09506  -1.88419
   D18        1.59058   0.00004   0.00000   0.04642   0.04177   1.63235
   D19       -0.37592  -0.00001   0.00000   0.03369   0.03656  -0.33935
   D20        2.70296   0.00002   0.00000   0.09032   0.09379   2.79676
   D21        0.00349   0.00002   0.00000   0.14112   0.14105   0.14454
   D22       -1.77501   0.00007   0.00000   0.16865   0.17046  -1.60455
   D23        0.00942   0.00003   0.00000   0.03988   0.03992   0.04934
   D24       -2.69005   0.00002   0.00000   0.09068   0.08718  -2.60287
   D25        1.81463   0.00007   0.00000   0.11821   0.11659   1.93122
   D26       -1.79140   0.00007   0.00000   0.11651   0.11703  -1.67437
   D27        1.79232   0.00007   0.00000   0.16731   0.16429   1.95660
   D28        0.01381   0.00012   0.00000   0.19484   0.19370   0.20751
   D29        3.00683  -0.00002   0.00000  -0.15049  -0.15009   2.85675
   D30        0.90473  -0.00000   0.00000  -0.11639  -0.11551   0.78921
   D31       -1.09461   0.00002   0.00000  -0.09787  -0.09705  -1.19167
   D32       -1.26100  -0.00001   0.00000  -0.14083  -0.14173  -1.40273
   D33        2.92008   0.00001   0.00000  -0.10673  -0.10716   2.81292
   D34        0.92074   0.00002   0.00000  -0.08821  -0.08870   0.83205
   D35        0.87767   0.00000   0.00000  -0.15070  -0.15048   0.72720
   D36       -1.22443   0.00002   0.00000  -0.11660  -0.11590  -1.34033
   D37        3.05941   0.00004   0.00000  -0.09808  -0.09744   2.96197
   D38        0.86134  -0.00000   0.00000  -0.08147  -0.08364   0.77770
   D39       -1.57809   0.00004   0.00000   0.04277   0.04753  -1.53056
   D40        1.98543   0.00004   0.00000   0.09337   0.09478   2.08022
   D41        0.38258  -0.00001   0.00000   0.02967   0.02731   0.40989
   D42       -0.90096  -0.00000   0.00000  -0.13435  -0.13429  -1.03525
   D43       -3.08219   0.00003   0.00000  -0.08676  -0.08685   3.11414
   D44        1.20141   0.00001   0.00000  -0.10332  -0.10335   1.09806
   D45        1.24097  -0.00001   0.00000  -0.12414  -0.12361   1.11736
   D46       -0.94026   0.00002   0.00000  -0.07655  -0.07618  -1.01643
   D47       -2.93984   0.00000   0.00000  -0.09312  -0.09267  -3.03252
   D48       -3.02781  -0.00002   0.00000  -0.13407  -0.13457   3.12080
   D49        1.07414   0.00002   0.00000  -0.08648  -0.08713   0.98701
   D50       -0.92544  -0.00000   0.00000  -0.10304  -0.10363  -1.02908
   D51       -0.88237  -0.00000   0.00000  -0.07720  -0.07559  -0.95796
   D52       -2.12699  -0.00004   0.00000   0.04754   0.04981  -2.07717
   D53       -0.37241   0.00001   0.00000   0.03467   0.03510  -0.33731
   D54        1.42349  -0.00003   0.00000   0.00954   0.01116   1.43465
   D55        2.12763  -0.00003   0.00000   0.04170   0.03875   2.16639
   D56        0.37936   0.00001   0.00000   0.03044   0.02965   0.40901
   D57       -1.41800  -0.00003   0.00000   0.00176  -0.00015  -1.41815
         Item               Value     Threshold  Converged?
 Maximum Force            0.000373     0.000450     YES
 RMS     Force            0.000074     0.000300     YES
 Maximum Displacement     0.271464     0.001800     NO 
 RMS     Displacement     0.079986     0.001200     NO 
 Predicted change in Energy=-2.409835D-03
 GradGradGradGradGradGradGradGradGradGradGradGradGradGradGradGradGradGrad

 Leave Link  103 at Mon Oct  6 14:26:41 2025, MaxMem=   104857600 cpu:               0.0 elap:               0.0
 (Enter /home/zhouoh/g16/l202.exe)
                          Input orientation:                          
 ---------------------------------------------------------------------
 Center     Atomic      Atomic             Coordinates (Angstroms)
 Number     Number       Type             X           Y           Z
 ---------------------------------------------------------------------
      1          6           0       -1.327457    0.707160    0.361936
      2          6           0       -1.262324   -0.689613    0.235448
      3          1           0       -1.868780    1.165375    1.178342
      4          1           0       -1.780801   -1.252910    1.007420
      5          6           0        1.575588    0.664830    0.159729
      6          1           0        2.040467    1.091771   -0.719000
      7          1           0        1.522178    1.305609    1.024796
      8          6           0        1.505250   -0.702390    0.285385
      9          1           0        1.348298   -1.134123    1.265119
     10          1           0        2.024183   -1.342982   -0.413891
     11          6           0       -0.482988    1.450817   -0.432128
     12          1           0       -0.177397    1.062421   -1.394189
     13          1           0       -0.392643    2.524334   -0.327786
     14          6           0       -0.385958   -1.383131   -0.551586
     15          1           0       -0.352583   -2.459917   -0.441799
     16          1           0       -0.052034   -1.007223   -1.506801
 ---------------------------------------------------------------------
                    Distance matrix (angstroms):
                    1          2          3          4          5
     1  C    0.000000
     2  C    1.404001   0.000000
     3  H    1.081438   2.167445   0.000000
     4  H    2.112829   1.087227   2.425913   0.000000
     5  C    2.910386   3.145472   3.626539   3.957480   0.000000
     6  H    3.557985   3.872045   4.345979   4.804180   1.081922
     7  H    2.986292   3.515314   3.397327   4.178036   1.077864
     8  C    3.164952   2.768054   3.958534   3.409184   1.374783
     9  H    3.371309   2.841331   3.955351   3.141939   2.123624
    10  H    4.004807   3.413160   4.897164   4.062775   2.135787
    11  C    1.377203   2.373702   2.143713   3.326673   2.281624
    12  H    2.129042   2.627243   3.080469   3.701268   2.376067
    13  H    2.156783   3.376838   2.508818   4.239968   2.751247
    14  C    2.467845   1.366897   3.418522   2.095958   2.923658
    15  H    3.409802   2.102443   4.250464   2.365778   3.720715
    16  H    2.838660   2.145019   3.902658   3.061095   2.867444
                    6          7          8          9         10
     6  H    0.000000
     7  H    1.831714   0.000000
     8  C    2.124679   2.139877   0.000000
     9  H    3.061116   2.457698   1.082084   0.000000
    10  H    2.453851   3.055628   1.081035   1.821955   0.000000
    11  C    2.564963   2.482821   3.017319   3.593907   3.753872
    12  H    2.318548   2.966341   2.960883   3.771534   3.404982
    13  H    2.850493   2.642216   3.793379   4.353450   4.561206
    14  C    3.469973   3.654488   2.177291   2.523899   2.414405
    15  H    4.291622   4.454752   2.658804   2.750327   2.626278
    16  H    3.066753   3.773104   2.393739   3.108147   2.370204
                   11         12         13         14         15
    11  C    0.000000
    12  H    1.081573   0.000000
    13  H    1.082353   1.822289   0.000000
    14  C    2.838124   2.595034   3.913875   0.000000
    15  H    3.912920   3.653026   4.985716   1.082882   0.000000
    16  H    2.717095   2.076493   3.738715   1.079467   1.826165
                   16
    16  H    0.000000
 Stoichiometry    C6H10
 Framework group  C1[X(C6H10)]
 Deg. of freedom    42
 Full point group                 C1      NOp   1
 RotChk:  IX=0 Diff= 2.15D-01
 Largest Abelian subgroup         C1      NOp   1
 Largest concise Abelian subgroup C1      NOp   1
                         Standard orientation:                         
 ---------------------------------------------------------------------
 Center     Atomic      Atomic             Coordinates (Angstroms)
 Number     Number       Type             X           Y           Z
 ---------------------------------------------------------------------
      1          6           0       -1.421404   -0.504216   -0.336768
      2          6           0       -1.149153    0.869636   -0.238653
      3          1           0       -2.033304   -0.892314   -1.139555
      4          1           0       -1.586980    1.489065   -1.017548
      5          6           0        1.458021   -0.888266   -0.158525
      6          1           0        1.864152   -1.362954    0.724813
      7          1           0        1.301131   -1.529999   -1.010203
      8          6           0        1.589203    0.471742   -0.310830
      9          1           0        1.487214    0.903722   -1.297693
     10          1           0        2.204654    1.041321    0.371398
     11          6           0       -0.687607   -1.349824    0.465216
     12          1           0       -0.317581   -0.993176    1.416889
     13          1           0       -0.758074   -2.426637    0.381566
     14          6           0       -0.171444    1.440275    0.527418
     15          1           0        0.019546    2.498042    0.395940
     16          1           0        0.113548    1.036848    1.487248
 ---------------------------------------------------------------------
 Rotational constants (GHZ):           4.4265463           3.5747568           2.3379010
 Leave Link  202 at Mon Oct  6 14:26:41 2025, MaxMem=   104857600 cpu:               0.0 elap:               0.0
 (Enter /home/zhouoh/g16/l301.exe)
 Standard basis: STO-3G (5D, 7F)
 Ernie: Thresh=  0.10000D-02 Tol=  0.10000D-05 Strict=F.
 There are    40 symmetry adapted cartesian basis functions of A   symmetry.
 There are    40 symmetry adapted basis functions of A   symmetry.
    40 basis functions,   120 primitive gaussians,    40 cartesian basis functions
    23 alpha electrons       23 beta electrons
       nuclear repulsion energy       226.5969410676 Hartrees.
 IExCor=    0 DFT=F Ex=HF Corr=None ExCW=0 ScaHFX=  1.000000
 ScaDFX=  1.000000  1.000000  1.000000  1.000000 ScalE2=  1.000000  1.000000
 IRadAn=      5 IRanWt=     -1 IRanGd=            0 ICorTp=0 IEmpDi=  4
 NAtoms=   16 NActive=   16 NUniq=   16 SFac= 1.00D+00 NAtFMM=   60 NAOKFM=F Big=F
 Integral buffers will be    131072 words long.
 Raffenetti 1 integral format.
 Two-electron integral symmetry is turned on.
 Leave Link  301 at Mon Oct  6 14:26:41 2025, MaxMem=   104857600 cpu:               0.0 elap:               0.0
 (Enter /home/zhouoh/g16/l402.exe)
 External calculation of energy and first derivatives.
 Running external command "python ../GauUMA_client.py R"
         input file       "/home/zhouoh/scratch/Gau-2816605.EIn"
         output file      "/home/zhouoh/scratch/Gau-2816605.EOu"
         message file     "/home/zhouoh/scratch/Gau-2816605.EMs"
         fchk file        "/home/zhouoh/scratch/Gau-2816605.EFC"
         mat. el file     "/home/zhouoh/scratch/Gau-2816605.EUF"
Sent job to server.
Received result from server:
SCF Done:  E(UMA) =  -234.4913548919018     A.U.
 Recovered energy= -234.491354892     dipole=      0.000000000000      0.000000000000      0.000000000000
 Energy=    -234.491355     NIter=   0.
 Dipole moment=       0.000000       0.000000       0.000000
 Leave Link  402 at Mon Oct  6 14:26:41 2025, MaxMem=   104857600 cpu:               0.0 elap:               0.1
 (Enter /home/zhouoh/g16/l716.exe)
 Dipole        = 0.00000000D+00 0.00000000D+00 0.00000000D+00
 ***** Axes restored to original set *****
 -------------------------------------------------------------------
 Center     Atomic                   Forces (Hartrees/Bohr)
 Number     Number              X              Y              Z
 -------------------------------------------------------------------
      1        6           0.014492228    0.000595675   -0.018611939
      2        6          -0.014306541   -0.001884060    0.018629424
      3        1          -0.000128685   -0.001349237    0.000842937
      4        1           0.000183404   -0.001456174   -0.000949712
      5        6           0.000060189    0.000419956   -0.001479574
      6        1           0.000729000    0.001136766    0.000397927
      7        1          -0.000081775   -0.000141065    0.000867477
      8        6           0.002123021    0.000637261    0.003301534
      9        1          -0.000716433   -0.000566553   -0.000978845
     10        1          -0.000419259    0.000524097   -0.001457089
     11        6          -0.002816822   -0.000246619    0.001620349
     12        1          -0.001145995    0.000997813    0.000807150
     13        1          -0.000306742    0.000174213    0.001500436
     14        6           0.000313536    0.000192072   -0.002638229
     15        1           0.000928134    0.000073294   -0.001540941
     16        1           0.001092744    0.000892561   -0.000310900
 -------------------------------------------------------------------
 Cartesian Forces:  Max     0.018629424 RMS     0.004939974
 Leave Link  716 at Mon Oct  6 14:26:41 2025, MaxMem=   104857600 cpu:               0.0 elap:               0.0
 (Enter /home/zhouoh/g16/l103.exe)

 GradGradGradGradGradGradGradGradGradGradGradGradGradGradGradGradGradGrad
 Berny optimization.
 FormGI is forming the generalized inverse of G from B-inverse, IUseBI=4.
 Internal  Forces:  Max     0.011252210 RMS     0.002238250
 Search for a saddle point.
 Step number  12 out of a maximum of  100
 All quantities printed in internal units (Hartrees-Bohrs-Radians)
 Swapping is turned off.
 Update second derivatives using D2CorX and points    2    3    4    8   11
                                                     12
 ITU=  0  0  0  0  0  0  0  0  0  0  0  0
     Eigenvalues ---   -0.03858   0.00077   0.00324   0.00635   0.00886
     Eigenvalues ---    0.01187   0.01410   0.01693   0.01753   0.01991
     Eigenvalues ---    0.02098   0.02268   0.02361   0.02456   0.02794
     Eigenvalues ---    0.03152   0.03894   0.04114   0.04633   0.04672
     Eigenvalues ---    0.05135   0.05236   0.05878   0.06149   0.09106
     Eigenvalues ---    0.11720   0.11894   0.15385   0.30148   0.30736
     Eigenvalues ---    0.32494   0.33449   0.33949   0.34823   0.34869
     Eigenvalues ---    0.35402   0.35498   0.35841   0.36071   0.43346
     Eigenvalues ---    0.43720   0.48790
 Eigenvectors required to have negative eigenvalues:
                          R9        R13       D24       D20       D6
   1                    0.56038   0.53083  -0.16323   0.16309  -0.16204
                          D13       D9        A27       D16       D40
   1                    0.14520  -0.14179   0.13329   0.13023  -0.12296
 RFO step:  Lambda0=2.490810407D-05 Lambda=-4.17912612D-03.
 Linear search not attempted -- option 19 set.
 Iteration  1 RMS(Cart)=  0.03679073 RMS(Int)=  0.00126169
 Iteration  2 RMS(Cart)=  0.00129735 RMS(Int)=  0.00039667
 Iteration  3 RMS(Cart)=  0.00000079 RMS(Int)=  0.00039667
 ITry= 1 IFail=0 DXMaxC= 1.00D-01 DCOld= 1.00D+10 DXMaxT= 3.00D-01 DXLimC= 3.00D+00 Rises=F
 Variable       Old X    -DE/DX   Delta X   Delta X   Delta X     New X
                                 (Linear)    (Quad)   (Total)
    R1        2.65318  -0.00026   0.00000  -0.00427  -0.00382   2.64935
    R2        2.04362   0.00013   0.00000   0.00493   0.00493   2.04855
    R3        2.60254  -0.00646   0.00000  -0.00982  -0.00959   2.59295
    R4        2.05456  -0.00001   0.00000  -0.00515  -0.00515   2.04941
    R5        2.58306   0.00633   0.00000   0.01095   0.01118   2.59424
    R6        2.04454   0.00085   0.00000   0.00138   0.00101   2.04554
    R7        2.03687   0.00062   0.00000   0.00271   0.00271   2.03958
    R8        2.59796   0.00083   0.00000   0.00486   0.00442   2.60238
    R9        4.31164  -0.00117   0.00000  -0.07170  -0.07173   4.23992
   R10        4.38142  -0.00009   0.00000   0.03261   0.03273   4.41415
   R11        2.04484  -0.00056   0.00000  -0.00301  -0.00301   2.04183
   R12        2.04286  -0.00006   0.00000   0.00138   0.00120   2.04406
   R13        4.11448   0.00211   0.00000   0.04689   0.04645   4.16093
   R14        4.47904   0.00041   0.00000  -0.00560  -0.00529   4.47374
   R15        2.04388  -0.00191   0.00000  -0.00275  -0.00266   2.04121
   R16        2.04535   0.00029   0.00000   0.00055   0.00055   2.04590
   R17        2.04635  -0.00020   0.00000  -0.00044  -0.00044   2.04591
   R18        2.03990   0.00159   0.00000   0.00128   0.00115   2.04105
    A1        2.10919  -0.00703   0.00000  -0.04141  -0.04169   2.06750
    A2        2.04520   0.01125   0.00000   0.06964   0.07002   2.11522
    A3        2.10995  -0.00418   0.00000  -0.03204  -0.03222   2.07773
    A4        2.01457   0.00716   0.00000   0.04786   0.04764   2.06221
    A5        2.19737  -0.01119   0.00000  -0.07711  -0.07673   2.12064
    A6        2.03947   0.00390   0.00000   0.03457   0.03440   2.07387
    A7        2.02477  -0.00026   0.00000  -0.00683  -0.00712   2.01766
    A8        2.08135   0.00144   0.00000   0.00573   0.00577   2.08712
    A9        1.61186  -0.00095   0.00000  -0.00240  -0.00213   1.60973
   A10        2.11219  -0.00117   0.00000  -0.01239  -0.01262   2.09957
   A11        1.52947   0.00159   0.00000   0.03069   0.03144   1.56091
   A12        1.89667  -0.00073   0.00000   0.00607   0.00478   1.90145
   A13        1.39032   0.00041   0.00000  -0.00172  -0.00231   1.38801
   A14        2.07941   0.00121   0.00000   0.01121   0.01127   2.09068
   A15        2.10091  -0.00142   0.00000  -0.00595  -0.00598   2.09492
   A16        1.89678   0.00122   0.00000   0.00407   0.00275   1.89953
   A17        2.00300   0.00031   0.00000   0.00825   0.00805   2.01105
   A18        1.66827  -0.00203   0.00000  -0.03976  -0.03939   1.62887
   A19        1.55383   0.00047   0.00000   0.00655   0.00715   1.56098
   A20        1.36314  -0.00016   0.00000  -0.00419  -0.00484   1.35830
   A21        1.79021  -0.00147   0.00000  -0.01063  -0.01171   1.77849
   A22        2.08542  -0.00013   0.00000   0.02221   0.02225   2.10767
   A23        2.13077   0.00001   0.00000  -0.03413  -0.03420   2.09657
   A24        1.42236   0.00135   0.00000   0.04692   0.04676   1.46912
   A25        1.81456   0.00009   0.00000  -0.00258  -0.00261   1.81194
   A26        2.00241   0.00021   0.00000   0.00387   0.00363   2.00604
   A27        1.57749  -0.00081   0.00000  -0.05259  -0.05193   1.52556
   A28        1.74866   0.00146   0.00000   0.01085   0.00970   1.75836
   A29        2.05544   0.00021   0.00000   0.03636   0.03641   2.09186
   A30        2.13076   0.00006   0.00000  -0.02387  -0.02362   2.10713
   A31        1.81847  -0.00032   0.00000  -0.00629  -0.00616   1.81231
   A32        1.53338  -0.00135   0.00000  -0.02986  -0.02997   1.50341
   A33        2.01137  -0.00023   0.00000  -0.00433  -0.00466   2.00671
   A34        1.38331   0.00099   0.00000   0.03013   0.03047   1.41378
    D1       -0.00632  -0.00028   0.00000   0.01588   0.01590   0.00959
    D2       -2.86973  -0.00066   0.00000  -0.01454  -0.01417  -2.88390
    D3        2.92972  -0.00043   0.00000  -0.00801  -0.00819   2.92154
    D4        0.06631  -0.00082   0.00000  -0.03844  -0.03826   0.02805
    D5       -1.01157  -0.00038   0.00000  -0.00703  -0.00629  -1.01787
    D6        0.51123   0.00035   0.00000   0.04610   0.04641   0.55764
    D7       -3.02871   0.00068   0.00000   0.02352   0.02366  -3.00505
    D8        1.92437  -0.00088   0.00000  -0.03209  -0.03160   1.89277
    D9       -2.83601  -0.00015   0.00000   0.02104   0.02110  -2.81491
   D10       -0.09276   0.00017   0.00000  -0.00154  -0.00165  -0.09441
   D11        1.03193   0.00020   0.00000   0.01225   0.01151   1.04343
   D12        2.98836   0.00083   0.00000   0.02648   0.02610   3.01446
   D13       -0.60675   0.00088   0.00000   0.04648   0.04629  -0.56046
   D14       -1.82797  -0.00060   0.00000  -0.02010  -0.02047  -1.84844
   D15        0.12846   0.00003   0.00000  -0.00587  -0.00588   0.12258
   D16        2.81653   0.00008   0.00000   0.01413   0.01432   2.83085
   D17       -1.88419  -0.00105   0.00000  -0.03931  -0.03974  -1.92393
   D18        1.63235  -0.00080   0.00000   0.00077  -0.00012   1.63223
   D19       -0.33935   0.00025   0.00000  -0.00651  -0.00608  -0.34543
   D20        2.79676  -0.00039   0.00000  -0.03806  -0.03746   2.75929
   D21        0.14454  -0.00070   0.00000  -0.07132  -0.07141   0.07313
   D22       -1.60455  -0.00146   0.00000  -0.07947  -0.07938  -1.68394
   D23        0.04934  -0.00036   0.00000   0.00258   0.00257   0.05191
   D24       -2.60287  -0.00068   0.00000  -0.03068  -0.03137  -2.63425
   D25        1.93122  -0.00143   0.00000  -0.03883  -0.03935   1.89187
   D26       -1.67437  -0.00135   0.00000  -0.03426  -0.03410  -1.70847
   D27        1.95660  -0.00167   0.00000  -0.06753  -0.06805   1.88856
   D28        0.20751  -0.00242   0.00000  -0.07567  -0.07603   0.13148
   D29        2.85675   0.00025   0.00000   0.05146   0.05140   2.90815
   D30        0.78921   0.00007   0.00000   0.02005   0.02004   0.80925
   D31       -1.19167  -0.00042   0.00000   0.00625   0.00618  -1.18549
   D32       -1.40273   0.00006   0.00000   0.04547   0.04531  -1.35742
   D33        2.81292  -0.00012   0.00000   0.01407   0.01394   2.82687
   D34        0.83205  -0.00061   0.00000   0.00026   0.00008   0.83213
   D35        0.72720  -0.00072   0.00000   0.04467   0.04478   0.77198
   D36       -1.34033  -0.00090   0.00000   0.01327   0.01342  -1.32692
   D37        2.96197  -0.00139   0.00000  -0.00054  -0.00045   2.96153
   D38        0.77770  -0.00002   0.00000   0.00286   0.00263   0.78033
   D39       -1.53056  -0.00119   0.00000  -0.00860  -0.00755  -1.53811
   D40        2.08022  -0.00176   0.00000  -0.04150  -0.04110   2.03911
   D41        0.40989   0.00025   0.00000  -0.00097  -0.00116   0.40874
   D42       -1.03525  -0.00083   0.00000   0.03259   0.03238  -1.00287
   D43        3.11414  -0.00154   0.00000  -0.00942  -0.00940   3.10474
   D44        1.09806  -0.00093   0.00000   0.00339   0.00330   1.10135
   D45        1.11736  -0.00003   0.00000   0.02776   0.02768   1.14504
   D46       -1.01643  -0.00074   0.00000  -0.01425  -0.01411  -1.03054
   D47       -3.03252  -0.00013   0.00000  -0.00144  -0.00141  -3.03392
   D48        3.12080   0.00027   0.00000   0.03565   0.03548  -3.12691
   D49        0.98701  -0.00044   0.00000  -0.00635  -0.00631   0.98070
   D50       -1.02908   0.00017   0.00000   0.00646   0.00639  -1.02269
   D51       -0.95796  -0.00017   0.00000  -0.00415  -0.00398  -0.96195
   D52       -2.07717   0.00076   0.00000  -0.01678  -0.01723  -2.09440
   D53       -0.33731  -0.00019   0.00000  -0.00452  -0.00482  -0.34212
   D54        1.43465   0.00049   0.00000   0.01304   0.01307   1.44772
   D55        2.16639   0.00070   0.00000  -0.01119  -0.01149   2.15490
   D56        0.40901  -0.00018   0.00000  -0.00328  -0.00315   0.40586
   D57       -1.41815   0.00085   0.00000   0.01832   0.01805  -1.40011
         Item               Value     Threshold  Converged?
 Maximum Force            0.011252     0.000450     NO 
 RMS     Force            0.002238     0.000300     NO 
 Maximum Displacement     0.100363     0.001800     NO 
 RMS     Displacement     0.036832     0.001200     NO 
 Predicted change in Energy=-2.266559D-03
 GradGradGradGradGradGradGradGradGradGradGradGradGradGradGradGradGradGrad

 Leave Link  103 at Mon Oct  6 14:26:41 2025, MaxMem=   104857600 cpu:               0.0 elap:               0.0
 (Enter /home/zhouoh/g16/l202.exe)
                          Input orientation:                          
 ---------------------------------------------------------------------
 Center     Atomic      Atomic             Coordinates (Angstroms)
 Number     Number       Type             X           Y           Z
 ---------------------------------------------------------------------
      1          6           0       -1.298451    0.689682    0.322116
      2          6           0       -1.287905   -0.711649    0.280873
      3          1           0       -1.823967    1.178638    1.134465
      4          1           0       -1.815041   -1.250545    1.060530
      5          6           0        1.559078    0.679396    0.177658
      6          1           0        2.049651    1.142812   -0.668683
      7          1           0        1.489394    1.287382    1.066692
      8          6           0        1.515609   -0.693936    0.270030
      9          1           0        1.362948   -1.162681    1.231505
     10          1           0        2.027606   -1.302292   -0.463302
     11          6           0       -0.454634    1.430239   -0.466737
     12          1           0       -0.153802    1.073403   -1.440863
     13          1           0       -0.386069    2.502289   -0.332101
     14          6           0       -0.413391   -1.399087   -0.523661
     15          1           0       -0.345753   -2.477021   -0.448719
     16          1           0       -0.092275   -0.986604   -1.468808
 ---------------------------------------------------------------------
                    Distance matrix (angstroms):
                    1          2          3          4          5
     1  C    0.000000
     2  C    1.401977   0.000000
     3  H    1.084047   2.142234   0.000000
     4  H    2.139299   1.084502   2.430324   0.000000
     5  C    2.861196   3.170327   3.551016   3.986077   0.000000
     6  H    3.520908   3.934458   4.272884   4.863556   1.082455
     7  H    2.946815   3.510987   3.315837   4.166581   1.079299
     8  C    3.136247   2.803591   3.925118   3.468131   1.377121
     9  H    3.367682   2.852044   3.955707   3.183798   2.131269
    10  H    3.955691   3.448952   4.852060   4.134087   2.134815
    11  C    1.372129   2.416805   2.121843   3.371921   2.243668
    12  H    2.136716   2.727082   3.071293   3.797027   2.389311
    13  H    2.132131   3.393883   2.443443   4.250311   2.714110
    14  C    2.421079   1.372815   3.373985   2.120459   2.950012
    15  H    3.395559   2.129905   4.249168   2.437393   3.739477
    16  H    2.733533   2.136941   3.803165   3.071667   2.865898
                    6          7          8          9         10
     6  H    0.000000
     7  H    1.829294   0.000000
     8  C    2.130734   2.135645   0.000000
     9  H    3.065547   2.458854   1.080491   0.000000
    10  H    2.453814   3.055645   1.081672   1.825824   0.000000
    11  C    2.528802   2.480133   2.989449   3.593170   3.691647
    12  H    2.335869   3.005614   2.972806   3.800283   3.370177
    13  H    2.809661   2.636282   3.767598   4.351544   4.507536
    14  C    3.542437   3.656081   2.201869   2.508362   2.443661
    15  H    4.346209   4.453646   2.675941   2.733185   2.648213
    16  H    3.124493   3.755190   2.386316   3.072519   2.367404
                   11         12         13         14         15
    11  C    0.000000
    12  H    1.080164   0.000000
    13  H    1.082645   1.823463   0.000000
    14  C    2.830199   2.649878   3.906172   0.000000
    15  H    3.908818   3.691436   4.980838   1.082651   0.000000
    16  H    2.641322   2.061114   3.681140   1.080075   1.823780
                   16
    16  H    0.000000
 Stoichiometry    C6H10
 Framework group  C1[X(C6H10)]
 Deg. of freedom    42
 Full point group                 C1      NOp   1
 RotChk:  IX=3 Diff= 1.74D-01
 Largest Abelian subgroup         C1      NOp   1
 Largest concise Abelian subgroup C1      NOp   1
                         Standard orientation:                         
 ---------------------------------------------------------------------
 Center     Atomic      Atomic             Coordinates (Angstroms)
 Number     Number       Type             X           Y           Z
 ---------------------------------------------------------------------
      1          6           0       -1.319230   -0.656308   -0.310779
      2          6           0       -1.271361    0.744334   -0.272680
      3          1           0       -1.863216   -1.132822   -1.118350
      4          1           0       -1.789568    1.295418   -1.049798
      5          6           0        1.538521   -0.721302   -0.186390
      6          1           0        2.022646   -1.195833    0.657502
      7          1           0        1.446510   -1.329012   -1.073580
      8          6           0        1.530713    0.652511   -0.281462
      9          1           0        1.383701    1.123203   -1.242866
     10          1           0        2.063781    1.248583    0.446927
     11          6           0       -0.489726   -1.417339    0.473755
     12          1           0       -0.172689   -1.066632    1.444964
     13          1           0       -0.450473   -2.491094    0.340989
     14          6           0       -0.373318    1.410016    0.524194
     15          1           0       -0.277745    2.485632    0.446420
     16          1           0       -0.056542    0.991079    1.467966
 ---------------------------------------------------------------------
 Rotational constants (GHZ):           4.4147805           3.5966384           2.3436477
 Leave Link  202 at Mon Oct  6 14:26:41 2025, MaxMem=   104857600 cpu:               0.0 elap:               0.0
 (Enter /home/zhouoh/g16/l301.exe)
 Standard basis: STO-3G (5D, 7F)
 Ernie: Thresh=  0.10000D-02 Tol=  0.10000D-05 Strict=F.
 There are    40 symmetry adapted cartesian basis functions of A   symmetry.
 There are    40 symmetry adapted basis functions of A   symmetry.
    40 basis functions,   120 primitive gaussians,    40 cartesian basis functions
    23 alpha electrons       23 beta electrons
       nuclear repulsion energy       226.7043399498 Hartrees.
 IExCor=    0 DFT=F Ex=HF Corr=None ExCW=0 ScaHFX=  1.000000
 ScaDFX=  1.000000  1.000000  1.000000  1.000000 ScalE2=  1.000000  1.000000
 IRadAn=      5 IRanWt=     -1 IRanGd=            0 ICorTp=0 IEmpDi=  4
 NAtoms=   16 NActive=   16 NUniq=   16 SFac= 1.00D+00 NAtFMM=   60 NAOKFM=F Big=F
 Integral buffers will be    131072 words long.
 Raffenetti 1 integral format.
 Two-electron integral symmetry is turned on.
 Leave Link  301 at Mon Oct  6 14:26:41 2025, MaxMem=   104857600 cpu:               0.0 elap:               0.0
 (Enter /home/zhouoh/g16/l402.exe)
 External calculation of energy and first derivatives.
 Running external command "python ../GauUMA_client.py R"
         input file       "/home/zhouoh/scratch/Gau-2816605.EIn"
         output file      "/home/zhouoh/scratch/Gau-2816605.EOu"
         message file     "/home/zhouoh/scratch/Gau-2816605.EMs"
         fchk file        "/home/zhouoh/scratch/Gau-2816605.EFC"
         mat. el file     "/home/zhouoh/scratch/Gau-2816605.EUF"
Sent job to server.
Received result from server:
SCF Done:  E(UMA) =  -234.49365285040798     A.U.
 Recovered energy= -234.493652850     dipole=      0.000000000000      0.000000000000      0.000000000000
 Energy=    -234.493653     NIter=   0.
 Dipole moment=       0.000000       0.000000       0.000000
 Leave Link  402 at Mon Oct  6 14:26:42 2025, MaxMem=   104857600 cpu:               0.0 elap:               0.1
 (Enter /home/zhouoh/g16/l716.exe)
 Dipole        = 0.00000000D+00 0.00000000D+00 0.00000000D+00
 ***** Axes restored to original set *****
 -------------------------------------------------------------------
 Center     Atomic                   Forces (Hartrees/Bohr)
 Number     Number              X              Y              Z
 -------------------------------------------------------------------
      1        6           0.000654467    0.000259418   -0.001284322
      2        6          -0.000603950   -0.000004714    0.001310096
      3        1           0.000001658   -0.000121391    0.000080704
      4        1           0.000074631   -0.000068709   -0.000058199
      5        6          -0.000266521    0.000072237    0.000138091
      6        1           0.000128737    0.000181449    0.000341074
      7        1          -0.000130890   -0.000160766    0.000128626
      8        6           0.000367591    0.000186294    0.000225949
      9        1           0.000160450   -0.000265470   -0.000183545
     10        1          -0.000223488    0.000261759   -0.000446950
     11        6           0.000232763   -0.000164486   -0.000166770
     12        1          -0.000226482   -0.000097047   -0.000023647
     13        1          -0.000012197    0.000019194    0.000013458
     14        6          -0.000408505   -0.000046928   -0.000002000
     15        1           0.000005748    0.000029487   -0.000034551
     16        1           0.000245989   -0.000080326   -0.000038012
 -------------------------------------------------------------------
 Cartesian Forces:  Max     0.001310096 RMS     0.000343434
 Leave Link  716 at Mon Oct  6 14:26:42 2025, MaxMem=   104857600 cpu:               0.0 elap:               0.0
 (Enter /home/zhouoh/g16/l103.exe)

 GradGradGradGradGradGradGradGradGradGradGradGradGradGradGradGradGradGrad
 Berny optimization.
 FormGI is forming the generalized inverse of G from B-inverse, IUseBI=4.
 Internal  Forces:  Max     0.000735364 RMS     0.000172649
 Search for a saddle point.
 Step number  13 out of a maximum of  100
 All quantities printed in internal units (Hartrees-Bohrs-Radians)
 Swapping is turned off.
 Update second derivatives using D2CorX and points    1    2    3    4    8
                                                      9   10   11   12   13
 ITU=  0  0  0  0  0  0  0  0  0  0  0  0  0
     Eigenvalues ---   -0.03849   0.00098   0.00608   0.00852   0.00900
     Eigenvalues ---    0.01192   0.01414   0.01683   0.01769   0.02010
     Eigenvalues ---    0.02102   0.02270   0.02380   0.02464   0.02846
     Eigenvalues ---    0.03188   0.03905   0.04126   0.04639   0.04676
     Eigenvalues ---    0.05144   0.05244   0.05867   0.06188   0.09128
     Eigenvalues ---    0.11720   0.11897   0.15314   0.30173   0.30761
     Eigenvalues ---    0.32525   0.33481   0.33981   0.34824   0.34870
     Eigenvalues ---    0.35404   0.35498   0.35842   0.36071   0.43375
     Eigenvalues ---    0.43735   0.48866
 Eigenvectors required to have negative eigenvalues:
                          R13       R9        D24       D20       D6
   1                    0.54635   0.54596  -0.16295   0.16270  -0.15911
                          D13       D9        D16       A27       A34
   1                    0.14879  -0.13787   0.13430   0.12502   0.12418
 RFO step:  Lambda0=1.141656293D-07 Lambda=-4.46562015D-04.
 Linear search not attempted -- option 19 set.
 Iteration  1 RMS(Cart)=  0.05012098 RMS(Int)=  0.00215557
 Iteration  2 RMS(Cart)=  0.00204722 RMS(Int)=  0.00082006
 Iteration  3 RMS(Cart)=  0.00000212 RMS(Int)=  0.00082006
 Iteration  4 RMS(Cart)=  0.00000000 RMS(Int)=  0.00082006
 ITry= 1 IFail=0 DXMaxC= 1.79D-01 DCOld= 1.00D+10 DXMaxT= 3.00D-01 DXLimC= 3.00D+00 Rises=F
 Variable       Old X    -DE/DX   Delta X   Delta X   Delta X     New X
                                 (Linear)    (Quad)   (Total)
    R1        2.64935   0.00003   0.00000   0.00047   0.00097   2.65032
    R2        2.04855   0.00000   0.00000  -0.00002  -0.00002   2.04853
    R3        2.59295  -0.00038   0.00000  -0.00040  -0.00021   2.59274
    R4        2.04941  -0.00004   0.00000  -0.00043  -0.00043   2.04898
    R5        2.59424   0.00029   0.00000  -0.00141  -0.00108   2.59317
    R6        2.04554  -0.00007   0.00000  -0.00145  -0.00131   2.04423
    R7        2.03958   0.00002   0.00000   0.00067   0.00067   2.04025
    R8        2.60238  -0.00008   0.00000  -0.00085  -0.00135   2.60103
    R9        4.23992  -0.00015   0.00000  -0.03607  -0.03704   4.20288
   R10        4.41415  -0.00001   0.00000   0.03770   0.03829   4.45245
   R11        2.04183  -0.00007   0.00000  -0.00122  -0.00122   2.04061
   R12        2.04406   0.00003   0.00000   0.00036   0.00058   2.04465
   R13        4.16093   0.00018   0.00000   0.03757   0.03657   4.19750
   R14        4.47374   0.00002   0.00000  -0.04204  -0.04148   4.43227
   R15        2.04121  -0.00011   0.00000   0.00025   0.00047   2.04168
   R16        2.04590   0.00002   0.00000   0.00013   0.00013   2.04603
   R17        2.04591  -0.00003   0.00000  -0.00014  -0.00014   2.04577
   R18        2.04105   0.00015   0.00000  -0.00008   0.00018   2.04123
    A1        2.06750  -0.00047   0.00000  -0.00151  -0.00138   2.06612
    A2        2.11522   0.00070   0.00000   0.00087   0.00027   2.11549
    A3        2.07773  -0.00023   0.00000   0.00004   0.00034   2.07808
    A4        2.06221   0.00048   0.00000   0.00151   0.00158   2.06379
    A5        2.12064  -0.00074   0.00000  -0.00205  -0.00254   2.11810
    A6        2.07387   0.00027   0.00000   0.00122   0.00148   2.07535
    A7        2.01766  -0.00002   0.00000  -0.00252  -0.00269   2.01496
    A8        2.08712   0.00005   0.00000   0.00061   0.00142   2.08854
    A9        1.60973  -0.00012   0.00000  -0.02386  -0.02381   1.58592
   A10        2.09957  -0.00005   0.00000  -0.00265  -0.00282   2.09675
   A11        1.56091   0.00019   0.00000   0.02946   0.03092   1.59183
   A12        1.90145  -0.00003   0.00000   0.00494   0.00217   1.90363
   A13        1.38801   0.00009   0.00000  -0.00828  -0.01012   1.37789
   A14        2.09068   0.00017   0.00000   0.00700   0.00710   2.09779
   A15        2.09492  -0.00015   0.00000  -0.00595  -0.00533   2.08959
   A16        1.89953   0.00006   0.00000   0.00625   0.00346   1.90299
   A17        2.01105   0.00001   0.00000   0.00242   0.00220   2.01325
   A18        1.62887  -0.00020   0.00000  -0.03275  -0.03133   1.59754
   A19        1.56098   0.00006   0.00000   0.01836   0.01864   1.57962
   A20        1.35830   0.00001   0.00000   0.02038   0.01867   1.37697
   A21        1.77849  -0.00015   0.00000  -0.01230  -0.01231   1.76618
   A22        2.10767   0.00006   0.00000  -0.00117  -0.00112   2.10655
   A23        2.09657  -0.00007   0.00000  -0.00181  -0.00175   2.09482
   A24        1.46912   0.00017   0.00000   0.02579   0.02473   1.49385
   A25        1.81194   0.00001   0.00000  -0.00433  -0.00404   1.80791
   A26        2.00604   0.00002   0.00000   0.00018   0.00030   2.00634
   A27        1.52556  -0.00018   0.00000  -0.05879  -0.05890   1.46666
   A28        1.75836   0.00008   0.00000   0.00861   0.00871   1.76706
   A29        2.09186   0.00009   0.00000   0.00234   0.00240   2.09426
   A30        2.10713  -0.00005   0.00000   0.00140   0.00146   2.10859
   A31        1.81231  -0.00005   0.00000  -0.00174  -0.00149   1.81082
   A32        1.50341  -0.00010   0.00000  -0.01633  -0.01739   1.48601
   A33        2.00671  -0.00003   0.00000  -0.00036  -0.00027   2.00644
   A34        1.41378   0.00011   0.00000   0.05403   0.05401   1.46779
    D1        0.00959  -0.00001   0.00000  -0.00960  -0.00960  -0.00002
    D2       -2.88390  -0.00011   0.00000  -0.01291  -0.01220  -2.89610
    D3        2.92154  -0.00008   0.00000  -0.01261  -0.01332   2.90821
    D4        0.02805  -0.00018   0.00000  -0.01592  -0.01592   0.01213
    D5       -1.01787  -0.00003   0.00000  -0.02455  -0.02298  -1.04085
    D6        0.55764   0.00009   0.00000  -0.00162  -0.00133   0.55631
    D7       -3.00505   0.00010   0.00000  -0.00928  -0.00825  -3.01330
    D8        1.89277  -0.00013   0.00000  -0.02777  -0.02695   1.86582
    D9       -2.81491  -0.00001   0.00000  -0.00484  -0.00530  -2.82021
   D10       -0.09441  -0.00001   0.00000  -0.01250  -0.01222  -0.10663
   D11        1.04343   0.00010   0.00000  -0.01150  -0.01303   1.03041
   D12        3.01446   0.00014   0.00000  -0.00654  -0.00761   3.00685
   D13       -0.56046   0.00018   0.00000   0.00234   0.00201  -0.55845
   D14       -1.84844  -0.00003   0.00000  -0.01486  -0.01565  -1.86409
   D15        0.12258   0.00001   0.00000  -0.00991  -0.01023   0.11235
   D16        2.83085   0.00005   0.00000  -0.00103  -0.00061   2.83024
   D17       -1.92393  -0.00017   0.00000  -0.05347  -0.05349  -1.97741
   D18        1.63223  -0.00012   0.00000  -0.04144  -0.04271   1.58952
   D19       -0.34543  -0.00001   0.00000  -0.03233  -0.03069  -0.37612
   D20        2.75929  -0.00012   0.00000  -0.05992  -0.05861   2.70069
   D21        0.07313  -0.00019   0.00000  -0.06916  -0.06915   0.00398
   D22       -1.68394  -0.00024   0.00000  -0.09333  -0.09212  -1.77606
   D23        0.05191  -0.00007   0.00000  -0.04740  -0.04742   0.00450
   D24       -2.63425  -0.00015   0.00000  -0.05664  -0.05796  -2.69221
   D25        1.89187  -0.00020   0.00000  -0.08081  -0.08093   1.81093
   D26       -1.70847  -0.00027   0.00000  -0.08618  -0.08622  -1.79469
   D27        1.88856  -0.00034   0.00000  -0.09542  -0.09677   1.79179
   D28        0.13148  -0.00039   0.00000  -0.11959  -0.11973   0.01175
   D29        2.90815   0.00018   0.00000   0.10219   0.10233   3.01048
   D30        0.80925   0.00009   0.00000   0.09869   0.09911   0.90837
   D31       -1.18549   0.00003   0.00000   0.09273   0.09324  -1.09225
   D32       -1.35742   0.00017   0.00000   0.10062   0.10019  -1.25723
   D33        2.82687   0.00008   0.00000   0.09712   0.09697   2.92384
   D34        0.83213   0.00002   0.00000   0.09116   0.09109   0.92322
   D35        0.77198   0.00018   0.00000   0.11051   0.11034   0.88232
   D36       -1.32692   0.00009   0.00000   0.10701   0.10712  -1.21980
   D37        2.96153   0.00004   0.00000   0.10105   0.10125   3.06277
   D38        0.78033   0.00006   0.00000   0.08394   0.08322   0.86355
   D39       -1.53811  -0.00009   0.00000  -0.04208  -0.04083  -1.57894
   D40        2.03911  -0.00020   0.00000  -0.05220  -0.05224   1.98687
   D41        0.40874  -0.00001   0.00000  -0.02468  -0.02645   0.38229
   D42       -1.00287   0.00007   0.00000   0.10299   0.10312  -0.89975
   D43        3.10474  -0.00005   0.00000   0.09740   0.09728  -3.08116
   D44        1.10135   0.00001   0.00000   0.10176   0.10169   1.20305
   D45        1.14504   0.00018   0.00000   0.09792   0.09815   1.24319
   D46       -1.03054   0.00007   0.00000   0.09233   0.09232  -0.93822
   D47       -3.03392   0.00012   0.00000   0.09669   0.09673  -2.93719
   D48       -3.12691   0.00019   0.00000   0.10090   0.10062  -3.02629
   D49        0.98070   0.00008   0.00000   0.09530   0.09478   1.07548
   D50       -1.02269   0.00013   0.00000   0.09967   0.09919  -0.92350
   D51       -0.96195   0.00010   0.00000   0.08074   0.08127  -0.88068
   D52       -2.09440   0.00005   0.00000  -0.03229  -0.03058  -2.12498
   D53       -0.34212  -0.00002   0.00000  -0.03149  -0.03038  -0.37251
   D54        1.44772   0.00007   0.00000  -0.02457  -0.02354   1.42418
   D55        2.15490  -0.00001   0.00000  -0.02522  -0.02702   2.12787
   D56        0.40586  -0.00004   0.00000  -0.02563  -0.02692   0.37894
   D57       -1.40011   0.00006   0.00000  -0.01613  -0.01726  -1.41737
         Item               Value     Threshold  Converged?
 Maximum Force            0.000735     0.000450     NO 
 RMS     Force            0.000173     0.000300     YES
 Maximum Displacement     0.178875     0.001800     NO 
 RMS     Displacement     0.050066     0.001200     NO 
 Predicted change in Energy=-2.882621D-04
 GradGradGradGradGradGradGradGradGradGradGradGradGradGradGradGradGradGrad

 Leave Link  103 at Mon Oct  6 14:26:42 2025, MaxMem=   104857600 cpu:               0.0 elap:               0.0
 (Enter /home/zhouoh/g16/l202.exe)
                          Input orientation:                          
 ---------------------------------------------------------------------
 Center     Atomic      Atomic             Coordinates (Angstroms)
 Number     Number       Type             X           Y           Z
 ---------------------------------------------------------------------
      1          6           0       -1.291040    0.701092    0.306229
      2          6           0       -1.293720   -0.701371    0.298099
      3          1           0       -1.813063    1.212722    1.106766
      4          1           0       -1.818470   -1.218137    1.093866
      5          6           0        1.538551    0.687582    0.222551
      6          1           0        2.041950    1.216694   -0.575470
      7          1           0        1.430108    1.235646    1.146411
      8          6           0        1.534892   -0.688791    0.231092
      9          1           0        1.419443   -1.225818    1.160790
     10          1           0        2.038401   -1.231525   -0.557959
     11          6           0       -0.436704    1.415043   -0.495533
     12          1           0       -0.134320    1.031055   -1.459072
     13          1           0       -0.365646    2.490206   -0.389492
     14          6           0       -0.433616   -1.412493   -0.500389
     15          1           0       -0.366007   -2.488237   -0.399531
     16          1           0       -0.117758   -1.023642   -1.457363
 ---------------------------------------------------------------------
                    Distance matrix (angstroms):
                    1          2          3          4          5
     1  C    0.000000
     2  C    1.402489   0.000000
     3  H    1.084036   2.141824   0.000000
     4  H    2.140559   1.084276   2.430899   0.000000
     5  C    2.830860   3.155418   3.505842   3.957341   0.000000
     6  H    3.485980   3.945731   4.206074   4.859828   1.081761
     7  H    2.897636   3.448319   3.243493   4.071495   1.079653
     8  C    3.150129   2.829433   3.948589   3.502802   1.376405
     9  H    3.433653   2.894915   4.049505   3.238614   2.134381
    10  H    3.945504   3.480937   4.855864   4.195730   2.131200
    11  C    1.372019   2.417340   2.121947   3.371810   2.224068
    12  H    2.136156   2.726381   3.071596   3.796408   2.396733
    13  H    2.131035   3.394152   2.442492   4.250042   2.692586
    14  C    2.419308   1.372245   3.373066   2.120670   2.970253
    15  H    3.394938   2.130782   4.249706   2.439885   3.755018
    16  H    2.731584   2.137379   3.801334   3.072298   2.914405
                    6          7          8          9         10
     6  H    0.000000
     7  H    1.827453   0.000000
     8  C    2.130381   2.133600   0.000000
     9  H    3.060716   2.461529   1.079845   0.000000
    10  H    2.448284   3.059710   1.081980   1.826811   0.000000
    11  C    2.487862   2.492619   2.973431   3.628062   3.624136
    12  H    2.356134   3.045953   2.932711   3.790954   3.263738
    13  H    2.730007   2.675378   3.755422   4.404402   4.433859
    14  C    3.612020   3.632913   2.221223   2.495635   2.479301
    15  H    4.422186   4.413986   2.692417   2.686287   2.717646
    16  H    3.234374   3.778876   2.386263   3.042793   2.345456
                   11         12         13         14         15
    11  C    0.000000
    12  H    1.080412   0.000000
    13  H    1.082714   1.823907   0.000000
    14  C    2.827542   2.641889   3.904866   0.000000
    15  H    3.905101   3.682624   4.978454   1.082575   0.000000
    16  H    2.640838   2.054764   3.680887   1.080172   1.823643
                   16
    16  H    0.000000
 Stoichiometry    C6H10
 Framework group  C1[X(C6H10)]
 Deg. of freedom    42
 Full point group                 C1      NOp   1
 RotChk:  IX=3 Diff= 3.55D-02
 Largest Abelian subgroup         C1      NOp   1
 Largest concise Abelian subgroup C1      NOp   1
                         Standard orientation:                         
 ---------------------------------------------------------------------
 Center     Atomic      Atomic             Coordinates (Angstroms)
 Number     Number       Type             X           Y           Z
 ---------------------------------------------------------------------
      1          6           0       -1.294067   -0.699321   -0.298518
      2          6           0       -1.294676    0.703150   -0.291401
      3          1           0       -1.820729   -1.210772   -1.096125
      4          1           0       -1.822552    1.220101   -1.084978
      5          6           0        1.535915   -0.689860   -0.228648
      6          1           0        2.042433   -1.219123    0.567295
      7          1           0        1.422173   -1.238435   -1.151567
      8          6           0        1.534208    0.686511   -0.238179
      9          1           0        1.415004    1.223031   -1.167696
     10          1           0        2.042345    1.229084    0.548010
     11          6           0       -0.436867   -1.413930    0.499591
     12          1           0       -0.129231   -1.029683    1.461363
     13          1           0       -0.367885   -2.489272    0.393991
     14          6           0       -0.429659    1.413601    0.502362
     15          1           0       -0.360984    2.489173    0.400389
     16          1           0       -0.109700    1.024985    1.458069
 ---------------------------------------------------------------------
 Rotational constants (GHZ):           4.4130479           3.5990243           2.3449999
 Leave Link  202 at Mon Oct  6 14:26:42 2025, MaxMem=   104857600 cpu:               0.0 elap:               0.0
 (Enter /home/zhouoh/g16/l301.exe)
 Standard basis: STO-3G (5D, 7F)
 Ernie: Thresh=  0.10000D-02 Tol=  0.10000D-05 Strict=F.
 There are    40 symmetry adapted cartesian basis functions of A   symmetry.
 There are    40 symmetry adapted basis functions of A   symmetry.
    40 basis functions,   120 primitive gaussians,    40 cartesian basis functions
    23 alpha electrons       23 beta electrons
       nuclear repulsion energy       226.7297256839 Hartrees.
 IExCor=    0 DFT=F Ex=HF Corr=None ExCW=0 ScaHFX=  1.000000
 ScaDFX=  1.000000  1.000000  1.000000  1.000000 ScalE2=  1.000000  1.000000
 IRadAn=      5 IRanWt=     -1 IRanGd=            0 ICorTp=0 IEmpDi=  4
 NAtoms=   16 NActive=   16 NUniq=   16 SFac= 1.00D+00 NAtFMM=   60 NAOKFM=F Big=F
 Integral buffers will be    131072 words long.
 Raffenetti 1 integral format.
 Two-electron integral symmetry is turned on.
 Leave Link  301 at Mon Oct  6 14:26:42 2025, MaxMem=   104857600 cpu:               0.0 elap:               0.0
 (Enter /home/zhouoh/g16/l402.exe)
 External calculation of energy and first derivatives.
 Running external command "python ../GauUMA_client.py R"
         input file       "/home/zhouoh/scratch/Gau-2816605.EIn"
         output file      "/home/zhouoh/scratch/Gau-2816605.EOu"
         message file     "/home/zhouoh/scratch/Gau-2816605.EMs"
         fchk file        "/home/zhouoh/scratch/Gau-2816605.EFC"
         mat. el file     "/home/zhouoh/scratch/Gau-2816605.EUF"
Sent job to server.
Received result from server:
SCF Done:  E(UMA) =  -234.49386740305425     A.U.
 Recovered energy= -234.493867403     dipole=      0.000000000000      0.000000000000      0.000000000000
 Energy=    -234.493867     NIter=   0.
 Dipole moment=       0.000000       0.000000       0.000000
 Leave Link  402 at Mon Oct  6 14:26:42 2025, MaxMem=   104857600 cpu:               0.0 elap:               0.1
 (Enter /home/zhouoh/g16/l716.exe)
 Dipole        = 0.00000000D+00 0.00000000D+00 0.00000000D+00
 ***** Axes restored to original set *****
 -------------------------------------------------------------------
 Center     Atomic                   Forces (Hartrees/Bohr)
 Number     Number              X              Y              Z
 -------------------------------------------------------------------
      1        6          -0.000280539   -0.000364733   -0.000602171
      2        6           0.000189995    0.000280408    0.000500004
      3        1          -0.000008180    0.000048664    0.000034911
      4        1          -0.000018020   -0.000049138    0.000031127
      5        6           0.000050458    0.000393694   -0.000050662
      6        1           0.000028777    0.000188567   -0.000158308
      7        1           0.000044439   -0.000046083    0.000052821
      8        6           0.000333190   -0.000469568    0.000112925
      9        1          -0.000151365   -0.000000659    0.000025018
     10        1          -0.000090323    0.000001476   -0.000001154
     11        6          -0.000036674    0.000203078    0.000156269
     12        1           0.000102017    0.000052952    0.000099233
     13        1           0.000053491    0.000012779    0.000028399
     14        6          -0.000129315   -0.000194811   -0.000307909
     15        1          -0.000043167   -0.000012434   -0.000044846
     16        1          -0.000044782   -0.000044194    0.000124345
 -------------------------------------------------------------------
 Cartesian Forces:  Max     0.000602171 RMS     0.000194597
 Leave Link  716 at Mon Oct  6 14:26:42 2025, MaxMem=   104857600 cpu:               0.0 elap:               0.0
 (Enter /home/zhouoh/g16/l103.exe)

 GradGradGradGradGradGradGradGradGradGradGradGradGradGradGradGradGradGrad
 Berny optimization.
 FormGI is forming the generalized inverse of G from B-inverse, IUseBI=4.
 Internal  Forces:  Max     0.000571583 RMS     0.000085810
 Search for a saddle point.
 Step number  14 out of a maximum of  100
 All quantities printed in internal units (Hartrees-Bohrs-Radians)
 Swapping is turned off.
 Update second derivatives using D2CorX and points    1    4    5    6    7
                                                      8    9   10   11   13
                                                     14
 ITU=  0  0  0  0  0  0  0  0  0  0  0  0  0  0
     Eigenvalues ---   -0.03872   0.00141   0.00523   0.00783   0.00825
     Eigenvalues ---    0.01185   0.01418   0.01694   0.01819   0.02037
     Eigenvalues ---    0.02108   0.02271   0.02364   0.02445   0.02717
     Eigenvalues ---    0.03377   0.03873   0.04141   0.04664   0.04749
     Eigenvalues ---    0.05152   0.05245   0.05833   0.06280   0.09130
     Eigenvalues ---    0.11716   0.11900   0.16115   0.30244   0.30801
     Eigenvalues ---    0.32555   0.33521   0.34004   0.34827   0.34871
     Eigenvalues ---    0.35408   0.35497   0.35843   0.36070   0.43483
     Eigenvalues ---    0.43752   0.48903
 Eigenvectors required to have negative eigenvalues:
                          R9        R13       D20       D24       D6
   1                    0.55280   0.54008   0.16360  -0.16109  -0.15892
                          D13       D9        D16       A27       D40
   1                    0.14995  -0.13890   0.13416   0.12597  -0.12259
 RFO step:  Lambda0=3.723202128D-07 Lambda=-1.08496539D-05.
 Linear search not attempted -- option 19 set.
 Iteration  1 RMS(Cart)=  0.00254490 RMS(Int)=  0.00000614
 Iteration  2 RMS(Cart)=  0.00000640 RMS(Int)=  0.00000322
 Iteration  3 RMS(Cart)=  0.00000000 RMS(Int)=  0.00000322
 ITry= 1 IFail=0 DXMaxC= 1.07D-02 DCOld= 1.00D+10 DXMaxT= 3.00D-01 DXLimC= 3.00D+00 Rises=F
 Variable       Old X    -DE/DX   Delta X   Delta X   Delta X     New X
                                 (Linear)    (Quad)   (Total)
    R1        2.65032  -0.00008   0.00000  -0.00097  -0.00097   2.64935
    R2        2.04853   0.00005   0.00000   0.00010   0.00010   2.04863
    R3        2.59274   0.00009   0.00000   0.00118   0.00118   2.59392
    R4        2.04898   0.00006   0.00000   0.00031   0.00031   2.04930
    R5        2.59317   0.00016   0.00000   0.00010   0.00010   2.59327
    R6        2.04423   0.00019   0.00000   0.00061   0.00061   2.04484
    R7        2.04025   0.00002   0.00000   0.00012   0.00012   2.04037
    R8        2.60103   0.00057   0.00000   0.00152   0.00152   2.60255
    R9        4.20288   0.00009   0.00000  -0.00694  -0.00694   4.19594
   R10        4.45245  -0.00005   0.00000  -0.01473  -0.01472   4.43772
   R11        2.04061   0.00004   0.00000   0.00007   0.00007   2.04068
   R12        2.04465  -0.00003   0.00000  -0.00025  -0.00025   2.04440
   R13        4.19750   0.00014   0.00000   0.00378   0.00378   4.20128
   R14        4.43227   0.00003   0.00000  -0.00008  -0.00008   4.43219
   R15        2.04168  -0.00006   0.00000  -0.00021  -0.00021   2.04148
   R16        2.04603   0.00002   0.00000   0.00005   0.00005   2.04609
   R17        2.04577   0.00001   0.00000   0.00001   0.00001   2.04578
   R18        2.04123  -0.00012   0.00000  -0.00029  -0.00029   2.04094
    A1        2.06612  -0.00009   0.00000   0.00064   0.00064   2.06677
    A2        2.11549   0.00022   0.00000  -0.00107  -0.00108   2.11441
    A3        2.07808  -0.00015   0.00000  -0.00052  -0.00052   2.07756
    A4        2.06379   0.00004   0.00000  -0.00100  -0.00100   2.06278
    A5        2.11810  -0.00001   0.00000   0.00301   0.00301   2.12110
    A6        2.07535  -0.00001   0.00000  -0.00109  -0.00109   2.07425
    A7        2.01496  -0.00001   0.00000  -0.00029  -0.00029   2.01467
    A8        2.08854   0.00013   0.00000   0.00053   0.00053   2.08907
    A9        1.58592  -0.00003   0.00000   0.00026   0.00026   1.58618
   A10        2.09675  -0.00011   0.00000  -0.00176  -0.00176   2.09499
   A11        1.59183   0.00007   0.00000   0.00255   0.00256   1.59439
   A12        1.90363  -0.00006   0.00000   0.00075   0.00075   1.90438
   A13        1.37789  -0.00003   0.00000  -0.00066  -0.00066   1.37723
   A14        2.09779  -0.00005   0.00000  -0.00032  -0.00033   2.09746
   A15        2.08959   0.00006   0.00000   0.00100   0.00100   2.09060
   A16        1.90299   0.00002   0.00000   0.00009   0.00010   1.90309
   A17        2.01325   0.00002   0.00000   0.00109   0.00109   2.01433
   A18        1.59754  -0.00004   0.00000  -0.00152  -0.00152   1.59602
   A19        1.57962  -0.00005   0.00000  -0.00266  -0.00266   1.57696
   A20        1.37697   0.00003   0.00000   0.00325   0.00325   1.38022
   A21        1.76618   0.00002   0.00000   0.00496   0.00495   1.77113
   A22        2.10655  -0.00002   0.00000  -0.00072  -0.00072   2.10583
   A23        2.09482   0.00004   0.00000   0.00088   0.00087   2.09569
   A24        1.49385  -0.00006   0.00000  -0.00427  -0.00427   1.48958
   A25        1.80791   0.00001   0.00000   0.00026   0.00025   1.80816
   A26        2.00634  -0.00002   0.00000  -0.00083  -0.00083   2.00551
   A27        1.46666   0.00010   0.00000   0.00409   0.00409   1.47075
   A28        1.76706  -0.00003   0.00000  -0.00213  -0.00213   1.76493
   A29        2.09426   0.00003   0.00000  -0.00117  -0.00117   2.09309
   A30        2.10859  -0.00003   0.00000   0.00077   0.00077   2.10936
   A31        1.81082   0.00002   0.00000   0.00076   0.00075   1.81158
   A32        1.48601   0.00000   0.00000   0.00159   0.00159   1.48760
   A33        2.00644  -0.00000   0.00000   0.00050   0.00050   2.00694
   A34        1.46779   0.00002   0.00000  -0.00074  -0.00074   1.46705
    D1       -0.00002   0.00002   0.00000  -0.00103  -0.00103  -0.00105
    D2       -2.89610  -0.00007   0.00000  -0.00513  -0.00513  -2.90122
    D3        2.90821  -0.00009   0.00000  -0.00571  -0.00570   2.90251
    D4        0.01213  -0.00018   0.00000  -0.00980  -0.00980   0.00233
    D5       -1.04085   0.00013   0.00000   0.00719   0.00719  -1.03366
    D6        0.55631   0.00007   0.00000   0.00495   0.00495   0.56126
    D7       -3.01330   0.00008   0.00000   0.00294   0.00293  -3.01037
    D8        1.86582   0.00002   0.00000   0.00263   0.00264   1.86845
    D9       -2.82021  -0.00003   0.00000   0.00040   0.00040  -2.81981
   D10       -0.10663  -0.00003   0.00000  -0.00162  -0.00162  -0.10825
   D11        1.03041   0.00006   0.00000   0.00262   0.00262   1.03303
   D12        3.00685   0.00008   0.00000   0.00150   0.00150   3.00835
   D13       -0.55845   0.00008   0.00000   0.00186   0.00186  -0.55659
   D14       -1.86409  -0.00003   0.00000  -0.00152  -0.00152  -1.86561
   D15        0.11235  -0.00001   0.00000  -0.00264  -0.00264   0.10971
   D16        2.83024  -0.00002   0.00000  -0.00228  -0.00228   2.82796
   D17       -1.97741  -0.00006   0.00000  -0.00377  -0.00377  -1.98118
   D18        1.58952  -0.00005   0.00000   0.00036   0.00036   1.58988
   D19       -0.37612   0.00001   0.00000  -0.00082  -0.00082  -0.37694
   D20        2.70069   0.00005   0.00000   0.00224   0.00224   2.70293
   D21        0.00398  -0.00003   0.00000  -0.00255  -0.00255   0.00143
   D22       -1.77606  -0.00001   0.00000   0.00023   0.00023  -1.77583
   D23        0.00450   0.00003   0.00000   0.00617   0.00616   0.01066
   D24       -2.69221  -0.00004   0.00000   0.00138   0.00138  -2.69083
   D25        1.81093  -0.00003   0.00000   0.00416   0.00416   1.81509
   D26       -1.79469   0.00004   0.00000   0.00331   0.00331  -1.79137
   D27        1.79179  -0.00004   0.00000  -0.00147  -0.00147   1.79032
   D28        0.01175  -0.00002   0.00000   0.00131   0.00131   0.01306
   D29        3.01048  -0.00003   0.00000  -0.00258  -0.00259   3.00789
   D30        0.90837  -0.00000   0.00000  -0.00119  -0.00119   0.90717
   D31       -1.09225   0.00003   0.00000   0.00064   0.00064  -1.09162
   D32       -1.25723  -0.00004   0.00000  -0.00280  -0.00280  -1.26003
   D33        2.92384  -0.00001   0.00000  -0.00141  -0.00141   2.92243
   D34        0.92322   0.00002   0.00000   0.00042   0.00042   0.92365
   D35        0.88232  -0.00015   0.00000  -0.00344  -0.00345   0.87887
   D36       -1.21980  -0.00012   0.00000  -0.00205  -0.00205  -1.22185
   D37        3.06277  -0.00009   0.00000  -0.00022  -0.00022   3.06255
   D38        0.86355   0.00003   0.00000   0.00011   0.00011   0.86366
   D39       -1.57894  -0.00004   0.00000   0.00044   0.00044  -1.57850
   D40        1.98687  -0.00009   0.00000  -0.00377  -0.00378   1.98309
   D41        0.38229  -0.00003   0.00000  -0.00086  -0.00085   0.38143
   D42       -0.89975   0.00007   0.00000   0.00096   0.00097  -0.89878
   D43       -3.08116   0.00004   0.00000   0.00289   0.00289  -3.07827
   D44        1.20305   0.00004   0.00000   0.00199   0.00200   1.20504
   D45        1.24319   0.00001   0.00000  -0.00001  -0.00001   1.24318
   D46       -0.93822  -0.00003   0.00000   0.00191   0.00191  -0.93631
   D47       -2.93719  -0.00002   0.00000   0.00102   0.00102  -2.93618
   D48       -3.02629   0.00002   0.00000   0.00096   0.00096  -3.02534
   D49        1.07548  -0.00001   0.00000   0.00288   0.00288   1.07836
   D50       -0.92350  -0.00001   0.00000   0.00199   0.00199  -0.92151
   D51       -0.88068  -0.00003   0.00000   0.00119   0.00120  -0.87948
   D52       -2.12498  -0.00003   0.00000  -0.00410  -0.00410  -2.12908
   D53       -0.37251  -0.00004   0.00000  -0.00088  -0.00088  -0.37339
   D54        1.42418  -0.00005   0.00000  -0.00258  -0.00258   1.42160
   D55        2.12787  -0.00003   0.00000  -0.00213  -0.00213   2.12575
   D56        0.37894  -0.00001   0.00000  -0.00060  -0.00060   0.37834
   D57       -1.41737  -0.00003   0.00000  -0.00217  -0.00217  -1.41954
         Item               Value     Threshold  Converged?
 Maximum Force            0.000572     0.000450     NO 
 RMS     Force            0.000086     0.000300     YES
 Maximum Displacement     0.010740     0.001800     NO 
 RMS     Displacement     0.002544     0.001200     NO 
 Predicted change in Energy=-5.238579D-06
 GradGradGradGradGradGradGradGradGradGradGradGradGradGradGradGradGradGrad

 Leave Link  103 at Mon Oct  6 14:26:42 2025, MaxMem=   104857600 cpu:               0.0 elap:               0.0
 (Enter /home/zhouoh/g16/l202.exe)
                          Input orientation:                          
 ---------------------------------------------------------------------
 Center     Atomic      Atomic             Coordinates (Angstroms)
 Number     Number       Type             X           Y           Z
 ---------------------------------------------------------------------
      1          6           0       -1.293670    0.700740    0.304847
      2          6           0       -1.292470   -0.701219    0.297990
      3          1           0       -1.818746    1.212294    1.103509
      4          1           0       -1.817128   -1.217834    1.094141
      5          6           0        1.538332    0.689195    0.221336
      6          1           0        2.040945    1.219032   -0.577137
      7          1           0        1.433488    1.235905    1.146485
      8          6           0        1.535666   -0.687981    0.230389
      9          1           0        1.418977   -1.224458    1.160291
     10          1           0        2.036793   -1.231518   -0.559443
     11          6           0       -0.434797    1.415362   -0.492529
     12          1           0       -0.129052    1.031881   -1.455087
     13          1           0       -0.363914    2.490577   -0.386596
     14          6           0       -0.434230   -1.414225   -0.500914
     15          1           0       -0.367597   -2.489755   -0.397120
     16          1           0       -0.119599   -1.027969   -1.459167
 ---------------------------------------------------------------------
                    Distance matrix (angstroms):
                    1          2          3          4          5
     1  C    0.000000
     2  C    1.401976   0.000000
     3  H    1.084091   2.141812   0.000000
     4  H    2.139607   1.084442   2.430147   0.000000
     5  C    2.833257   3.154769   3.510248   3.956976   0.000000
     6  H    3.488005   3.945233   4.209731   4.859652   1.082084
     7  H    2.903815   3.450107   3.252603   4.073092   1.079716
     8  C    3.152654   2.828974   3.952906   3.502576   1.377209
     9  H    3.434621   2.892972   4.052633   3.236787   2.134936
    10  H    3.946213   3.478563   4.858272   4.193713   2.132420
    11  C    1.372646   2.416699   2.122237   3.370769   2.220396
    12  H    2.136202   2.725886   3.071486   3.795969   2.389142
    13  H    2.132148   3.393881   2.443554   4.249321   2.689442
    14  C    2.420942   1.372297   3.374856   2.120183   2.972712
    15  H    3.395530   2.130124   4.250045   2.437782   3.757762
    16  H    2.734707   2.137754   3.804364   3.071976   2.919157
                    6          7          8          9         10
     6  H    0.000000
     7  H    1.827611   0.000000
     8  C    2.131691   2.133310   0.000000
     9  H    3.062049   2.460445   1.079880   0.000000
    10  H    2.450618   3.059795   1.081848   1.827356   0.000000
    11  C    2.484956   2.491798   2.971429   3.624492   3.622045
    12  H    2.348342   3.041601   2.927464   3.785190   3.258227
    13  H    2.726992   2.674919   3.753973   4.401482   4.432524
    14  C    3.614740   3.636685   2.223223   2.495994   2.478459
    15  H    4.425899   4.416692   2.694915   2.686699   2.718566
    16  H    3.239590   3.785054   2.389580   3.044238   2.345413
                   11         12         13         14         15
    11  C    0.000000
    12  H    1.080303   0.000000
    13  H    1.082743   1.823356   0.000000
    14  C    2.829599   2.643296   3.907107   0.000000
    15  H    3.906860   3.684850   4.980344   1.082580   0.000000
    16  H    2.646433   2.059877   3.686498   1.080016   1.823805
                   16
    16  H    0.000000
 Stoichiometry    C6H10
 Framework group  C1[X(C6H10)]
 Deg. of freedom    42
 Full point group                 C1      NOp   1
 RotChk:  IX=3 Diff= 6.54D-03
 Largest Abelian subgroup         C1      NOp   1
 Largest concise Abelian subgroup C1      NOp   1
                         Standard orientation:                         
 ---------------------------------------------------------------------
 Center     Atomic      Atomic             Coordinates (Angstroms)
 Number     Number       Type             X           Y           Z
 ---------------------------------------------------------------------
      1          6           0       -1.293719   -0.704982   -0.295972
      2          6           0       -1.296777    0.696982   -0.291389
      3          1           0       -1.821498   -1.219443   -1.090976
      4          1           0       -1.827274    1.210691   -1.085551
      5          6           0        1.538642   -0.684650   -0.227669
      6          1           0        2.047147   -1.211643    0.568952
      7          1           0        1.430516   -1.233189   -1.151357
      8          6           0        1.531708    0.692496   -0.238937
      9          1           0        1.408394    1.227092   -1.169067
     10          1           0        2.035392    1.238851    0.547314
     11          6           0       -0.428400   -1.415673    0.497942
     12          1           0       -0.118678   -1.029687    1.458224
     13          1           0       -0.354793   -2.490838    0.393371
     14          6           0       -0.436457    1.413912    0.501744
     15          1           0       -0.373677    2.489470    0.395855
     16          1           0       -0.115514    1.030187    1.458920
 ---------------------------------------------------------------------
 Rotational constants (GHZ):           4.4118077           3.5990958           2.3432966
 Leave Link  202 at Mon Oct  6 14:26:42 2025, MaxMem=   104857600 cpu:               0.0 elap:               0.0
 (Enter /home/zhouoh/g16/l301.exe)
 Standard basis: STO-3G (5D, 7F)
 Ernie: Thresh=  0.10000D-02 Tol=  0.10000D-05 Strict=F.
 There are    40 symmetry adapted cartesian basis functions of A   symmetry.
 There are    40 symmetry adapted basis functions of A   symmetry.
    40 basis functions,   120 primitive gaussians,    40 cartesian basis functions
    23 alpha electrons       23 beta electrons
       nuclear repulsion energy       226.7005378701 Hartrees.
 IExCor=    0 DFT=F Ex=HF Corr=None ExCW=0 ScaHFX=  1.000000
 ScaDFX=  1.000000  1.000000  1.000000  1.000000 ScalE2=  1.000000  1.000000
 IRadAn=      5 IRanWt=     -1 IRanGd=            0 ICorTp=0 IEmpDi=  4
 NAtoms=   16 NActive=   16 NUniq=   16 SFac= 1.00D+00 NAtFMM=   60 NAOKFM=F Big=F
 Integral buffers will be    131072 words long.
 Raffenetti 1 integral format.
 Two-electron integral symmetry is turned on.
 Leave Link  301 at Mon Oct  6 14:26:42 2025, MaxMem=   104857600 cpu:               0.0 elap:               0.0
 (Enter /home/zhouoh/g16/l402.exe)
 External calculation of energy and first derivatives.
 Running external command "python ../GauUMA_client.py R"
         input file       "/home/zhouoh/scratch/Gau-2816605.EIn"
         output file      "/home/zhouoh/scratch/Gau-2816605.EOu"
         message file     "/home/zhouoh/scratch/Gau-2816605.EMs"
         fchk file        "/home/zhouoh/scratch/Gau-2816605.EFC"
         mat. el file     "/home/zhouoh/scratch/Gau-2816605.EUF"
Sent job to server.
Received result from server:
SCF Done:  E(UMA) =  -234.4938700403323     A.U.
 Recovered energy= -234.493870040     dipole=      0.000000000000      0.000000000000      0.000000000000
 Energy=    -234.493870     NIter=   0.
 Dipole moment=       0.000000       0.000000       0.000000
 Leave Link  402 at Mon Oct  6 14:26:42 2025, MaxMem=   104857600 cpu:               0.0 elap:               0.1
 (Enter /home/zhouoh/g16/l716.exe)
 Dipole        = 0.00000000D+00 0.00000000D+00 0.00000000D+00
 ***** Axes restored to original set *****
 -------------------------------------------------------------------
 Center     Atomic                   Forces (Hartrees/Bohr)
 Number     Number              X              Y              Z
 -------------------------------------------------------------------
      1        6          -0.000192652   -0.000011276    0.000375175
      2        6           0.000226160   -0.000058688   -0.000362286
      3        1           0.000002196   -0.000042944    0.000029886
      4        1           0.000006332   -0.000032017   -0.000030113
      5        6           0.000068788   -0.000016462    0.000015922
      6        1          -0.000006565   -0.000005896    0.000016789
      7        1          -0.000006052    0.000004003    0.000010514
      8        6          -0.000069160    0.000017075   -0.000005745
      9        1           0.000007554    0.000010406   -0.000014662
     10        1           0.000035715   -0.000005046    0.000016174
     11        6          -0.000067839   -0.000012404   -0.000019297
     12        1          -0.000036328    0.000045771   -0.000001751
     13        1          -0.000031880    0.000000938    0.000069101
     14        6           0.000036404    0.000036963   -0.000023583
     15        1           0.000033617    0.000004118   -0.000076087
     16        1          -0.000006286    0.000065459   -0.000000035
 -------------------------------------------------------------------
 Cartesian Forces:  Max     0.000375175 RMS     0.000092447
 Leave Link  716 at Mon Oct  6 14:26:42 2025, MaxMem=   104857600 cpu:               0.0 elap:               0.0
 (Enter /home/zhouoh/g16/l103.exe)

 GradGradGradGradGradGradGradGradGradGradGradGradGradGradGradGradGradGrad
 Berny optimization.
 FormGI is forming the generalized inverse of G from B-inverse, IUseBI=4.
 Internal  Forces:  Max     0.000199685 RMS     0.000041917
 Search for a saddle point.
 Step number  15 out of a maximum of  100
 All quantities printed in internal units (Hartrees-Bohrs-Radians)
 Swapping is turned off.
 Update second derivatives using D2CorX and points    1    4    5    6    7
                                                      8    9   10   11   13
                                                     14   15
 ITU=  0  0  0  0  0  0  0  0  0  0  0  0  0  0  0
     Eigenvalues ---   -0.03904  -0.00560   0.00128   0.00749   0.00994
     Eigenvalues ---    0.01198   0.01426   0.01685   0.01766   0.02065
     Eigenvalues ---    0.02104   0.02264   0.02365   0.02410   0.02750
     Eigenvalues ---    0.03021   0.03883   0.04179   0.04533   0.04678
     Eigenvalues ---    0.05155   0.05242   0.05808   0.06116   0.09132
     Eigenvalues ---    0.11715   0.11892   0.13625   0.30093   0.30802
     Eigenvalues ---    0.32552   0.33499   0.34006   0.34819   0.34871
     Eigenvalues ---    0.35401   0.35498   0.35841   0.36070   0.43201
     Eigenvalues ---    0.43736   0.48893
 Eigenvectors required to have negative eigenvalues:
                          R9        R13       D24       D13       D20
   1                    0.54609   0.54172  -0.16814   0.16012   0.15482
                          D6        D16       D9        D40       A34
   1                   -0.15079   0.13905  -0.13573  -0.12694   0.12688
 Eigenvalue     2 is  -5.60D-03 should be greater than     0.000000 Eigenvector:
                          R10       D22       D25       A27       D28
   1                    0.47264  -0.22290  -0.21092  -0.20049  -0.19533
                          A5        D29       A24       D32       D20
   1                   -0.19517   0.19003   0.18952   0.17762  -0.17179
 RFO step:  Lambda0=1.232049165D-08 Lambda=-5.60498521D-03.
 Linear search not attempted -- option 19 set.
 Maximum step size (   0.300) exceeded in Quadratic search.
    -- Step size scaled by   0.572
 Iteration  1 RMS(Cart)=  0.04345217 RMS(Int)=  0.00172888
 Iteration  2 RMS(Cart)=  0.00165048 RMS(Int)=  0.00074183
 Iteration  3 RMS(Cart)=  0.00000165 RMS(Int)=  0.00074183
 Iteration  4 RMS(Cart)=  0.00000000 RMS(Int)=  0.00074183
 ITry= 1 IFail=0 DXMaxC= 1.49D-01 DCOld= 1.00D+10 DXMaxT= 3.00D-01 DXLimC= 3.00D+00 Rises=F
 Variable       Old X    -DE/DX   Delta X   Delta X   Delta X     New X
                                 (Linear)    (Quad)   (Total)
    R1        2.64935  -0.00001   0.00000   0.00105   0.00234   2.65169
    R2        2.04863  -0.00001   0.00000  -0.00461  -0.00461   2.04402
    R3        2.59392   0.00008   0.00000   0.00562   0.00641   2.60034
    R4        2.04930  -0.00000   0.00000   0.00519   0.00519   2.05449
    R5        2.59327  -0.00013   0.00000  -0.01288  -0.01229   2.58098
    R6        2.04484  -0.00002   0.00000   0.00052  -0.00060   2.04424
    R7        2.04037  -0.00001   0.00000  -0.00156  -0.00156   2.03880
    R8        2.60255  -0.00003   0.00000  -0.00501  -0.00631   2.59624
    R9        4.19594   0.00005   0.00000   0.00850   0.00821   4.20415
   R10        4.43772   0.00005   0.00000  -0.20071  -0.20016   4.23756
   R11        2.04068   0.00001   0.00000   0.00171   0.00171   2.04239
   R12        2.04440   0.00000   0.00000  -0.00171  -0.00191   2.04248
   R13        4.20128  -0.00005   0.00000   0.01843   0.01745   4.21873
   R14        4.43219  -0.00002   0.00000   0.00109   0.00140   4.43359
   R15        2.04148   0.00003   0.00000  -0.00011   0.00048   2.04195
   R16        2.04609  -0.00000   0.00000  -0.00024  -0.00024   2.04585
   R17        2.04578   0.00000   0.00000   0.00090   0.00090   2.04667
   R18        2.04094  -0.00004   0.00000  -0.00114  -0.00139   2.03955
    A1        2.06677   0.00012   0.00000   0.03733   0.03718   2.10395
    A2        2.11441  -0.00020   0.00000  -0.06697  -0.06611   2.04830
    A3        2.07756   0.00008   0.00000   0.03004   0.02963   2.10719
    A4        2.06278  -0.00012   0.00000  -0.04460  -0.04459   2.01819
    A5        2.12110   0.00018   0.00000   0.08403   0.08443   2.20553
    A6        2.07425  -0.00007   0.00000  -0.03901  -0.03915   2.03510
    A7        2.01467   0.00001   0.00000   0.00599   0.00606   2.02074
    A8        2.08907  -0.00003   0.00000  -0.01133  -0.01055   2.07853
    A9        1.58618   0.00002   0.00000  -0.01294  -0.01299   1.57319
   A10        2.09499   0.00002   0.00000   0.00695   0.00625   2.10124
   A11        1.59439  -0.00004   0.00000  -0.00645  -0.00560   1.58879
   A12        1.90438   0.00001   0.00000   0.01551   0.01441   1.91879
   A13        1.37723  -0.00000   0.00000   0.01713   0.01646   1.39368
   A14        2.09746  -0.00001   0.00000   0.00545   0.00501   2.10247
   A15        2.09060   0.00001   0.00000   0.00113   0.00127   2.09186
   A16        1.90309  -0.00002   0.00000  -0.00855  -0.00952   1.89357
   A17        2.01433  -0.00001   0.00000   0.00258   0.00276   2.01709
   A18        1.59602   0.00004   0.00000   0.02035   0.02057   1.61660
   A19        1.57696  -0.00001   0.00000  -0.03345  -0.03314   1.54382
   A20        1.38022  -0.00000   0.00000   0.04542   0.04511   1.42533
   A21        1.77113   0.00001   0.00000   0.04526   0.04358   1.81472
   A22        2.10583  -0.00000   0.00000  -0.02547  -0.02468   2.08115
   A23        2.09569   0.00000   0.00000   0.04203   0.04166   2.13735
   A24        1.48958  -0.00001   0.00000  -0.08113  -0.08029   1.40928
   A25        1.80816  -0.00001   0.00000   0.00375   0.00173   1.80989
   A26        2.00551  -0.00000   0.00000  -0.00925  -0.01005   1.99547
   A27        1.47075   0.00001   0.00000   0.08608   0.08666   1.55741
   A28        1.76493  -0.00002   0.00000  -0.02274  -0.02375   1.74118
   A29        2.09309  -0.00001   0.00000  -0.05398  -0.05365   2.03943
   A30        2.10936   0.00001   0.00000   0.04341   0.04344   2.15280
   A31        1.81158   0.00000   0.00000   0.00481   0.00335   1.81492
   A32        1.48760   0.00002   0.00000   0.03910   0.03935   1.52695
   A33        2.00694   0.00000   0.00000   0.00759   0.00728   2.01422
   A34        1.46705  -0.00002   0.00000  -0.02400  -0.02444   1.44261
    D1       -0.00105   0.00002   0.00000  -0.03132  -0.03148  -0.03253
    D2       -2.90122   0.00003   0.00000  -0.02728  -0.02809  -2.92932
    D3        2.90251   0.00004   0.00000  -0.02489  -0.02413   2.87838
    D4        0.00233   0.00005   0.00000  -0.02085  -0.02074  -0.01840
    D5       -1.03366  -0.00002   0.00000   0.04289   0.04208  -0.99158
    D6        0.56126  -0.00003   0.00000  -0.03154  -0.03266   0.52860
    D7       -3.01037  -0.00002   0.00000  -0.01402  -0.01604  -3.02641
    D8        1.86845   0.00000   0.00000   0.05022   0.05042   1.91888
    D9       -2.81981   0.00000   0.00000  -0.02420  -0.02431  -2.84412
   D10       -0.10825   0.00000   0.00000  -0.00669  -0.00770  -0.11595
   D11        1.03303   0.00000   0.00000   0.00348   0.00396   1.03699
   D12        3.00835  -0.00001   0.00000  -0.03155  -0.03015   2.97820
   D13       -0.55659  -0.00001   0.00000  -0.03814  -0.03723  -0.59382
   D14       -1.86561   0.00002   0.00000   0.00814   0.00789  -1.85772
   D15        0.10971   0.00000   0.00000  -0.02689  -0.02622   0.08349
   D16        2.82796   0.00001   0.00000  -0.03347  -0.03330   2.79466
   D17       -1.98118   0.00004   0.00000   0.01218   0.01260  -1.96858
   D18        1.58988   0.00003   0.00000   0.00637   0.00662   1.59650
   D19       -0.37694   0.00000   0.00000  -0.00095   0.00030  -0.37664
   D20        2.70293   0.00002   0.00000   0.07388   0.07443   2.77735
   D21        0.00143   0.00003   0.00000   0.04961   0.04969   0.05112
   D22       -1.77583   0.00005   0.00000   0.09635   0.09629  -1.67953
   D23        0.01066   0.00001   0.00000   0.06833   0.06847   0.07914
   D24       -2.69083   0.00002   0.00000   0.04406   0.04374  -2.64709
   D25        1.81509   0.00005   0.00000   0.09080   0.09034   1.90543
   D26       -1.79137   0.00004   0.00000   0.06254   0.06254  -1.72883
   D27        1.79032   0.00005   0.00000   0.03827   0.03781   1.82813
   D28        0.01306   0.00008   0.00000   0.08500   0.08441   0.09747
   D29        3.00789  -0.00002   0.00000  -0.08207  -0.08318   2.92471
   D30        0.90717  -0.00001   0.00000  -0.04197  -0.04195   0.86522
   D31       -1.09162  -0.00001   0.00000  -0.01397  -0.01455  -1.10617
   D32       -1.26003  -0.00001   0.00000  -0.07669  -0.07758  -1.33761
   D33        2.92243  -0.00001   0.00000  -0.03659  -0.03635   2.88608
   D34        0.92365  -0.00000   0.00000  -0.00859  -0.00895   0.91469
   D35        0.87887   0.00000   0.00000  -0.06802  -0.06954   0.80933
   D36       -1.22185   0.00000   0.00000  -0.02792  -0.02832  -1.25017
   D37        3.06255   0.00001   0.00000   0.00008  -0.00092   3.06163
   D38        0.86366  -0.00001   0.00000  -0.00464  -0.00447   0.85919
   D39       -1.57850   0.00003   0.00000   0.01715   0.01772  -1.56077
   D40        1.98309   0.00004   0.00000  -0.00673  -0.00643   1.97666
   D41        0.38143   0.00000   0.00000  -0.01341  -0.01343   0.36800
   D42       -0.89878  -0.00003   0.00000  -0.02945  -0.02817  -0.92695
   D43       -3.07827  -0.00001   0.00000   0.03834   0.03932  -3.03895
   D44        1.20504  -0.00002   0.00000   0.02136   0.02208   1.22713
   D45        1.24318  -0.00002   0.00000  -0.01700  -0.01641   1.22678
   D46       -0.93631  -0.00000   0.00000   0.05080   0.05108  -0.88522
   D47       -2.93618  -0.00001   0.00000   0.03382   0.03384  -2.90233
   D48       -3.02534  -0.00003   0.00000  -0.01507  -0.01467  -3.04001
   D49        1.07836  -0.00001   0.00000   0.05273   0.05281   1.13117
   D50       -0.92151  -0.00002   0.00000   0.03575   0.03557  -0.88594
   D51       -0.87948  -0.00001   0.00000   0.03117   0.03141  -0.84807
   D52       -2.12908   0.00000   0.00000  -0.00589  -0.00813  -2.13722
   D53       -0.37339   0.00001   0.00000  -0.00165  -0.00267  -0.37606
   D54        1.42160  -0.00000   0.00000  -0.03486  -0.03604   1.38555
   D55        2.12575  -0.00001   0.00000  -0.01254  -0.01188   2.11386
   D56        0.37834   0.00001   0.00000  -0.01014  -0.01048   0.36786
   D57       -1.41954  -0.00000   0.00000  -0.03356  -0.03298  -1.45252
         Item               Value     Threshold  Converged?
 Maximum Force            0.000200     0.000450     YES
 RMS     Force            0.000042     0.000300     YES
 Maximum Displacement     0.149105     0.001800     NO 
 RMS     Displacement     0.043061     0.001200     NO 
 Predicted change in Energy=-5.803383D-04
 GradGradGradGradGradGradGradGradGradGradGradGradGradGradGradGradGradGrad

 Leave Link  103 at Mon Oct  6 14:26:42 2025, MaxMem=   104857600 cpu:               0.0 elap:               0.0
 (Enter /home/zhouoh/g16/l202.exe)
                          Input orientation:                          
 ---------------------------------------------------------------------
 Center     Atomic      Atomic             Coordinates (Angstroms)
 Number     Number       Type             X           Y           Z
 ---------------------------------------------------------------------
      1          6           0       -1.332795    0.716803    0.332163
      2          6           0       -1.267872   -0.682548    0.250850
      3          1           0       -1.896424    1.196072    1.121208
      4          1           0       -1.786136   -1.223993    1.038391
      5          6           0        1.548759    0.687469    0.200239
      6          1           0        2.006839    1.180305   -0.646810
      7          1           0        1.497982    1.266705    1.109033
      8          6           0        1.539845   -0.685483    0.249661
      9          1           0        1.408565   -1.199023    1.191542
     10          1           0        2.028627   -1.255060   -0.528080
     11          6           0       -0.446970    1.436680   -0.436325
     12          1           0       -0.107968    1.025168   -1.376184
     13          1           0       -0.353020    2.512555   -0.360668
     14          6           0       -0.420444   -1.409628   -0.535672
     15          1           0       -0.391678   -2.478875   -0.365707
     16          1           0       -0.094312   -1.087120   -1.512646
 ---------------------------------------------------------------------
                    Distance matrix (angstroms):
                    1          2          3          4          5
     1  C    0.000000
     2  C    1.403214   0.000000
     3  H    1.081651   2.163750   0.000000
     4  H    2.114466   1.087189   2.423992   0.000000
     5  C    2.884722   3.132558   3.602242   3.934172   0.000000
     6  H    3.510894   3.872950   4.285044   4.796583   1.081765
     7  H    2.986505   3.490846   3.395162   4.122377   1.078888
     8  C    3.197698   2.807719   4.013451   3.460380   1.373871
     9  H    3.453111   2.883568   4.082203   3.198467   2.135695
    10  H    3.990917   3.435318   4.912660   4.123980   2.129352
    11  C    1.376039   2.374282   2.141196   3.323753   2.224740
    12  H    2.124557   2.628481   3.076484   3.702046   2.311686
    13  H    2.159791   3.379288   2.512206   4.239455   2.694868
    14  C    2.471281   1.365795   3.422491   2.092187   2.969368
    15  H    3.403687   2.091567   4.240332   2.343231   3.756505
    16  H    2.862045   2.156582   3.923999   3.064114   2.963583
                    6          7          8          9         10
     6  H    0.000000
     7  H    1.830133   0.000000
     8  C    2.122006   2.133380   0.000000
     9  H    3.065725   2.468728   1.080785   0.000000
    10  H    2.438354   3.053035   1.080836   1.828856   0.000000
    11  C    2.476128   2.489952   2.986903   3.611079   3.658205
    12  H    2.242423   2.968790   2.878365   3.720231   3.237863
    13  H    2.725014   2.671772   3.766017   4.391850   4.460402
    14  C    3.551310   3.680784   2.232458   2.524460   2.453956
    15  H    4.384233   4.446914   2.706606   2.702577   2.716977
    16  H    3.210252   3.866406   2.436700   3.095771   2.346155
                   11         12         13         14         15
    11  C    0.000000
    12  H    1.080555   0.000000
    13  H    1.082616   1.817592   0.000000
    14  C    2.848165   2.594674   3.926664   0.000000
    15  H    3.916582   3.657851   4.991582   1.083054   0.000000
    16  H    2.766298   2.116736   3.788356   1.079283   1.827807
                   16
    16  H    0.000000
 Stoichiometry    C6H10
 Framework group  C1[X(C6H10)]
 Deg. of freedom    42
 Full point group                 C1      NOp   1
 RotChk:  IX=0 Diff= 1.06D-01
 Largest Abelian subgroup         C1      NOp   1
 Largest concise Abelian subgroup C1      NOp   1
                         Standard orientation:                         
 ---------------------------------------------------------------------
 Center     Atomic      Atomic             Coordinates (Angstroms)
 Number     Number       Type             X           Y           Z
 ---------------------------------------------------------------------
      1          6           0       -1.381106   -0.625451   -0.305898
      2          6           0       -1.220581    0.767817   -0.260675
      3          1           0       -1.981669   -1.084827   -1.079375
      4          1           0       -1.706455    1.323405   -1.058941
      5          6           0        1.496643   -0.789322   -0.190461
      6          1           0        1.926207   -1.290832    0.666381
      7          1           0        1.400073   -1.386366   -1.083888
      8          6           0        1.580771    0.579371   -0.274853
      9          1           0        1.477970    1.076874   -1.228803
     10          1           0        2.112723    1.133635    0.485426
     11          6           0       -0.540803   -1.384534    0.475874
     12          1           0       -0.167867   -0.973640    1.403066
     13          1           0       -0.520786   -2.465869    0.427185
     14          6           0       -0.320048    1.454939    0.502410
     15          1           0       -0.219848    2.515137    0.305061
     16          1           0       -0.009606    1.135561    1.485506
 ---------------------------------------------------------------------
 Rotational constants (GHZ):           4.4093406           3.5798202           2.3236911
 Leave Link  202 at Mon Oct  6 14:26:42 2025, MaxMem=   104857600 cpu:               0.0 elap:               0.0
 (Enter /home/zhouoh/g16/l301.exe)
 Standard basis: STO-3G (5D, 7F)
 Ernie: Thresh=  0.10000D-02 Tol=  0.10000D-05 Strict=F.
 There are    40 symmetry adapted cartesian basis functions of A   symmetry.
 There are    40 symmetry adapted basis functions of A   symmetry.
    40 basis functions,   120 primitive gaussians,    40 cartesian basis functions
    23 alpha electrons       23 beta electrons
       nuclear repulsion energy       226.4477159637 Hartrees.
 IExCor=    0 DFT=F Ex=HF Corr=None ExCW=0 ScaHFX=  1.000000
 ScaDFX=  1.000000  1.000000  1.000000  1.000000 ScalE2=  1.000000  1.000000
 IRadAn=      5 IRanWt=     -1 IRanGd=            0 ICorTp=0 IEmpDi=  4
 NAtoms=   16 NActive=   16 NUniq=   16 SFac= 1.00D+00 NAtFMM=   60 NAOKFM=F Big=F
 Integral buffers will be    131072 words long.
 Raffenetti 1 integral format.
 Two-electron integral symmetry is turned on.
 Leave Link  301 at Mon Oct  6 14:26:42 2025, MaxMem=   104857600 cpu:               0.0 elap:               0.0
 (Enter /home/zhouoh/g16/l402.exe)
 External calculation of energy and first derivatives.
 Running external command "python ../GauUMA_client.py R"
         input file       "/home/zhouoh/scratch/Gau-2816605.EIn"
         output file      "/home/zhouoh/scratch/Gau-2816605.EOu"
         message file     "/home/zhouoh/scratch/Gau-2816605.EMs"
         fchk file        "/home/zhouoh/scratch/Gau-2816605.EFC"
         mat. el file     "/home/zhouoh/scratch/Gau-2816605.EUF"
Sent job to server.
Received result from server:
SCF Done:  E(UMA) =  -234.49147897101565     A.U.
 Recovered energy= -234.491478971     dipole=      0.000000000000      0.000000000000      0.000000000000
 Energy=    -234.491479     NIter=   0.
 Dipole moment=       0.000000       0.000000       0.000000
 Leave Link  402 at Mon Oct  6 14:26:42 2025, MaxMem=   104857600 cpu:               0.0 elap:               0.1
 (Enter /home/zhouoh/g16/l716.exe)
 Dipole        = 0.00000000D+00 0.00000000D+00 0.00000000D+00
 ***** Axes restored to original set *****
 -------------------------------------------------------------------
 Center     Atomic                   Forces (Hartrees/Bohr)
 Number     Number              X              Y              Z
 -------------------------------------------------------------------
      1        6           0.014412436    0.000744161   -0.013449696
      2        6          -0.014406586   -0.002101760    0.013800012
      3        1           0.000116720   -0.001208349    0.001040512
      4        1           0.000274192   -0.000975266   -0.000537529
      5        6           0.003183745   -0.000102019    0.000987554
      6        1           0.001313363    0.000690649    0.000882440
      7        1          -0.001019529    0.000308100    0.000357556
      8        6          -0.000250330    0.000569941    0.000050968
      9        1           0.000314063    0.000319810   -0.000304988
     10        1           0.000002113   -0.000475903   -0.000306527
     11        6          -0.003275589    0.000122194   -0.001868077
     12        1          -0.002297845    0.000987107   -0.000424558
     13        1          -0.000901295    0.000111031    0.002003461
     14        6          -0.000106036   -0.001111379    0.000109734
     15        1           0.001627201   -0.000236918   -0.002606700
     16        1           0.001013379    0.002358601    0.000265840
 -------------------------------------------------------------------
 Cartesian Forces:  Max     0.014412436 RMS     0.004219844
 Leave Link  716 at Mon Oct  6 14:26:42 2025, MaxMem=   104857600 cpu:               0.0 elap:               0.0
 (Enter /home/zhouoh/g16/l103.exe)

 GradGradGradGradGradGradGradGradGradGradGradGradGradGradGradGradGradGrad
 Berny optimization.
 FormGI is forming the generalized inverse of G from B-inverse, IUseBI=4.
 Internal  Forces:  Max     0.010147720 RMS     0.002012370
 Search for a saddle point.
 Step number  16 out of a maximum of  100
 All quantities printed in internal units (Hartrees-Bohrs-Radians)
 Swapping is turned off.
 Update second derivatives using D2CorX and points    1    6    7    8    9
                                                     10   11   13   14   15
                                                     16
 ITU=  0  0  0  0  0  0  0  0  0  0  0  0  0  0  0  0
     Eigenvalues ---   -0.03828   0.00144   0.00461   0.00977   0.01090
     Eigenvalues ---    0.01371   0.01502   0.01704   0.01776   0.02084
     Eigenvalues ---    0.02109   0.02266   0.02371   0.02489   0.02875
     Eigenvalues ---    0.03253   0.03859   0.04157   0.04644   0.04700
     Eigenvalues ---    0.05153   0.05237   0.05860   0.06169   0.09127
     Eigenvalues ---    0.11715   0.11897   0.15892   0.30217   0.30777
     Eigenvalues ---    0.32533   0.33504   0.33993   0.34827   0.34871
     Eigenvalues ---    0.35408   0.35497   0.35843   0.36070   0.43519
     Eigenvalues ---    0.43754   0.48888
 Eigenvectors required to have negative eigenvalues:
                          R9        R13       D20       D24       D6
   1                    0.54764   0.54025   0.17038  -0.15893  -0.15756
                          D13       D9        A27       D16       A24
   1                    0.15122  -0.14069   0.13840   0.13174  -0.12760
 RFO step:  Lambda0=8.143828805D-05 Lambda=-4.15705662D-03.
 Linear search not attempted -- option 19 set.
 Iteration  1 RMS(Cart)=  0.03210989 RMS(Int)=  0.00105813
 Iteration  2 RMS(Cart)=  0.00097948 RMS(Int)=  0.00056262
 Iteration  3 RMS(Cart)=  0.00000047 RMS(Int)=  0.00056262
 ITry= 1 IFail=0 DXMaxC= 1.24D-01 DCOld= 1.00D+10 DXMaxT= 3.00D-01 DXLimC= 3.00D+00 Rises=F
 Variable       Old X    -DE/DX   Delta X   Delta X   Delta X     New X
                                 (Linear)    (Quad)   (Total)
    R1        2.65169   0.00027   0.00000  -0.00419  -0.00320   2.64848
    R2        2.04402   0.00016   0.00000   0.00436   0.00436   2.04839
    R3        2.60034  -0.00522   0.00000  -0.00752  -0.00697   2.59336
    R4        2.05449  -0.00003   0.00000  -0.00494  -0.00494   2.04954
    R5        2.58098   0.00522   0.00000   0.01266   0.01314   2.59412
    R6        2.04424   0.00066   0.00000   0.00130   0.00058   2.04482
    R7        2.03880   0.00051   0.00000   0.00146   0.00146   2.04026
    R8        2.59624   0.00057   0.00000   0.00744   0.00646   2.60270
    R9        4.20415   0.00001   0.00000  -0.01037  -0.01051   4.19363
   R10        4.23756   0.00127   0.00000   0.11845   0.11879   4.35635
   R11        2.04239  -0.00046   0.00000  -0.00162  -0.00162   2.04076
   R12        2.04248  -0.00019   0.00000   0.00151   0.00130   2.04378
   R13        4.21873   0.00199   0.00000  -0.02854  -0.02932   4.18941
   R14        4.43359   0.00041   0.00000  -0.02191  -0.02161   4.41198
   R15        2.04195  -0.00136   0.00000  -0.00138  -0.00117   2.04078
   R16        2.04585   0.00017   0.00000   0.00009   0.00009   2.04594
   R17        2.04667  -0.00013   0.00000  -0.00061  -0.00061   2.04606
   R18        2.03955   0.00137   0.00000   0.00146   0.00136   2.04091
    A1        2.10395  -0.00618   0.00000  -0.03566  -0.03573   2.06822
    A2        2.04830   0.00981   0.00000   0.06303   0.06363   2.11193
    A3        2.10719  -0.00350   0.00000  -0.02726  -0.02755   2.07964
    A4        2.01819   0.00615   0.00000   0.04292   0.04285   2.06104
    A5        2.20553  -0.01015   0.00000  -0.08063  -0.08010   2.12543
    A6        2.03510   0.00378   0.00000   0.03619   0.03596   2.07106
    A7        2.02074  -0.00032   0.00000  -0.00434  -0.00418   2.01655
    A8        2.07853   0.00107   0.00000   0.00718   0.00764   2.08617
    A9        1.57319  -0.00095   0.00000   0.00521   0.00506   1.57825
   A10        2.10124  -0.00049   0.00000  -0.00280  -0.00338   2.09786
   A11        1.58879   0.00127   0.00000   0.00773   0.00812   1.59692
   A12        1.91879  -0.00098   0.00000  -0.01303  -0.01327   1.90551
   A13        1.39368   0.00065   0.00000  -0.00041  -0.00069   1.39299
   A14        2.10247   0.00094   0.00000  -0.00178  -0.00221   2.10026
   A15        2.09186  -0.00121   0.00000  -0.00393  -0.00366   2.08820
   A16        1.89357   0.00109   0.00000   0.00984   0.00957   1.90313
   A17        2.01709   0.00015   0.00000  -0.00107  -0.00101   2.01608
   A18        1.61660  -0.00156   0.00000  -0.01023  -0.01013   1.60646
   A19        1.54382   0.00070   0.00000   0.01737   0.01741   1.56123
   A20        1.42533  -0.00061   0.00000  -0.03375  -0.03410   1.39123
   A21        1.81472  -0.00181   0.00000  -0.03430  -0.03507   1.77965
   A22        2.08115   0.00018   0.00000   0.02249   0.02294   2.10409
   A23        2.13735  -0.00045   0.00000  -0.03613  -0.03625   2.10111
   A24        1.40928   0.00155   0.00000   0.05896   0.05949   1.46877
   A25        1.80989   0.00031   0.00000   0.00142  -0.00020   1.80969
   A26        1.99547   0.00042   0.00000   0.01032   0.00977   2.00524
   A27        1.55741  -0.00108   0.00000  -0.05688  -0.05680   1.50061
   A28        1.74118   0.00154   0.00000   0.02188   0.02146   1.76265
   A29        2.03943   0.00072   0.00000   0.04521   0.04541   2.08484
   A30        2.15280  -0.00036   0.00000  -0.03605  -0.03600   2.11679
   A31        1.81492  -0.00022   0.00000  -0.00386  -0.00509   1.80983
   A32        1.52695  -0.00172   0.00000  -0.03208  -0.03195   1.49501
   A33        2.01422  -0.00027   0.00000  -0.00680  -0.00701   2.00722
   A34        1.44261   0.00114   0.00000   0.01371   0.01318   1.45579
    D1       -0.03253  -0.00018   0.00000   0.02615   0.02604  -0.00649
    D2       -2.92932   0.00014   0.00000   0.02673   0.02595  -2.90337
    D3        2.87838   0.00004   0.00000   0.02338   0.02408   2.90246
    D4       -0.01840   0.00035   0.00000   0.02396   0.02398   0.00558
    D5       -0.99158  -0.00077   0.00000  -0.03218  -0.03300  -1.02459
    D6        0.52860   0.00009   0.00000   0.02281   0.02183   0.55043
    D7       -3.02641   0.00060   0.00000   0.01617   0.01441  -3.01199
    D8        1.91888  -0.00093   0.00000  -0.03609  -0.03601   1.88287
    D9       -2.84412  -0.00007   0.00000   0.01890   0.01883  -2.82530
   D10       -0.11595   0.00044   0.00000   0.01226   0.01141  -0.10454
   D11        1.03699  -0.00059   0.00000  -0.00500  -0.00432   1.03267
   D12        2.97820   0.00036   0.00000   0.02101   0.02229   3.00049
   D13       -0.59382   0.00055   0.00000   0.02700   0.02793  -0.56589
   D14       -1.85772  -0.00054   0.00000  -0.00504  -0.00513  -1.86285
   D15        0.08349   0.00041   0.00000   0.02098   0.02148   0.10497
   D16        2.79466   0.00060   0.00000   0.02696   0.02711   2.82177
   D17       -1.96858  -0.00061   0.00000  -0.00629  -0.00610  -1.97468
   D18        1.59650  -0.00113   0.00000  -0.00561  -0.00535   1.59115
   D19       -0.37664   0.00033   0.00000   0.00475   0.00527  -0.37137
   D20        2.77735  -0.00051   0.00000  -0.04360  -0.04341   2.73395
   D21        0.05112  -0.00022   0.00000  -0.02463  -0.02470   0.02642
   D22       -1.67953  -0.00125   0.00000  -0.05057  -0.05068  -1.73022
   D23        0.07914  -0.00112   0.00000  -0.04266  -0.04260   0.03653
   D24       -2.64709  -0.00083   0.00000  -0.02369  -0.02390  -2.67099
   D25        1.90543  -0.00186   0.00000  -0.04964  -0.04988   1.85555
   D26       -1.72883  -0.00180   0.00000  -0.04202  -0.04204  -1.77088
   D27        1.82813  -0.00151   0.00000  -0.02305  -0.02334   1.80479
   D28        0.09747  -0.00254   0.00000  -0.04899  -0.04932   0.04815
   D29        2.92471   0.00056   0.00000   0.04464   0.04371   2.96842
   D30        0.86522  -0.00002   0.00000   0.00814   0.00802   0.87324
   D31       -1.10617  -0.00073   0.00000  -0.01395  -0.01444  -1.12060
   D32       -1.33761   0.00024   0.00000   0.04050   0.03979  -1.29782
   D33        2.88608  -0.00034   0.00000   0.00399   0.00410   2.89018
   D34        0.91469  -0.00106   0.00000  -0.01809  -0.01835   0.89634
   D35        0.80933   0.00002   0.00000   0.03752   0.03626   0.84559
   D36       -1.25017  -0.00056   0.00000   0.00102   0.00057  -1.24960
   D37        3.06163  -0.00128   0.00000  -0.02107  -0.02189   3.03974
   D38        0.85919  -0.00019   0.00000  -0.01514  -0.01487   0.84433
   D39       -1.56077  -0.00108   0.00000  -0.00395  -0.00385  -1.56462
   D40        1.97666  -0.00101   0.00000   0.01425   0.01423   1.99089
   D41        0.36800   0.00039   0.00000   0.01729   0.01714   0.38514
   D42       -0.92695  -0.00078   0.00000   0.00134   0.00227  -0.92468
   D43       -3.03895  -0.00209   0.00000  -0.05515  -0.05440  -3.09335
   D44        1.22713  -0.00136   0.00000  -0.03966  -0.03912   1.18800
   D45        1.22678  -0.00013   0.00000  -0.00230  -0.00193   1.22485
   D46       -0.88522  -0.00144   0.00000  -0.05879  -0.05859  -0.94382
   D47       -2.90233  -0.00071   0.00000  -0.04331  -0.04332  -2.94566
   D48       -3.04001   0.00006   0.00000  -0.00264  -0.00229  -3.04230
   D49        1.13117  -0.00125   0.00000  -0.05912  -0.05896   1.07221
   D50       -0.88594  -0.00051   0.00000  -0.04364  -0.04369  -0.92962
   D51       -0.84807  -0.00078   0.00000  -0.04088  -0.04066  -0.88873
   D52       -2.13722   0.00124   0.00000   0.01665   0.01488  -2.12233
   D53       -0.37606  -0.00001   0.00000   0.00775   0.00713  -0.36894
   D54        1.38555   0.00096   0.00000   0.03380   0.03271   1.41826
   D55        2.11386   0.00072   0.00000   0.01788   0.01848   2.13234
   D56        0.36786   0.00004   0.00000   0.01542   0.01511   0.38298
   D57       -1.45252   0.00113   0.00000   0.03559   0.03613  -1.41639
         Item               Value     Threshold  Converged?
 Maximum Force            0.010148     0.000450     NO 
 RMS     Force            0.002012     0.000300     NO 
 Maximum Displacement     0.123621     0.001800     NO 
 RMS     Displacement     0.032290     0.001200     NO 
 Predicted change in Energy=-2.237795D-03
 GradGradGradGradGradGradGradGradGradGradGradGradGradGradGradGradGradGrad

 Leave Link  103 at Mon Oct  6 14:26:42 2025, MaxMem=   104857600 cpu:               0.0 elap:               0.0
 (Enter /home/zhouoh/g16/l202.exe)
                          Input orientation:                          
 ---------------------------------------------------------------------
 Center     Atomic      Atomic             Coordinates (Angstroms)
 Number     Number       Type             X           Y           Z
 ---------------------------------------------------------------------
      1          6           0       -1.297393    0.698678    0.309577
      2          6           0       -1.291665   -0.702680    0.289147
      3          1           0       -1.831007    1.202150    1.107538
      4          1           0       -1.818271   -1.227071    1.079081
      5          6           0        1.541819    0.689050    0.210871
      6          1           0        2.026074    1.199363   -0.611296
      7          1           0        1.462881    1.253885    1.127602
      8          6           0        1.529221   -0.687828    0.242233
      9          1           0        1.406574   -1.210972    1.178992
     10          1           0        2.024114   -1.245318   -0.541336
     11          6           0       -0.436612    1.420674   -0.478533
     12          1           0       -0.119923    1.039341   -1.437989
     13          1           0       -0.364709    2.495381   -0.369015
     14          6           0       -0.427469   -1.410532   -0.508692
     15          1           0       -0.362396   -2.485844   -0.400184
     16          1           0       -0.108240   -1.028251   -1.467002
 ---------------------------------------------------------------------
                    Distance matrix (angstroms):
                    1          2          3          4          5
     1  C    0.000000
     2  C    1.401518   0.000000
     3  H    1.083960   2.142203   0.000000
     4  H    2.138214   1.084572   2.429421   0.000000
     5  C    2.840943   3.157794   3.527497   3.964279   0.000000
     6  H    3.484842   3.928861   4.222732   4.850148   1.082072
     7  H    2.931984   3.481188   3.294355   4.113812   1.079660
     8  C    3.149075   2.821314   3.951189   3.492392   1.377292
     9  H    3.422584   2.886292   4.038588   3.226433   2.136734
    10  H    3.941520   3.461004   4.854981   4.170133   2.130775
    11  C    1.372348   2.414348   2.123137   3.368337   2.219175
    12  H    2.134590   2.718568   3.071485   3.789017   2.367030
    13  H    2.135072   3.394115   2.450038   4.250468   2.689600
    14  C    2.423860   1.372747   3.377606   2.118729   2.967171
    15  H    3.393988   2.125651   4.246333   2.427408   3.752249
    16  H    2.748199   2.142556   3.817181   3.073479   2.913258
                    6          7          8          9         10
     6  H    0.000000
     7  H    1.828640   0.000000
     8  C    2.129991   2.135071   0.000000
     9  H    3.065717   2.466035   1.079926   0.000000
    10  H    2.445682   3.057180   1.081524   1.828131   0.000000
    11  C    2.476171   2.493102   2.971494   3.615284   3.628585
    12  H    2.305283   3.022177   2.919920   3.773949   3.258919
    13  H    2.730239   2.668569   3.754119   4.389854   4.441733
    14  C    3.583566   3.653764   2.216940   2.500363   2.457360
    15  H    4.396601   4.432983   2.687708   2.692277   2.693373
    16  H    3.201529   3.795857   2.391370   3.054396   2.334719
                   11         12         13         14         15
    11  C    0.000000
    12  H    1.079936   0.000000
    13  H    1.082663   1.822821   0.000000
    14  C    2.831381   2.638192   3.908913   0.000000
    15  H    3.908008   3.682766   4.981323   1.082730   0.000000
    16  H    2.661227   2.067829   3.699639   1.080002   1.824082
                   16
    16  H    0.000000
 Stoichiometry    C6H10
 Framework group  C1[X(C6H10)]
 Deg. of freedom    42
 Full point group                 C1      NOp   1
 RotChk:  IX=3 Diff= 1.02D-01
 Largest Abelian subgroup         C1      NOp   1
 Largest concise Abelian subgroup C1      NOp   1
                         Standard orientation:                         
 ---------------------------------------------------------------------
 Center     Atomic      Atomic             Coordinates (Angstroms)
 Number     Number       Type             X           Y           Z
 ---------------------------------------------------------------------
      1          6           0       -1.298841   -0.700778   -0.297601
      2          6           0       -1.294669    0.700663   -0.283509
      3          1           0       -1.836544   -1.208465   -1.090128
      4          1           0       -1.826548    1.220873   -1.072675
      5          6           0        1.540890   -0.687382   -0.215685
      6          1           0        2.030591   -1.193419    0.605899
      7          1           0        1.457228   -1.256434   -1.129384
      8          6           0        1.526459    0.689324   -0.253165
      9          1           0        1.397669    1.208098   -1.191529
     10          1           0        2.025294    1.250918    0.524955
     11          6           0       -0.432567   -1.418208    0.488659
     12          1           0       -0.110688   -1.032186    1.444505
     13          1           0       -0.360024   -2.493312    0.383555
     14          6           0       -0.426635    1.413114    0.506026
     15          1           0       -0.363490    2.488002    0.392301
     16          1           0       -0.101309    1.035528    1.464148
 ---------------------------------------------------------------------
 Rotational constants (GHZ):           4.4143116           3.6046323           2.3436394
 Leave Link  202 at Mon Oct  6 14:26:42 2025, MaxMem=   104857600 cpu:               0.0 elap:               0.0
 (Enter /home/zhouoh/g16/l301.exe)
 Standard basis: STO-3G (5D, 7F)
 Ernie: Thresh=  0.10000D-02 Tol=  0.10000D-05 Strict=F.
 There are    40 symmetry adapted cartesian basis functions of A   symmetry.
 There are    40 symmetry adapted basis functions of A   symmetry.
    40 basis functions,   120 primitive gaussians,    40 cartesian basis functions
    23 alpha electrons       23 beta electrons
       nuclear repulsion energy       226.7709025466 Hartrees.
 IExCor=    0 DFT=F Ex=HF Corr=None ExCW=0 ScaHFX=  1.000000
 ScaDFX=  1.000000  1.000000  1.000000  1.000000 ScalE2=  1.000000  1.000000
 IRadAn=      5 IRanWt=     -1 IRanGd=            0 ICorTp=0 IEmpDi=  4
 NAtoms=   16 NActive=   16 NUniq=   16 SFac= 1.00D+00 NAtFMM=   60 NAOKFM=F Big=F
 Integral buffers will be    131072 words long.
 Raffenetti 1 integral format.
 Two-electron integral symmetry is turned on.
 Leave Link  301 at Mon Oct  6 14:26:42 2025, MaxMem=   104857600 cpu:               0.0 elap:               0.0
 (Enter /home/zhouoh/g16/l402.exe)
 External calculation of energy and first derivatives.
 Running external command "python ../GauUMA_client.py R"
         input file       "/home/zhouoh/scratch/Gau-2816605.EIn"
         output file      "/home/zhouoh/scratch/Gau-2816605.EOu"
         message file     "/home/zhouoh/scratch/Gau-2816605.EMs"
         fchk file        "/home/zhouoh/scratch/Gau-2816605.EFC"
         mat. el file     "/home/zhouoh/scratch/Gau-2816605.EUF"
Sent job to server.
Received result from server:
SCF Done:  E(UMA) =  -234.49378292691992     A.U.
 Recovered energy= -234.493782927     dipole=      0.000000000000      0.000000000000      0.000000000000
 Energy=    -234.493783     NIter=   0.
 Dipole moment=       0.000000       0.000000       0.000000
 Leave Link  402 at Mon Oct  6 14:26:42 2025, MaxMem=   104857600 cpu:               0.0 elap:               0.1
 (Enter /home/zhouoh/g16/l716.exe)
 Dipole        = 0.00000000D+00 0.00000000D+00 0.00000000D+00
 ***** Axes restored to original set *****
 -------------------------------------------------------------------
 Center     Atomic                   Forces (Hartrees/Bohr)
 Number     Number              X              Y              Z
 -------------------------------------------------------------------
      1        6           0.000417827    0.000070379   -0.000861800
      2        6          -0.000701261    0.000012257    0.000846205
      3        1           0.000059783   -0.000048544    0.000095604
      4        1           0.000026845   -0.000040404   -0.000056382
      5        6           0.000084011    0.000065002    0.000054290
      6        1           0.000779365    0.000040932    0.000572582
      7        1          -0.000364463   -0.000016282    0.000002831
      8        6          -0.000427719    0.000041091   -0.000727518
      9        1           0.000358346    0.000128395    0.000094995
     10        1           0.000308720   -0.000253685    0.000162563
     11        6           0.000580580   -0.000289402   -0.000368660
     12        1          -0.000813101    0.000237265   -0.000469194
     13        1          -0.000215757   -0.000002457    0.000244253
     14        6          -0.000092891   -0.000345474    0.000830640
     15        1           0.000172853   -0.000032555   -0.000541971
     16        1          -0.000173136    0.000433481    0.000121565
 -------------------------------------------------------------------
 Cartesian Forces:  Max     0.000861800 RMS     0.000389038
 Leave Link  716 at Mon Oct  6 14:26:42 2025, MaxMem=   104857600 cpu:               0.0 elap:               0.0
 (Enter /home/zhouoh/g16/l103.exe)

 GradGradGradGradGradGradGradGradGradGradGradGradGradGradGradGradGradGrad
 Berny optimization.
 FormGI is forming the generalized inverse of G from B-inverse, IUseBI=4.
 Internal  Forces:  Max     0.000635803 RMS     0.000180472
 Search for a saddle point.
 Step number  17 out of a maximum of  100
 All quantities printed in internal units (Hartrees-Bohrs-Radians)
 Swapping is turned off.
 Update second derivatives using D2CorX and points    1    4    5    6    7
                                                      8    9   10   11   13
                                                     14   15   16   17
 ITU=  0  0  0  0  0  0  0  0  0  0  0  0  0  0  0  0  0
     Eigenvalues ---   -0.03946   0.00152   0.00515   0.00909   0.01110
     Eigenvalues ---    0.01345   0.01507   0.01699   0.01757   0.02084
     Eigenvalues ---    0.02110   0.02266   0.02377   0.02505   0.02855
     Eigenvalues ---    0.03185   0.03878   0.04165   0.04641   0.04691
     Eigenvalues ---    0.05156   0.05243   0.05875   0.06149   0.09135
     Eigenvalues ---    0.11719   0.11899   0.15458   0.30229   0.30797
     Eigenvalues ---    0.32549   0.33510   0.33998   0.34826   0.34871
     Eigenvalues ---    0.35407   0.35497   0.35843   0.36070   0.43508
     Eigenvalues ---    0.43742   0.48899
 Eigenvectors required to have negative eigenvalues:
                          R9        R13       D20       D6        D24
   1                    0.55016   0.53870   0.17167  -0.15908  -0.15774
                          D13       D9        A27       D16       D40
   1                    0.15049  -0.14218   0.13508   0.13037  -0.12780
 RFO step:  Lambda0=6.378628909D-07 Lambda=-2.25231736D-04.
 Linear search not attempted -- option 19 set.
 Iteration  1 RMS(Cart)=  0.01967013 RMS(Int)=  0.00034468
 Iteration  2 RMS(Cart)=  0.00034189 RMS(Int)=  0.00009567
 Iteration  3 RMS(Cart)=  0.00000010 RMS(Int)=  0.00009567
 ITry= 1 IFail=0 DXMaxC= 8.39D-02 DCOld= 1.00D+10 DXMaxT= 3.00D-01 DXLimC= 3.00D+00 Rises=F
 Variable       Old X    -DE/DX   Delta X   Delta X   Delta X     New X
                                 (Linear)    (Quad)   (Total)
    R1        2.64848   0.00001   0.00000   0.00159   0.00163   2.65012
    R2        2.04839   0.00002   0.00000   0.00030   0.00030   2.04868
    R3        2.59336  -0.00010   0.00000   0.00039   0.00045   2.59381
    R4        2.04954  -0.00003   0.00000  -0.00034  -0.00034   2.04921
    R5        2.59412   0.00023   0.00000  -0.00164  -0.00166   2.59246
    R6        2.04482  -0.00005   0.00000  -0.00008  -0.00009   2.04473
    R7        2.04026   0.00002   0.00000   0.00004   0.00004   2.04030
    R8        2.60270   0.00004   0.00000  -0.00072  -0.00076   2.60194
    R9        4.19363  -0.00004   0.00000   0.00782   0.00770   4.20134
   R10        4.35635   0.00049   0.00000   0.11443   0.11447   4.47082
   R11        2.04076  -0.00002   0.00000  -0.00007  -0.00007   2.04069
   R12        2.04378   0.00000   0.00000   0.00104   0.00107   2.04485
   R13        4.18941   0.00005   0.00000   0.01959   0.01960   4.20900
   R14        4.41198   0.00022   0.00000   0.05183   0.05184   4.46381
   R15        2.04078  -0.00001   0.00000   0.00088   0.00104   2.04182
   R16        2.04594   0.00001   0.00000   0.00023   0.00023   2.04617
   R17        2.04606  -0.00001   0.00000  -0.00041  -0.00041   2.04566
   R18        2.04091   0.00004   0.00000   0.00020   0.00011   2.04102
    A1        2.06822  -0.00039   0.00000  -0.00223  -0.00225   2.06597
    A2        2.11193   0.00063   0.00000   0.00352   0.00351   2.11544
    A3        2.07964  -0.00026   0.00000  -0.00288  -0.00289   2.07675
    A4        2.06104   0.00040   0.00000   0.00204   0.00206   2.06310
    A5        2.12543  -0.00064   0.00000  -0.00506  -0.00515   2.12028
    A6        2.07106   0.00024   0.00000   0.00390   0.00394   2.07501
    A7        2.01655  -0.00004   0.00000  -0.00241  -0.00244   2.01411
    A8        2.08617   0.00009   0.00000   0.00396   0.00403   2.09020
    A9        1.57825  -0.00001   0.00000   0.01318   0.01323   1.59148
   A10        2.09786  -0.00005   0.00000  -0.00351  -0.00350   2.09436
   A11        1.59692   0.00006   0.00000  -0.00805  -0.00786   1.58905
   A12        1.90551  -0.00004   0.00000  -0.00063  -0.00104   1.90448
   A13        1.39299   0.00004   0.00000  -0.02214  -0.02232   1.37068
   A14        2.10026  -0.00002   0.00000  -0.00401  -0.00405   2.09621
   A15        2.08820  -0.00003   0.00000   0.00294   0.00283   2.09104
   A16        1.90313   0.00006   0.00000  -0.00055  -0.00084   1.90230
   A17        2.01608  -0.00002   0.00000  -0.00346  -0.00336   2.01273
   A18        1.60646  -0.00011   0.00000  -0.01442  -0.01436   1.59211
   A19        1.56123   0.00020   0.00000   0.02608   0.02611   1.58734
   A20        1.39123  -0.00024   0.00000  -0.02018  -0.02019   1.37104
   A21        1.77965  -0.00018   0.00000  -0.01133  -0.01144   1.76821
   A22        2.10409   0.00013   0.00000   0.00277   0.00281   2.10690
   A23        2.10111  -0.00020   0.00000  -0.00737  -0.00743   2.09368
   A24        1.46877   0.00028   0.00000   0.02706   0.02702   1.49579
   A25        1.80969   0.00006   0.00000  -0.00095  -0.00101   1.80868
   A26        2.00524   0.00003   0.00000  -0.00001  -0.00005   2.00519
   A27        1.50061  -0.00027   0.00000  -0.03810  -0.03792   1.46269
   A28        1.76265   0.00017   0.00000   0.00133   0.00123   1.76388
   A29        2.08484   0.00023   0.00000   0.01046   0.01049   2.09533
   A30        2.11679  -0.00020   0.00000  -0.01039  -0.01038   2.10641
   A31        1.80983  -0.00001   0.00000   0.00223   0.00227   1.81210
   A32        1.49501  -0.00017   0.00000  -0.00556  -0.00561   1.48940
   A33        2.00722  -0.00006   0.00000  -0.00022  -0.00024   2.00697
   A34        1.45579   0.00010   0.00000   0.01009   0.01002   1.46581
    D1       -0.00649   0.00008   0.00000   0.00601   0.00600  -0.00049
    D2       -2.90337   0.00007   0.00000   0.00135   0.00140  -2.90197
    D3        2.90246   0.00000   0.00000  -0.00218  -0.00226   2.90019
    D4        0.00558  -0.00001   0.00000  -0.00684  -0.00686  -0.00128
    D5       -1.02459  -0.00004   0.00000  -0.01026  -0.01011  -1.03469
    D6        0.55043   0.00022   0.00000   0.01559   0.01563   0.56606
    D7       -3.01199   0.00012   0.00000   0.00289   0.00298  -3.00902
    D8        1.88287  -0.00013   0.00000  -0.01840  -0.01833   1.86454
    D9       -2.82530   0.00013   0.00000   0.00744   0.00741  -2.81789
   D10       -0.10454   0.00002   0.00000  -0.00526  -0.00524  -0.10978
   D11        1.03267  -0.00004   0.00000   0.00366   0.00351   1.03619
   D12        3.00049   0.00017   0.00000   0.01201   0.01195   3.01244
   D13       -0.56589   0.00010   0.00000   0.01164   0.01158  -0.55431
   D14       -1.86285  -0.00007   0.00000  -0.00077  -0.00085  -1.86370
   D15        0.10497   0.00013   0.00000   0.00759   0.00759   0.11256
   D16        2.82177   0.00006   0.00000   0.00722   0.00722   2.82899
   D17       -1.97468  -0.00003   0.00000  -0.00380  -0.00364  -1.97832
   D18        1.59115  -0.00000   0.00000   0.00187   0.00192   1.59307
   D19       -0.37137   0.00003   0.00000  -0.00647  -0.00611  -0.37748
   D20        2.73395  -0.00028   0.00000  -0.04028  -0.04014   2.69381
   D21        0.02642  -0.00011   0.00000  -0.02761  -0.02754  -0.00111
   D22       -1.73022  -0.00039   0.00000  -0.06090  -0.06079  -1.79101
   D23        0.03653  -0.00026   0.00000  -0.03473  -0.03470   0.00184
   D24       -2.67099  -0.00009   0.00000  -0.02206  -0.02210  -2.69309
   D25        1.85555  -0.00036   0.00000  -0.05535  -0.05535   1.80021
   D26       -1.77088  -0.00028   0.00000  -0.02242  -0.02239  -1.79326
   D27        1.80479  -0.00011   0.00000  -0.00974  -0.00979   1.79500
   D28        0.04815  -0.00038   0.00000  -0.04304  -0.04304   0.00510
   D29        2.96842   0.00021   0.00000   0.05040   0.05048   3.01890
   D30        0.87324   0.00002   0.00000   0.04260   0.04276   0.91600
   D31       -1.12060  -0.00007   0.00000   0.03663   0.03670  -1.08391
   D32       -1.29782   0.00016   0.00000   0.04825   0.04824  -1.24958
   D33        2.89018  -0.00002   0.00000   0.04045   0.04053   2.93071
   D34        0.89634  -0.00011   0.00000   0.03448   0.03446   0.93080
   D35        0.84559   0.00012   0.00000   0.04081   0.04082   0.88641
   D36       -1.24960  -0.00006   0.00000   0.03300   0.03311  -1.21649
   D37        3.03974  -0.00015   0.00000   0.02703   0.02704   3.06679
   D38        0.84433  -0.00007   0.00000   0.02321   0.02314   0.86747
   D39       -1.56462  -0.00014   0.00000  -0.02103  -0.02086  -1.58548
   D40        1.99089   0.00002   0.00000  -0.00871  -0.00858   1.98231
   D41        0.38514   0.00005   0.00000  -0.00516  -0.00504   0.38010
   D42       -0.92468   0.00012   0.00000   0.03078   0.03083  -0.89384
   D43       -3.09335  -0.00021   0.00000   0.01776   0.01778  -3.07557
   D44        1.18800  -0.00011   0.00000   0.01922   0.01928   1.20728
   D45        1.22485   0.00007   0.00000   0.01997   0.02006   1.24491
   D46       -0.94382  -0.00026   0.00000   0.00695   0.00700  -0.93682
   D47       -2.94566  -0.00016   0.00000   0.00841   0.00850  -2.93715
   D48       -3.04230   0.00006   0.00000   0.01733   0.01732  -3.02498
   D49        1.07221  -0.00027   0.00000   0.00431   0.00426   1.07647
   D50       -0.92962  -0.00017   0.00000   0.00578   0.00576  -0.92386
   D51       -0.88873  -0.00013   0.00000   0.01115   0.01108  -0.87765
   D52       -2.12233   0.00008   0.00000  -0.00721  -0.00708  -2.12942
   D53       -0.36894   0.00004   0.00000  -0.00463  -0.00449  -0.37343
   D54        1.41826   0.00023   0.00000   0.00657   0.00671   1.42497
   D55        2.13234   0.00012   0.00000  -0.00877  -0.00885   2.12349
   D56        0.38298   0.00003   0.00000  -0.00663  -0.00665   0.37632
   D57       -1.41639   0.00012   0.00000  -0.00653  -0.00657  -1.42296
         Item               Value     Threshold  Converged?
 Maximum Force            0.000636     0.000450     NO 
 RMS     Force            0.000180     0.000300     YES
 Maximum Displacement     0.083917     0.001800     NO 
 RMS     Displacement     0.019737     0.001200     NO 
 Predicted change in Energy=-1.183694D-04
 GradGradGradGradGradGradGradGradGradGradGradGradGradGradGradGradGradGrad

 Leave Link  103 at Mon Oct  6 14:26:42 2025, MaxMem=   104857600 cpu:               0.0 elap:               0.0
 (Enter /home/zhouoh/g16/l202.exe)
                          Input orientation:                          
 ---------------------------------------------------------------------
 Center     Atomic      Atomic             Coordinates (Angstroms)
 Number     Number       Type             X           Y           Z
 ---------------------------------------------------------------------
      1          6           0       -1.292855    0.701482    0.303382
      2          6           0       -1.291857   -0.700896    0.300821
      3          1           0       -1.814896    1.214811    1.102929
      4          1           0       -1.813716   -1.215275    1.100188
      5          6           0        1.538629    0.688276    0.223444
      6          1           0        2.048863    1.222890   -0.566889
      7          1           0        1.422650    1.230879    1.149642
      8          6           0        1.538342   -0.688607    0.227559
      9          1           0        1.420538   -1.227452    1.155957
     10          1           0        2.047263   -1.228965   -0.559799
     11          6           0       -0.435364    1.414706   -0.496624
     12          1           0       -0.133261    1.032055   -1.460865
     13          1           0       -0.365589    2.490052   -0.390861
     14          6           0       -0.437347   -1.415279   -0.500112
     15          1           0       -0.370841   -2.490943   -0.398313
     16          1           0       -0.127559   -1.027707   -1.459463
 ---------------------------------------------------------------------
                    Distance matrix (angstroms):
                    1          2          3          4          5
     1  C    0.000000
     2  C    1.402380   0.000000
     3  H    1.084117   2.141700   0.000000
     4  H    2.140130   1.084395   2.430088   0.000000
     5  C    2.832642   3.153956   3.506688   3.953531   0.000000
     6  H    3.492322   3.951491   4.209155   4.862439   1.082024
     7  H    2.893161   3.438139   3.237922   4.057115   1.079682
     8  C    3.154960   2.831175   3.953920   3.503592   1.376890
     9  H    3.436593   2.892336   4.054071   3.234758   2.133903
    10  H    3.953238   3.488445   4.863433   4.202726   2.132603
    11  C    1.372584   2.417699   2.121706   3.371419   2.223251
    12  H    2.136937   2.729285   3.071536   3.799133   2.397977
    13  H    2.130910   3.393898   2.440930   4.248500   2.692547
    14  C    2.420367   1.371869   3.374130   2.120225   2.975393
    15  H    3.396184   2.131040   4.251075   2.440230   3.760331
    16  H    2.730500   2.135649   3.800243   3.070850   2.924543
                    6          7          8          9         10
     6  H    0.000000
     7  H    1.827207   0.000000
     8  C    2.132041   2.132616   0.000000
     9  H    3.060582   2.458340   1.079887   0.000000
    10  H    2.451866   3.059929   1.082090   1.826638   0.000000
    11  C    2.492612   2.489217   2.973867   3.627175   3.627179
    12  H    2.365856   3.045511   2.933549   3.790438   3.267846
    13  H    2.732446   2.675157   3.756497   4.404853   4.436382
    14  C    3.625691   3.630900   2.227309   2.495913   2.492301
    15  H    4.435757   4.411886   2.699094   2.687230   2.732378
    16  H    3.255562   3.783092   2.395048   3.045804   2.362149
                   11         12         13         14         15
    11  C    0.000000
    12  H    1.080485   0.000000
    13  H    1.082785   1.823359   0.000000
    14  C    2.829988   2.646688   3.907518   0.000000
    15  H    3.907419   3.687407   4.981004   1.082515   0.000000
    16  H    2.643329   2.059771   3.684182   1.080062   1.823810
                   16
    16  H    0.000000
 Stoichiometry    C6H10
 Framework group  C1[X(C6H10)]
 Deg. of freedom    42
 Full point group                 C1      NOp   1
 RotChk:  IX=0 Diff= 5.58D-03
 Largest Abelian subgroup         C1      NOp   1
 Largest concise Abelian subgroup C1      NOp   1
                         Standard orientation:                         
 ---------------------------------------------------------------------
 Center     Atomic      Atomic             Coordinates (Angstroms)
 Number     Number       Type             X           Y           Z
 ---------------------------------------------------------------------
      1          6           0       -1.294278   -0.703018   -0.296091
      2          6           0       -1.294672    0.699362   -0.294508
      3          1           0       -1.819688   -1.217426   -1.092732
      4          1           0       -1.820928    1.212662   -1.091684
      5          6           0        1.537546   -0.686932   -0.229938
      6          1           0        2.052154   -1.220483    0.558273
      7          1           0        1.417606   -1.230297   -1.155185
      8          6           0        1.535862    0.689948   -0.235007
      9          1           0        1.413003    1.228026   -1.163195
     10          1           0        2.048065    1.231363    0.549490
     11          6           0       -0.432193   -1.414827    0.500228
     12          1           0       -0.125786   -1.031200    1.462722
     13          1           0       -0.361856   -2.490176    0.394874
     14          6           0       -0.436991    1.415157    0.501762
     15          1           0       -0.372058    2.490815    0.398895
     16          1           0       -0.122152    1.028565    1.459863
 ---------------------------------------------------------------------
 Rotational constants (GHZ):           4.4087173           3.5940225           2.3416526
 Leave Link  202 at Mon Oct  6 14:26:42 2025, MaxMem=   104857600 cpu:               0.0 elap:               0.0
 (Enter /home/zhouoh/g16/l301.exe)
 Standard basis: STO-3G (5D, 7F)
 Ernie: Thresh=  0.10000D-02 Tol=  0.10000D-05 Strict=F.
 There are    40 symmetry adapted cartesian basis functions of A   symmetry.
 There are    40 symmetry adapted basis functions of A   symmetry.
    40 basis functions,   120 primitive gaussians,    40 cartesian basis functions
    23 alpha electrons       23 beta electrons
       nuclear repulsion energy       226.6259404386 Hartrees.
 IExCor=    0 DFT=F Ex=HF Corr=None ExCW=0 ScaHFX=  1.000000
 ScaDFX=  1.000000  1.000000  1.000000  1.000000 ScalE2=  1.000000  1.000000
 IRadAn=      5 IRanWt=     -1 IRanGd=            0 ICorTp=0 IEmpDi=  4
 NAtoms=   16 NActive=   16 NUniq=   16 SFac= 1.00D+00 NAtFMM=   60 NAOKFM=F Big=F
 Integral buffers will be    131072 words long.
 Raffenetti 1 integral format.
 Two-electron integral symmetry is turned on.
 Leave Link  301 at Mon Oct  6 14:26:42 2025, MaxMem=   104857600 cpu:               0.0 elap:               0.0
 (Enter /home/zhouoh/g16/l402.exe)
 External calculation of energy and first derivatives.
 Running external command "python ../GauUMA_client.py R"
         input file       "/home/zhouoh/scratch/Gau-2816605.EIn"
         output file      "/home/zhouoh/scratch/Gau-2816605.EOu"
         message file     "/home/zhouoh/scratch/Gau-2816605.EMs"
         fchk file        "/home/zhouoh/scratch/Gau-2816605.EFC"
         mat. el file     "/home/zhouoh/scratch/Gau-2816605.EUF"
Sent job to server.
Received result from server:
SCF Done:  E(UMA) =  -234.49385964455018     A.U.
 Recovered energy= -234.493859645     dipole=      0.000000000000      0.000000000000      0.000000000000
 Energy=    -234.493860     NIter=   0.
 Dipole moment=       0.000000       0.000000       0.000000
 Leave Link  402 at Mon Oct  6 14:26:42 2025, MaxMem=   104857600 cpu:               0.0 elap:               0.1
 (Enter /home/zhouoh/g16/l716.exe)
 Dipole        = 0.00000000D+00 0.00000000D+00 0.00000000D+00
 ***** Axes restored to original set *****
 -------------------------------------------------------------------
 Center     Atomic                   Forces (Hartrees/Bohr)
 Number     Number              X              Y              Z
 -------------------------------------------------------------------
      1        6          -0.000029601   -0.000042452    0.000361487
      2        6           0.000255196   -0.000093787   -0.000299224
      3        1          -0.000003458   -0.000031930    0.000030121
      4        1          -0.000030884   -0.000018792   -0.000010748
      5        6           0.000146583   -0.000047215    0.000205627
      6        1          -0.000306190    0.000017469   -0.000255865
      7        1           0.000128592    0.000011483    0.000027246
      8        6           0.000355827    0.000042618    0.000292866
      9        1          -0.000191556   -0.000024388   -0.000042857
     10        1          -0.000390192    0.000076007   -0.000184343
     11        6          -0.000561647    0.000131408   -0.000134687
     12        1           0.000279089   -0.000081746    0.000229556
     13        1           0.000059058    0.000001342    0.000037015
     14        6          -0.000072533    0.000054893   -0.000390192
     15        1           0.000050339    0.000010166    0.000091582
     16        1           0.000311376   -0.000005078    0.000042414
 -------------------------------------------------------------------
 Cartesian Forces:  Max     0.000561647 RMS     0.000191036
 Leave Link  716 at Mon Oct  6 14:26:42 2025, MaxMem=   104857600 cpu:               0.0 elap:               0.0
 (Enter /home/zhouoh/g16/l103.exe)

 GradGradGradGradGradGradGradGradGradGradGradGradGradGradGradGradGradGrad
 Berny optimization.
 FormGI is forming the generalized inverse of G from B-inverse, IUseBI=4.
 Internal  Forces:  Max     0.000257154 RMS     0.000072372
 Search for a saddle point.
 Step number  18 out of a maximum of  100
 All quantities printed in internal units (Hartrees-Bohrs-Radians)
 Swapping is turned off.
 Update second derivatives using D2CorX and points    1    5    6    7    8
                                                      9   10   11   13   14
                                                     15   16   17   18
 ITU=  0  0  0  0  0  0  0  0  0  0  0  0  0  0  0  0  0  0
     Eigenvalues ---   -0.03885   0.00169   0.00635   0.00819   0.01147
     Eigenvalues ---    0.01239   0.01451   0.01705   0.01793   0.02073
     Eigenvalues ---    0.02098   0.02266   0.02397   0.02482   0.02775
     Eigenvalues ---    0.03278   0.03886   0.04140   0.04662   0.04705
     Eigenvalues ---    0.05162   0.05246   0.05872   0.06160   0.09137
     Eigenvalues ---    0.11719   0.11900   0.15559   0.30244   0.30802
     Eigenvalues ---    0.32551   0.33512   0.34000   0.34826   0.34871
     Eigenvalues ---    0.35406   0.35500   0.35842   0.36071   0.43527
     Eigenvalues ---    0.43737   0.48886
 Eigenvectors required to have negative eigenvalues:
                          R13       R9        D20       D24       D6
   1                    0.54701   0.54011   0.16913  -0.15793  -0.15771
                          D13       D9        A27       D40       D16
   1                    0.15164  -0.14376   0.13255  -0.13178   0.12952
 RFO step:  Lambda0=1.117608922D-06 Lambda=-3.55929962D-05.
 Linear search not attempted -- option 19 set.
 Iteration  1 RMS(Cart)=  0.00794388 RMS(Int)=  0.00005419
 Iteration  2 RMS(Cart)=  0.00005157 RMS(Int)=  0.00001721
 Iteration  3 RMS(Cart)=  0.00000000 RMS(Int)=  0.00001721
 ITry= 1 IFail=0 DXMaxC= 3.28D-02 DCOld= 1.00D+10 DXMaxT= 3.00D-01 DXLimC= 3.00D+00 Rises=F
 Variable       Old X    -DE/DX   Delta X   Delta X   Delta X     New X
                                 (Linear)    (Quad)   (Total)
    R1        2.65012  -0.00001   0.00000  -0.00070  -0.00069   2.64943
    R2        2.04868   0.00000   0.00000  -0.00003  -0.00003   2.04866
    R3        2.59381  -0.00002   0.00000  -0.00014  -0.00013   2.59368
    R4        2.04921   0.00002   0.00000   0.00000   0.00000   2.04921
    R5        2.59246  -0.00008   0.00000   0.00085   0.00085   2.59331
    R6        2.04473   0.00005   0.00000   0.00005   0.00005   2.04478
    R7        2.04030  -0.00001   0.00000  -0.00002  -0.00002   2.04028
    R8        2.60194  -0.00003   0.00000   0.00051   0.00051   2.60245
    R9        4.20134   0.00016   0.00000  -0.00011  -0.00013   4.20121
   R10        4.47082  -0.00011   0.00000  -0.03323  -0.03322   4.43760
   R11        2.04069   0.00002   0.00000   0.00007   0.00007   2.04076
   R12        2.04485  -0.00001   0.00000  -0.00048  -0.00048   2.04438
   R13        4.20900  -0.00001   0.00000  -0.01168  -0.01169   4.19731
   R14        4.46381  -0.00026   0.00000  -0.02559  -0.02558   4.43824
   R15        2.04182  -0.00003   0.00000  -0.00041  -0.00040   2.04143
   R16        2.04617   0.00000   0.00000  -0.00008  -0.00008   2.04609
   R17        2.04566   0.00001   0.00000   0.00009   0.00009   2.04575
   R18        2.04102   0.00000   0.00000  -0.00008  -0.00010   2.04092
    A1        2.06597   0.00014   0.00000   0.00041   0.00041   2.06638
    A2        2.11544  -0.00021   0.00000  -0.00026  -0.00026   2.11518
    A3        2.07675   0.00008   0.00000   0.00047   0.00047   2.07722
    A4        2.06310  -0.00014   0.00000   0.00023   0.00023   2.06333
    A5        2.12028   0.00018   0.00000  -0.00023  -0.00024   2.12003
    A6        2.07501  -0.00004   0.00000  -0.00023  -0.00022   2.07479
    A7        2.01411   0.00002   0.00000   0.00090   0.00089   2.01500
    A8        2.09020  -0.00004   0.00000  -0.00130  -0.00128   2.08892
    A9        1.59148  -0.00002   0.00000  -0.00349  -0.00348   1.58800
   A10        2.09436   0.00004   0.00000   0.00109   0.00109   2.09545
   A11        1.58905   0.00001   0.00000   0.00225   0.00228   1.59134
   A12        1.90448  -0.00003   0.00000  -0.00024  -0.00031   1.90417
   A13        1.37068   0.00001   0.00000   0.00790   0.00787   1.37855
   A14        2.09621   0.00001   0.00000   0.00058   0.00058   2.09679
   A15        2.09104   0.00001   0.00000  -0.00012  -0.00013   2.09090
   A16        1.90230  -0.00001   0.00000   0.00066   0.00062   1.90291
   A17        2.01273   0.00002   0.00000   0.00113   0.00116   2.01388
   A18        1.59211   0.00003   0.00000   0.00648   0.00649   1.59860
   A19        1.58734  -0.00013   0.00000  -0.01089  -0.01089   1.57645
   A20        1.37104   0.00013   0.00000   0.00627   0.00624   1.37728
   A21        1.76821   0.00004   0.00000   0.00278   0.00278   1.77099
   A22        2.10690  -0.00004   0.00000  -0.00039  -0.00039   2.10651
   A23        2.09368   0.00006   0.00000   0.00159   0.00159   2.09527
   A24        1.49579  -0.00010   0.00000  -0.00737  -0.00739   1.48841
   A25        1.80868  -0.00005   0.00000   0.00001   0.00001   1.80868
   A26        2.00519   0.00001   0.00000   0.00042   0.00042   2.00562
   A27        1.46269   0.00012   0.00000   0.01229   0.01231   1.47500
   A28        1.76388  -0.00005   0.00000   0.00050   0.00049   1.76437
   A29        2.09533  -0.00006   0.00000  -0.00173  -0.00173   2.09360
   A30        2.10641   0.00007   0.00000   0.00205   0.00206   2.10848
   A31        1.81210  -0.00002   0.00000  -0.00078  -0.00076   1.81134
   A32        1.48940   0.00002   0.00000  -0.00011  -0.00013   1.48927
   A33        2.00697   0.00003   0.00000  -0.00002  -0.00003   2.00695
   A34        1.46581  -0.00002   0.00000  -0.00391  -0.00393   1.46188
    D1       -0.00049   0.00001   0.00000   0.00067   0.00067   0.00018
    D2       -2.90197  -0.00001   0.00000   0.00181   0.00183  -2.90014
    D3        2.90019   0.00006   0.00000   0.00370   0.00368   2.90388
    D4       -0.00128   0.00005   0.00000   0.00485   0.00484   0.00356
    D5       -1.03469  -0.00004   0.00000   0.00244   0.00247  -1.03222
    D6        0.56606  -0.00015   0.00000  -0.00469  -0.00469   0.56138
    D7       -3.00902  -0.00004   0.00000  -0.00029  -0.00026  -3.00928
    D8        1.86454   0.00002   0.00000   0.00549   0.00550   1.87004
    D9       -2.81789  -0.00009   0.00000  -0.00165  -0.00166  -2.81955
   D10       -0.10978   0.00002   0.00000   0.00276   0.00276  -0.10702
   D11        1.03619   0.00003   0.00000  -0.00066  -0.00070   1.03549
   D12        3.01244  -0.00006   0.00000  -0.00207  -0.00209   3.01035
   D13       -0.55431   0.00003   0.00000  -0.00126  -0.00127  -0.55558
   D14       -1.86370   0.00003   0.00000   0.00043   0.00041  -1.86329
   D15        0.11256  -0.00005   0.00000  -0.00098  -0.00098   0.11157
   D16        2.82899   0.00003   0.00000  -0.00017  -0.00016   2.82883
   D17       -1.97832   0.00001   0.00000   0.00234   0.00236  -1.97595
   D18        1.59307  -0.00005   0.00000   0.00038   0.00038   1.59344
   D19       -0.37748   0.00001   0.00000   0.00321   0.00326  -0.37422
   D20        2.69381   0.00017   0.00000   0.01357   0.01360   2.70741
   D21       -0.00111   0.00004   0.00000   0.00922   0.00923   0.00812
   D22       -1.79101   0.00021   0.00000   0.02244   0.02246  -1.76855
   D23        0.00184   0.00011   0.00000   0.01160   0.01161   0.01345
   D24       -2.69309  -0.00002   0.00000   0.00725   0.00724  -2.68585
   D25        1.80021   0.00015   0.00000   0.02047   0.02047   1.82067
   D26       -1.79326   0.00010   0.00000   0.00842   0.00842  -1.78484
   D27        1.79500  -0.00003   0.00000   0.00407   0.00405   1.79905
   D28        0.00510   0.00013   0.00000   0.01728   0.01728   0.02238
   D29        3.01890  -0.00008   0.00000  -0.01885  -0.01884   3.00006
   D30        0.91600  -0.00002   0.00000  -0.01715  -0.01712   0.89888
   D31       -1.08391  -0.00001   0.00000  -0.01587  -0.01586  -1.09976
   D32       -1.24958  -0.00005   0.00000  -0.01798  -0.01798  -1.26756
   D33        2.93071   0.00000   0.00000  -0.01628  -0.01627   2.91444
   D34        0.93080   0.00001   0.00000  -0.01500  -0.01500   0.91580
   D35        0.88641  -0.00001   0.00000  -0.01591  -0.01590   0.87050
   D36       -1.21649   0.00004   0.00000  -0.01420  -0.01419  -1.23068
   D37        3.06679   0.00006   0.00000  -0.01293  -0.01292   3.05386
   D38        0.86747   0.00003   0.00000  -0.01082  -0.01084   0.85662
   D39       -1.58548   0.00010   0.00000   0.01014   0.01018  -1.57531
   D40        1.98231  -0.00003   0.00000   0.00611   0.00613   1.98844
   D41        0.38010   0.00000   0.00000   0.00406   0.00408   0.38418
   D42       -0.89384  -0.00008   0.00000  -0.01420  -0.01420  -0.90804
   D43       -3.07557   0.00002   0.00000  -0.01218  -0.01218  -3.08775
   D44        1.20728  -0.00001   0.00000  -0.01212  -0.01211   1.19517
   D45        1.24491  -0.00005   0.00000  -0.01067  -0.01066   1.23426
   D46       -0.93682   0.00005   0.00000  -0.00865  -0.00864  -0.94546
   D47       -2.93715   0.00002   0.00000  -0.00859  -0.00856  -2.94572
   D48       -3.02498  -0.00003   0.00000  -0.00969  -0.00970  -3.03468
   D49        1.07647   0.00007   0.00000  -0.00767  -0.00768   1.06879
   D50       -0.92386   0.00004   0.00000  -0.00761  -0.00760  -0.93147
   D51       -0.87765  -0.00001   0.00000  -0.00965  -0.00967  -0.88732
   D52       -2.12942   0.00001   0.00000   0.00386   0.00390  -2.12552
   D53       -0.37343  -0.00001   0.00000   0.00273   0.00277  -0.37066
   D54        1.42497  -0.00010   0.00000  -0.00063  -0.00060   1.42437
   D55        2.12349  -0.00003   0.00000   0.00524   0.00522   2.12871
   D56        0.37632   0.00001   0.00000   0.00468   0.00468   0.38100
   D57       -1.42296   0.00002   0.00000   0.00559   0.00558  -1.41738
         Item               Value     Threshold  Converged?
 Maximum Force            0.000257     0.000450     YES
 RMS     Force            0.000072     0.000300     YES
 Maximum Displacement     0.032803     0.001800     NO 
 RMS     Displacement     0.007943     0.001200     NO 
 Predicted change in Energy=-1.738155D-05
 GradGradGradGradGradGradGradGradGradGradGradGradGradGradGradGradGradGrad

 Leave Link  103 at Mon Oct  6 14:26:42 2025, MaxMem=   104857600 cpu:               0.0 elap:               0.0
 (Enter /home/zhouoh/g16/l202.exe)
                          Input orientation:                          
 ---------------------------------------------------------------------
 Center     Atomic      Atomic             Coordinates (Angstroms)
 Number     Number       Type             X           Y           Z
 ---------------------------------------------------------------------
      1          6           0       -1.293872    0.699744    0.305840
      2          6           0       -1.291882   -0.702244    0.297413
      3          1           0       -1.818544    1.209745    1.105776
      4          1           0       -1.816241   -1.220544    1.092603
      5          6           0        1.540220    0.688070    0.218073
      6          1           0        2.042272    1.212533   -0.584248
      7          1           0        1.437598    1.239939    1.140351
      8          6           0        1.533912   -0.688984    0.233800
      9          1           0        1.413919   -1.220022    1.166451
     10          1           0        2.036819   -1.237939   -0.551124
     11          6           0       -0.436811    1.416573   -0.491279
     12          1           0       -0.131435    1.035672   -1.454948
     13          1           0       -0.366594    2.491561   -0.382636
     14          6           0       -0.432611   -1.412631   -0.502752
     15          1           0       -0.365516   -2.488463   -0.402617
     16          1           0       -0.118234   -1.022984   -1.459708
 ---------------------------------------------------------------------
                    Distance matrix (angstroms):
                    1          2          3          4          5
     1  C    0.000000
     2  C    1.402016   0.000000
     3  H    1.084103   2.141618   0.000000
     4  H    2.139947   1.084396   2.430326   0.000000
     5  C    2.835475   3.155958   3.513041   3.958969   0.000000
     6  H    3.490711   3.944653   4.214510   4.860022   1.082052
     7  H    2.906742   3.454372   3.256466   4.079672   1.079670
     8  C    3.151209   2.826541   3.950250   3.499088   1.377158
     9  H    3.429036   2.888716   4.044288   3.231004   2.134524
    10  H    3.947468   3.476670   4.858014   4.189058   2.132553
    11  C    1.372514   2.417141   2.121922   3.371334   2.223184
    12  H    2.136464   2.727225   3.071473   3.797248   2.390451
    13  H    2.131771   3.393967   2.442658   4.249415   2.692465
    14  C    2.420273   1.372319   3.374171   2.120492   2.970622
    15  H    3.395353   2.130440   4.250092   2.438832   3.755989
    16  H    2.732596   2.137241   3.802348   3.071897   2.914296
                    6          7          8          9         10
     6  H    0.000000
     7  H    1.827736   0.000000
     8  C    2.131525   2.133507   0.000000
     9  H    3.062205   2.460213   1.079925   0.000000
    10  H    2.450702   3.059416   1.081838   1.827126   0.000000
    11  C    2.489202   2.491351   2.973694   3.622831   3.628892
    12  H    2.348277   3.039599   2.932523   3.787877   3.269179
    13  H    2.734812   2.672295   3.756032   4.398380   4.440039
    14  C    3.608764   3.637801   2.221123   2.496600   2.476074
    15  H    4.419028   4.419610   2.692765   2.690224   2.712394
    16  H    3.229823   3.781764   2.389375   3.046806   2.348613
                   11         12         13         14         15
    11  C    0.000000
    12  H    1.080276   0.000000
    13  H    1.082743   1.823393   0.000000
    14  C    2.829230   2.644158   3.906597   0.000000
    15  H    3.906693   3.685339   4.980064   1.082564   0.000000
    16  H    2.644009   2.058705   3.684263   1.080011   1.823793
                   16
    16  H    0.000000
 Stoichiometry    C6H10
 Framework group  C1[X(C6H10)]
 Deg. of freedom    42
 Full point group                 C1      NOp   1
 RotChk:  IX=3 Diff= 2.56D-03
 Largest Abelian subgroup         C1      NOp   1
 Largest concise Abelian subgroup C1      NOp   1
                         Standard orientation:                         
 ---------------------------------------------------------------------
 Center     Atomic      Atomic             Coordinates (Angstroms)
 Number     Number       Type             X           Y           Z
 ---------------------------------------------------------------------
      1          6           0       -1.296544   -0.699176   -0.297334
      2          6           0       -1.293564    0.702820   -0.290635
      3          1           0       -1.825788   -1.209796   -1.093857
      4          1           0       -1.821775    1.220505   -1.083673
      5          6           0        1.537980   -0.689326   -0.224583
      6          1           0        2.043918   -1.213151    0.575710
      7          1           0        1.430105   -1.242250   -1.145628
      8          6           0        1.532518    0.687712   -0.241964
      9          1           0        1.407948    1.217693   -1.174616
     10          1           0        2.039943    1.237282    0.539615
     11          6           0       -0.435760   -1.415615    0.496115
     12          1           0       -0.125030   -1.033746    1.457686
     13          1           0       -0.366844   -2.490782    0.388418
     14          6           0       -0.429590    1.413598    0.504100
     15          1           0       -0.362300    2.489261    0.402294
     16          1           0       -0.110414    1.024906    1.459855
 ---------------------------------------------------------------------
 Rotational constants (GHZ):           4.4119215           3.5987599           2.3435285
 Leave Link  202 at Mon Oct  6 14:26:42 2025, MaxMem=   104857600 cpu:               0.0 elap:               0.0
 (Enter /home/zhouoh/g16/l301.exe)
 Standard basis: STO-3G (5D, 7F)
 Ernie: Thresh=  0.10000D-02 Tol=  0.10000D-05 Strict=F.
 There are    40 symmetry adapted cartesian basis functions of A   symmetry.
 There are    40 symmetry adapted basis functions of A   symmetry.
    40 basis functions,   120 primitive gaussians,    40 cartesian basis functions
    23 alpha electrons       23 beta electrons
       nuclear repulsion energy       226.7017702643 Hartrees.
 IExCor=    0 DFT=F Ex=HF Corr=None ExCW=0 ScaHFX=  1.000000
 ScaDFX=  1.000000  1.000000  1.000000  1.000000 ScalE2=  1.000000  1.000000
 IRadAn=      5 IRanWt=     -1 IRanGd=            0 ICorTp=0 IEmpDi=  4
 NAtoms=   16 NActive=   16 NUniq=   16 SFac= 1.00D+00 NAtFMM=   60 NAOKFM=F Big=F
 Integral buffers will be    131072 words long.
 Raffenetti 1 integral format.
 Two-electron integral symmetry is turned on.
 Leave Link  301 at Mon Oct  6 14:26:42 2025, MaxMem=   104857600 cpu:               0.0 elap:               0.0
 (Enter /home/zhouoh/g16/l402.exe)
 External calculation of energy and first derivatives.
 Running external command "python ../GauUMA_client.py R"
         input file       "/home/zhouoh/scratch/Gau-2816605.EIn"
         output file      "/home/zhouoh/scratch/Gau-2816605.EOu"
         message file     "/home/zhouoh/scratch/Gau-2816605.EMs"
         fchk file        "/home/zhouoh/scratch/Gau-2816605.EFC"
         mat. el file     "/home/zhouoh/scratch/Gau-2816605.EUF"
Sent job to server.
Received result from server:
SCF Done:  E(UMA) =  -234.49387036013513     A.U.
 Recovered energy= -234.493870360     dipole=      0.000000000000      0.000000000000      0.000000000000
 Energy=    -234.493870     NIter=   0.
 Dipole moment=       0.000000       0.000000       0.000000
 Leave Link  402 at Mon Oct  6 14:26:43 2025, MaxMem=   104857600 cpu:               0.0 elap:               0.1
 (Enter /home/zhouoh/g16/l716.exe)
 Dipole        = 0.00000000D+00 0.00000000D+00 0.00000000D+00
 ***** Axes restored to original set *****
 -------------------------------------------------------------------
 Center     Atomic                   Forces (Hartrees/Bohr)
 Number     Number              X              Y              Z
 -------------------------------------------------------------------
      1        6           0.000410977    0.000012048   -0.000337000
      2        6          -0.000386513   -0.000036498    0.000326913
      3        1          -0.000003594   -0.000029509    0.000024698
      4        1           0.000003188   -0.000028892   -0.000013171
      5        6           0.000038892   -0.000017195    0.000016930
      6        1           0.000013793    0.000034907    0.000012553
      7        1          -0.000024857   -0.000005740    0.000018962
      8        6           0.000018695    0.000034933    0.000055448
      9        1           0.000014943   -0.000013185   -0.000025710
     10        1          -0.000025506    0.000016991   -0.000047496
     11        6          -0.000057984    0.000007027   -0.000015076
     12        1          -0.000028890    0.000010226   -0.000020868
     13        1          -0.000015481    0.000000961    0.000043545
     14        6          -0.000034602   -0.000005775   -0.000012541
     15        1           0.000033829   -0.000001532   -0.000038104
     16        1           0.000043112    0.000021233    0.000010916
 -------------------------------------------------------------------
 Cartesian Forces:  Max     0.000410977 RMS     0.000108959
 Leave Link  716 at Mon Oct  6 14:26:43 2025, MaxMem=   104857600 cpu:               0.0 elap:               0.0
 (Enter /home/zhouoh/g16/l103.exe)

 GradGradGradGradGradGradGradGradGradGradGradGradGradGradGradGradGradGrad
 Berny optimization.
 FormGI is forming the generalized inverse of G from B-inverse, IUseBI=4.
 Internal  Forces:  Max     0.000263357 RMS     0.000052815
 Search for a saddle point.
 Step number  19 out of a maximum of  100
 All quantities printed in internal units (Hartrees-Bohrs-Radians)
 Swapping is turned off.
 Update second derivatives using D2CorX and points    1    4    5    6    7
                                                      8    9   10   11   13
                                                     14   15   16   17   18
                                                     19
 ITU=  0  0  0  0  0  0  0  0  0  0  0  0  0  0  0  0  0  0  0
     Eigenvalues ---   -0.03875   0.00102   0.00759   0.00822   0.01147
     Eigenvalues ---    0.01335   0.01479   0.01714   0.01786   0.02073
     Eigenvalues ---    0.02098   0.02266   0.02393   0.02490   0.02785
     Eigenvalues ---    0.03214   0.03877   0.04150   0.04654   0.04704
     Eigenvalues ---    0.05164   0.05248   0.05871   0.06165   0.09136
     Eigenvalues ---    0.11719   0.11900   0.15612   0.30256   0.30801
     Eigenvalues ---    0.32553   0.33514   0.34001   0.34826   0.34871
     Eigenvalues ---    0.35407   0.35499   0.35843   0.36071   0.43564
     Eigenvalues ---    0.43741   0.48888
 Eigenvectors required to have negative eigenvalues:
                          R9        R13       D20       D6        D24
   1                    0.54727   0.54095   0.16985  -0.15828  -0.15561
                          D13       D9        A27       D16       A24
   1                    0.15356  -0.14433   0.13378   0.13138  -0.12754
 RFO step:  Lambda0=5.290306525D-08 Lambda=-3.09550264D-06.
 Linear search not attempted -- option 19 set.
 Iteration  1 RMS(Cart)=  0.00126461 RMS(Int)=  0.00000161
 Iteration  2 RMS(Cart)=  0.00000152 RMS(Int)=  0.00000072
 Iteration  3 RMS(Cart)=  0.00000000 RMS(Int)=  0.00000072
 ITry= 1 IFail=0 DXMaxC= 4.13D-03 DCOld= 1.00D+10 DXMaxT= 3.00D-01 DXLimC= 3.00D+00 Rises=F
 Variable       Old X    -DE/DX   Delta X   Delta X   Delta X     New X
                                 (Linear)    (Quad)   (Total)
    R1        2.64943   0.00002   0.00000  -0.00004  -0.00004   2.64939
    R2        2.04866   0.00001   0.00000   0.00016   0.00016   2.04882
    R3        2.59368  -0.00014   0.00000  -0.00025  -0.00024   2.59343
    R4        2.04921   0.00000   0.00000  -0.00016  -0.00016   2.04905
    R5        2.59331   0.00012   0.00000   0.00036   0.00036   2.59367
    R6        2.04478   0.00003   0.00000  -0.00001  -0.00001   2.04477
    R7        2.04028   0.00002   0.00000   0.00006   0.00006   2.04034
    R8        2.60245  -0.00001   0.00000   0.00005   0.00005   2.60250
    R9        4.20121  -0.00003   0.00000  -0.00152  -0.00152   4.19969
   R10        4.43760   0.00001   0.00000  -0.00052  -0.00052   4.43708
   R11        2.04076  -0.00002   0.00000  -0.00007  -0.00007   2.04069
   R12        2.04438  -0.00000   0.00000   0.00004   0.00004   2.04442
   R13        4.19731   0.00007   0.00000  -0.00006  -0.00006   4.19726
   R14        4.43824   0.00000   0.00000  -0.00188  -0.00188   4.43635
   R15        2.04143  -0.00001   0.00000   0.00005   0.00005   2.04148
   R16        2.04609   0.00000   0.00000   0.00002   0.00002   2.04610
   R17        2.04575   0.00000   0.00000  -0.00000  -0.00000   2.04575
   R18        2.04092   0.00003   0.00000   0.00002   0.00002   2.04094
    A1        2.06638  -0.00017   0.00000  -0.00138  -0.00138   2.06500
    A2        2.11518   0.00026   0.00000   0.00254   0.00254   2.11771
    A3        2.07722  -0.00009   0.00000  -0.00109  -0.00109   2.07613
    A4        2.06333   0.00016   0.00000   0.00149   0.00149   2.06482
    A5        2.12003  -0.00026   0.00000  -0.00276  -0.00276   2.11728
    A6        2.07479   0.00009   0.00000   0.00118   0.00118   2.07597
    A7        2.01500  -0.00001   0.00000  -0.00006  -0.00006   2.01495
    A8        2.08892   0.00004   0.00000   0.00009   0.00010   2.08901
    A9        1.58800  -0.00003   0.00000  -0.00020  -0.00021   1.58779
   A10        2.09545  -0.00002   0.00000  -0.00008  -0.00008   2.09538
   A11        1.59134   0.00004   0.00000   0.00029   0.00029   1.59162
   A12        1.90417  -0.00002   0.00000  -0.00000  -0.00000   1.90416
   A13        1.37855   0.00002   0.00000   0.00127   0.00127   1.37981
   A14        2.09679   0.00003   0.00000   0.00016   0.00016   2.09695
   A15        2.09090  -0.00004   0.00000  -0.00016  -0.00016   2.09074
   A16        1.90291   0.00003   0.00000  -0.00001  -0.00001   1.90291
   A17        2.01388   0.00001   0.00000   0.00008   0.00008   2.01397
   A18        1.59860  -0.00004   0.00000   0.00039   0.00039   1.59899
   A19        1.57645   0.00002   0.00000  -0.00057  -0.00057   1.57588
   A20        1.37728  -0.00001   0.00000  -0.00057  -0.00057   1.37671
   A21        1.77099  -0.00005   0.00000  -0.00065  -0.00065   1.77034
   A22        2.10651   0.00001   0.00000   0.00125   0.00125   2.10776
   A23        2.09527  -0.00001   0.00000  -0.00162  -0.00162   2.09364
   A24        1.48841   0.00005   0.00000   0.00178   0.00178   1.49019
   A25        1.80868   0.00000   0.00000  -0.00018  -0.00019   1.80850
   A26        2.00562   0.00001   0.00000   0.00016   0.00016   2.00578
   A27        1.47500  -0.00004   0.00000  -0.00068  -0.00068   1.47433
   A28        1.76437   0.00004   0.00000   0.00046   0.00046   1.76483
   A29        2.09360   0.00001   0.00000   0.00162   0.00162   2.09522
   A30        2.10848  -0.00000   0.00000  -0.00108  -0.00108   2.10740
   A31        1.81134  -0.00001   0.00000  -0.00019  -0.00019   1.81114
   A32        1.48927  -0.00005   0.00000  -0.00146  -0.00146   1.48781
   A33        2.00695  -0.00001   0.00000  -0.00022  -0.00022   2.00673
   A34        1.46188   0.00004   0.00000   0.00032   0.00031   1.46219
    D1        0.00018  -0.00002   0.00000   0.00088   0.00088   0.00106
    D2       -2.90014  -0.00000   0.00000   0.00107   0.00107  -2.89907
    D3        2.90388   0.00000   0.00000   0.00101   0.00101   2.90489
    D4        0.00356   0.00002   0.00000   0.00120   0.00120   0.00476
    D5       -1.03222  -0.00003   0.00000  -0.00080  -0.00080  -1.03302
    D6        0.56138  -0.00001   0.00000   0.00119   0.00119   0.56256
    D7       -3.00928   0.00000   0.00000   0.00066   0.00066  -3.00862
    D8        1.87004  -0.00003   0.00000  -0.00070  -0.00070   1.86934
    D9       -2.81955   0.00000   0.00000   0.00129   0.00129  -2.81827
   D10       -0.10702   0.00001   0.00000   0.00076   0.00076  -0.10626
   D11        1.03549  -0.00002   0.00000  -0.00053  -0.00052   1.03497
   D12        3.01035  -0.00000   0.00000   0.00031   0.00031   3.01066
   D13       -0.55558   0.00001   0.00000   0.00114   0.00115  -0.55443
   D14       -1.86329  -0.00002   0.00000  -0.00037  -0.00037  -1.86366
   D15        0.11157   0.00000   0.00000   0.00046   0.00046   0.11203
   D16        2.82883   0.00001   0.00000   0.00130   0.00130   2.83013
   D17       -1.97595  -0.00003   0.00000   0.00067   0.00067  -1.97529
   D18        1.59344  -0.00003   0.00000   0.00078   0.00078   1.59422
   D19       -0.37422   0.00000   0.00000   0.00088   0.00089  -0.37333
   D20        2.70741  -0.00001   0.00000   0.00032   0.00032   2.70773
   D21        0.00812  -0.00001   0.00000   0.00009   0.00009   0.00821
   D22       -1.76855  -0.00003   0.00000   0.00088   0.00088  -1.76766
   D23        0.01345  -0.00003   0.00000   0.00043   0.00043   0.01387
   D24       -2.68585  -0.00003   0.00000   0.00020   0.00020  -2.68565
   D25        1.82067  -0.00005   0.00000   0.00099   0.00099   1.82167
   D26       -1.78484  -0.00005   0.00000   0.00011   0.00011  -1.78473
   D27        1.79905  -0.00005   0.00000  -0.00012  -0.00012   1.79893
   D28        0.02238  -0.00007   0.00000   0.00067   0.00067   0.02306
   D29        3.00006   0.00002   0.00000  -0.00129  -0.00129   2.99877
   D30        0.89888   0.00000   0.00000  -0.00288  -0.00288   0.89599
   D31       -1.09976  -0.00001   0.00000  -0.00346  -0.00346  -1.10322
   D32       -1.26756   0.00001   0.00000  -0.00134  -0.00135  -1.26890
   D33        2.91444  -0.00000   0.00000  -0.00294  -0.00294   2.91150
   D34        0.91580  -0.00002   0.00000  -0.00351  -0.00351   0.91229
   D35        0.87050  -0.00001   0.00000  -0.00131  -0.00131   0.86920
   D36       -1.23068  -0.00002   0.00000  -0.00290  -0.00290  -1.23359
   D37        3.05386  -0.00004   0.00000  -0.00347  -0.00347   3.05039
   D38        0.85662  -0.00000   0.00000  -0.00296  -0.00296   0.85366
   D39       -1.57531  -0.00003   0.00000   0.00136   0.00136  -1.57395
   D40        1.98844  -0.00003   0.00000   0.00112   0.00112   1.98956
   D41        0.38418   0.00000   0.00000   0.00096   0.00096   0.38514
   D42       -0.90804  -0.00001   0.00000  -0.00167  -0.00167  -0.90971
   D43       -3.08775  -0.00004   0.00000  -0.00360  -0.00360  -3.09135
   D44        1.19517  -0.00002   0.00000  -0.00303  -0.00303   1.19215
   D45        1.23426   0.00001   0.00000  -0.00133  -0.00133   1.23293
   D46       -0.94546  -0.00002   0.00000  -0.00325  -0.00325  -0.94871
   D47       -2.94572  -0.00000   0.00000  -0.00268  -0.00268  -2.94840
   D48       -3.03468   0.00002   0.00000  -0.00126  -0.00126  -3.03594
   D49        1.06879  -0.00001   0.00000  -0.00319  -0.00319   1.06561
   D50       -0.93147   0.00001   0.00000  -0.00262  -0.00262  -0.93408
   D51       -0.88732  -0.00001   0.00000  -0.00284  -0.00285  -0.89017
   D52       -2.12552   0.00002   0.00000   0.00050   0.00050  -2.12502
   D53       -0.37066  -0.00001   0.00000   0.00082   0.00082  -0.36984
   D54        1.42437   0.00002   0.00000   0.00144   0.00144   1.42581
   D55        2.12871   0.00001   0.00000   0.00060   0.00060   2.12931
   D56        0.38100  -0.00000   0.00000   0.00094   0.00094   0.38195
   D57       -1.41738   0.00003   0.00000   0.00183   0.00183  -1.41555
         Item               Value     Threshold  Converged?
 Maximum Force            0.000263     0.000450     YES
 RMS     Force            0.000053     0.000300     YES
 Maximum Displacement     0.004125     0.001800     NO 
 RMS     Displacement     0.001265     0.001200     NO 
 Predicted change in Energy=-1.521460D-06
 GradGradGradGradGradGradGradGradGradGradGradGradGradGradGradGradGradGrad

 Leave Link  103 at Mon Oct  6 14:26:43 2025, MaxMem=   104857600 cpu:               0.0 elap:               0.0
 (Enter /home/zhouoh/g16/l202.exe)
                          Input orientation:                          
 ---------------------------------------------------------------------
 Center     Atomic      Atomic             Coordinates (Angstroms)
 Number     Number       Type             X           Y           Z
 ---------------------------------------------------------------------
      1          6           0       -1.292578    0.698695    0.305151
      2          6           0       -1.292941   -0.703283    0.298164
      3          1           0       -1.816409    1.209114    1.105487
      4          1           0       -1.817992   -1.221267    1.092987
      5          6           0        1.540045    0.688185    0.217503
      6          1           0        2.041870    1.211843   -0.585475
      7          1           0        1.438005    1.240915    1.139367
      8          6           0        1.533433   -0.688878    0.234569
      9          1           0        1.413406   -1.219119    1.167626
     10          1           0        2.036035   -1.238567   -0.550065
     11          6           0       -0.436240    1.416171   -0.491941
     12          1           0       -0.131517    1.037603   -1.456763
     13          1           0       -0.366895    2.490978   -0.380883
     14          6           0       -0.432862   -1.412798   -0.502234
     15          1           0       -0.364459   -2.488764   -0.404449
     16          1           0       -0.117902   -1.020801   -1.458049
 ---------------------------------------------------------------------
                    Distance matrix (angstroms):
                    1          2          3          4          5
     1  C    0.000000
     2  C    1.401996   0.000000
     3  H    1.084188   2.140807   0.000000
     4  H    2.140795   1.084310   2.430414   0.000000
     5  C    2.833999   3.157294   3.510793   3.960921   0.000000
     6  H    3.489281   3.945820   4.212562   4.861666   1.082044
     7  H    2.906201   3.456241   3.254746   4.082403   1.079701
     8  C    3.149076   2.827126   3.947444   3.500338   1.377185
     9  H    3.426985   2.889007   4.041272   3.232260   2.134615
    10  H    3.945130   3.476796   4.855237   4.189683   2.132497
    11  C    1.372385   2.418737   2.121206   3.373028   2.222382
    12  H    2.137115   2.731183   3.071385   3.801041   2.391523
    13  H    2.130683   3.394403   2.439993   4.249558   2.691570
    14  C    2.418551   1.372511   3.372446   2.121321   2.970609
    15  H    3.394825   2.131592   4.249985   2.441643   3.755924
    16  H    2.728627   2.136778   3.798575   3.072178   2.911512
                    6          7          8          9         10
     6  H    0.000000
     7  H    1.827725   0.000000
     8  C    2.131601   2.133511   0.000000
     9  H    3.062338   2.460320   1.079888   0.000000
    10  H    2.450673   3.059355   1.081859   1.827159   0.000000
    11  C    2.488278   2.490919   2.972989   3.622169   3.628107
    12  H    2.348002   3.040498   2.934859   3.790383   3.271289
    13  H    2.734994   2.670484   3.755198   4.396837   4.439842
    14  C    3.608319   3.638295   2.221093   2.496928   2.475499
    15  H    4.417882   4.420718   2.692568   2.691508   2.710455
    16  H    3.226562   3.779256   2.387893   3.046047   2.347616
                   11         12         13         14         15
    11  C    0.000000
    12  H    1.080302   0.000000
    13  H    1.082752   1.823518   0.000000
    14  C    2.828990   2.646960   3.906219   0.000000
    15  H    3.906575   3.687396   4.979798   1.082563   0.000000
    16  H    2.640746   2.058450   3.681695   1.080020   1.823672
                   16
    16  H    0.000000
 Stoichiometry    C6H10
 Framework group  C1[X(C6H10)]
 Deg. of freedom    42
 Full point group                 C1      NOp   1
 RotChk:  IX=3 Diff= 5.65D-03
 Largest Abelian subgroup         C1      NOp   1
 Largest concise Abelian subgroup C1      NOp   1
                         Standard orientation:                         
 ---------------------------------------------------------------------
 Center     Atomic      Atomic             Coordinates (Angstroms)
 Number     Number       Type             X           Y           Z
 ---------------------------------------------------------------------
      1          6           0       -1.292471   -0.703304   -0.297095
      2          6           0       -1.297379    0.698670   -0.290925
      3          1           0       -1.818853   -1.215911   -1.094352
      4          1           0       -1.828314    1.214459   -1.083263
      5          6           0        1.540527   -0.683492   -0.224433
      6          1           0        2.048298   -1.205026    0.576186
      7          1           0        1.435423   -1.237106   -1.145421
      8          6           0        1.529324    0.693532   -0.242267
      9          1           0        1.402634    1.222818   -1.174987
     10          1           0        2.034267    1.245331    0.539377
     11          6           0       -0.429591   -1.417500    0.495876
     12          1           0       -0.121011   -1.037359    1.458853
     13          1           0       -0.357321   -2.492141    0.385082
     14          6           0       -0.435405    1.411471    0.504500
     15          1           0       -0.371036    2.487595    0.405725
     16          1           0       -0.114117    1.021079    1.458865
 ---------------------------------------------------------------------
 Rotational constants (GHZ):           4.4121073           3.5997082           2.3440884
 Leave Link  202 at Mon Oct  6 14:26:43 2025, MaxMem=   104857600 cpu:               0.0 elap:               0.0
 (Enter /home/zhouoh/g16/l301.exe)
 Standard basis: STO-3G (5D, 7F)
 Ernie: Thresh=  0.10000D-02 Tol=  0.10000D-05 Strict=F.
 There are    40 symmetry adapted cartesian basis functions of A   symmetry.
 There are    40 symmetry adapted basis functions of A   symmetry.
    40 basis functions,   120 primitive gaussians,    40 cartesian basis functions
    23 alpha electrons       23 beta electrons
       nuclear repulsion energy       226.7141890031 Hartrees.
 IExCor=    0 DFT=F Ex=HF Corr=None ExCW=0 ScaHFX=  1.000000
 ScaDFX=  1.000000  1.000000  1.000000  1.000000 ScalE2=  1.000000  1.000000
 IRadAn=      5 IRanWt=     -1 IRanGd=            0 ICorTp=0 IEmpDi=  4
 NAtoms=   16 NActive=   16 NUniq=   16 SFac= 1.00D+00 NAtFMM=   60 NAOKFM=F Big=F
 Integral buffers will be    131072 words long.
 Raffenetti 1 integral format.
 Two-electron integral symmetry is turned on.
 Leave Link  301 at Mon Oct  6 14:26:43 2025, MaxMem=   104857600 cpu:               0.0 elap:               0.0
 (Enter /home/zhouoh/g16/l402.exe)
 External calculation of energy and first derivatives.
 Running external command "python ../GauUMA_client.py R"
         input file       "/home/zhouoh/scratch/Gau-2816605.EIn"
         output file      "/home/zhouoh/scratch/Gau-2816605.EOu"
         message file     "/home/zhouoh/scratch/Gau-2816605.EMs"
         fchk file        "/home/zhouoh/scratch/Gau-2816605.EFC"
         mat. el file     "/home/zhouoh/scratch/Gau-2816605.EUF"
Sent job to server.
Received result from server:
SCF Done:  E(UMA) =  -234.4938709953599     A.U.
 Recovered energy= -234.493870995     dipole=      0.000000000000      0.000000000000      0.000000000000
 Energy=    -234.493871     NIter=   0.
 Dipole moment=       0.000000       0.000000       0.000000
 Leave Link  402 at Mon Oct  6 14:26:43 2025, MaxMem=   104857600 cpu:               0.0 elap:               0.1
 (Enter /home/zhouoh/g16/l716.exe)
 Dipole        = 0.00000000D+00 0.00000000D+00 0.00000000D+00
 ***** Axes restored to original set *****
 -------------------------------------------------------------------
 Center     Atomic                   Forces (Hartrees/Bohr)
 Number     Number              X              Y              Z
 -------------------------------------------------------------------
      1        6          -0.000125243    0.000008387    0.000101314
      2        6           0.000102271    0.000044832   -0.000116839
      3        1           0.000002590    0.000013776   -0.000002904
      4        1          -0.000004053    0.000012251    0.000008383
      5        6          -0.000024374    0.000015504    0.000023436
      6        1           0.000044367    0.000023256    0.000021945
      7        1          -0.000019764   -0.000014587    0.000002050
      8        6           0.000020169   -0.000031367   -0.000033169
      9        1           0.000019575   -0.000021113   -0.000001269
     10        1          -0.000009969    0.000015648   -0.000018063
     11        6           0.000041091    0.000012498    0.000002228
     12        1          -0.000018391   -0.000037271    0.000035993
     13        1           0.000016864    0.000003346   -0.000032115
     14        6          -0.000016116   -0.000012004    0.000020075
     15        1          -0.000020848    0.000002012    0.000021988
     16        1          -0.000008170   -0.000035168   -0.000033052
 -------------------------------------------------------------------
 Cartesian Forces:  Max     0.000125243 RMS     0.000038698
 Leave Link  716 at Mon Oct  6 14:26:43 2025, MaxMem=   104857600 cpu:               0.0 elap:               0.0
 (Enter /home/zhouoh/g16/l103.exe)

 GradGradGradGradGradGradGradGradGradGradGradGradGradGradGradGradGradGrad
 Berny optimization.
 FormGI is forming the generalized inverse of G from B-inverse, IUseBI=4.
 Internal  Forces:  Max     0.000083879 RMS     0.000018051
 Search for a saddle point.
 Step number  20 out of a maximum of  100
 All quantities printed in internal units (Hartrees-Bohrs-Radians)
 Swapping is turned off.
 Update second derivatives using D2CorX and points    1    4    5    6    7
                                                      8    9   10   11   13
                                                     14   15   16   17   18
                                                     19   20
 ITU=  0  0  0  0  0  0  0  0  0  0  0  0  0  0  0  0  0  0  0  0
     Eigenvalues ---   -0.03934   0.00343   0.00815   0.00826   0.01139
     Eigenvalues ---    0.01335   0.01443   0.01717   0.01804   0.02059
     Eigenvalues ---    0.02099   0.02265   0.02398   0.02503   0.02746
     Eigenvalues ---    0.03291   0.03912   0.04148   0.04652   0.04689
     Eigenvalues ---    0.05166   0.05252   0.05866   0.06199   0.09137
     Eigenvalues ---    0.11721   0.11899   0.16029   0.30250   0.30802
     Eigenvalues ---    0.32554   0.33512   0.34014   0.34827   0.34871
     Eigenvalues ---    0.35406   0.35501   0.35842   0.36073   0.43573
     Eigenvalues ---    0.43737   0.48890
 Eigenvectors required to have negative eigenvalues:
                          R9        R13       D20       D6        D24
   1                    0.54563   0.54313   0.16945  -0.15754  -0.15559
                          D13       D9        A27       D40       D16
   1                    0.15154  -0.14427   0.13300  -0.13034   0.12849
 RFO step:  Lambda0=6.443759623D-10 Lambda=-1.77387773D-06.
 Linear search not attempted -- option 19 set.
 Iteration  1 RMS(Cart)=  0.00174019 RMS(Int)=  0.00000257
 Iteration  2 RMS(Cart)=  0.00000252 RMS(Int)=  0.00000108
 Iteration  3 RMS(Cart)=  0.00000000 RMS(Int)=  0.00000108
 ITry= 1 IFail=0 DXMaxC= 6.45D-03 DCOld= 1.00D+10 DXMaxT= 3.00D-01 DXLimC= 3.00D+00 Rises=F
 Variable       Old X    -DE/DX   Delta X   Delta X   Delta X     New X
                                 (Linear)    (Quad)   (Total)
    R1        2.64939  -0.00001   0.00000   0.00000   0.00000   2.64939
    R2        2.04882   0.00000   0.00000  -0.00006  -0.00006   2.04876
    R3        2.59343   0.00004   0.00000   0.00014   0.00014   2.59357
    R4        2.04905   0.00000   0.00000   0.00007   0.00007   2.04912
    R5        2.59367  -0.00002   0.00000  -0.00013  -0.00013   2.59354
    R6        2.04477   0.00000   0.00000   0.00003   0.00003   2.04479
    R7        2.04034  -0.00000   0.00000  -0.00000  -0.00000   2.04034
    R8        2.60250   0.00003   0.00000   0.00002   0.00002   2.60252
    R9        4.19969   0.00001   0.00000  -0.00025  -0.00025   4.19945
   R10        4.43708   0.00001   0.00000   0.00346   0.00346   4.44055
   R11        2.04069   0.00001   0.00000  -0.00000  -0.00000   2.04069
   R12        2.04442   0.00001   0.00000   0.00001   0.00001   2.04442
   R13        4.19726   0.00000   0.00000   0.00073   0.00073   4.19799
   R14        4.43635   0.00001   0.00000  -0.00033  -0.00033   4.43602
   R15        2.04148  -0.00002   0.00000   0.00002   0.00003   2.04150
   R16        2.04610  -0.00000   0.00000  -0.00001  -0.00001   2.04610
   R17        2.04575   0.00000   0.00000   0.00001   0.00001   2.04575
   R18        2.04094   0.00001   0.00000  -0.00001  -0.00001   2.04093
    A1        2.06500   0.00005   0.00000   0.00055   0.00055   2.06555
    A2        2.11771  -0.00008   0.00000  -0.00105  -0.00105   2.11666
    A3        2.07613   0.00002   0.00000   0.00046   0.00046   2.07660
    A4        2.06482  -0.00006   0.00000  -0.00061  -0.00061   2.06422
    A5        2.11728   0.00008   0.00000   0.00108   0.00108   2.11836
    A6        2.07597  -0.00003   0.00000  -0.00047  -0.00047   2.07550
    A7        2.01495  -0.00000   0.00000  -0.00010  -0.00010   2.01485
    A8        2.08901  -0.00001   0.00000   0.00009   0.00009   2.08911
    A9        1.58779   0.00001   0.00000  -0.00016  -0.00016   1.58764
   A10        2.09538   0.00001   0.00000  -0.00010  -0.00010   2.09527
   A11        1.59162  -0.00001   0.00000   0.00054   0.00055   1.59217
   A12        1.90416   0.00000   0.00000  -0.00013  -0.00014   1.90403
   A13        1.37981  -0.00002   0.00000  -0.00128  -0.00128   1.37853
   A14        2.09695  -0.00001   0.00000   0.00004   0.00004   2.09699
   A15        2.09074   0.00001   0.00000  -0.00006  -0.00006   2.09068
   A16        1.90291  -0.00001   0.00000   0.00017   0.00017   1.90308
   A17        2.01397  -0.00000   0.00000  -0.00001  -0.00001   2.01396
   A18        1.59899   0.00001   0.00000  -0.00103  -0.00103   1.59797
   A19        1.57588  -0.00001   0.00000   0.00094   0.00094   1.57682
   A20        1.37671   0.00001   0.00000   0.00054   0.00054   1.37725
   A21        1.77034   0.00002   0.00000  -0.00022  -0.00022   1.77011
   A22        2.10776  -0.00001   0.00000  -0.00065  -0.00065   2.10710
   A23        2.09364   0.00000   0.00000   0.00061   0.00061   2.09426
   A24        1.49019  -0.00002   0.00000   0.00042   0.00042   1.49060
   A25        1.80850  -0.00000   0.00000  -0.00011  -0.00011   1.80839
   A26        2.00578   0.00000   0.00000  -0.00004  -0.00004   2.00574
   A27        1.47433   0.00001   0.00000  -0.00189  -0.00189   1.47244
   A28        1.76483  -0.00001   0.00000   0.00011   0.00011   1.76494
   A29        2.09522   0.00000   0.00000  -0.00056  -0.00056   2.09466
   A30        2.10740  -0.00000   0.00000   0.00046   0.00046   2.10786
   A31        1.81114   0.00000   0.00000   0.00010   0.00010   1.81125
   A32        1.48781   0.00001   0.00000   0.00006   0.00006   1.48788
   A33        2.00673  -0.00000   0.00000   0.00003   0.00003   2.00676
   A34        1.46219  -0.00001   0.00000   0.00140   0.00140   1.46359
    D1        0.00106  -0.00000   0.00000  -0.00042  -0.00042   0.00064
    D2       -2.89907  -0.00000   0.00000  -0.00039  -0.00039  -2.89946
    D3        2.90489  -0.00001   0.00000  -0.00051  -0.00051   2.90438
    D4        0.00476  -0.00001   0.00000  -0.00048  -0.00048   0.00429
    D5       -1.03302   0.00001   0.00000  -0.00060  -0.00060  -1.03361
    D6        0.56256  -0.00000   0.00000  -0.00038  -0.00038   0.56219
    D7       -3.00862  -0.00001   0.00000  -0.00058  -0.00058  -3.00920
    D8        1.86934   0.00001   0.00000  -0.00068  -0.00068   1.86866
    D9       -2.81827  -0.00000   0.00000  -0.00046  -0.00046  -2.81872
   D10       -0.10626  -0.00001   0.00000  -0.00067  -0.00066  -0.10693
   D11        1.03497   0.00000   0.00000  -0.00045  -0.00045   1.03452
   D12        3.01066  -0.00000   0.00000  -0.00050  -0.00050   3.01016
   D13       -0.55443  -0.00001   0.00000  -0.00069  -0.00069  -0.55512
   D14       -1.86366   0.00000   0.00000  -0.00039  -0.00040  -1.86406
   D15        0.11203  -0.00000   0.00000  -0.00044  -0.00044   0.11159
   D16        2.83013  -0.00001   0.00000  -0.00063  -0.00063   2.82950
   D17       -1.97529   0.00000   0.00000  -0.00169  -0.00169  -1.97698
   D18        1.59422   0.00001   0.00000  -0.00140  -0.00140   1.59282
   D19       -0.37333  -0.00000   0.00000  -0.00117  -0.00117  -0.37450
   D20        2.70773  -0.00001   0.00000  -0.00229  -0.00229   2.70544
   D21        0.00821  -0.00001   0.00000  -0.00220  -0.00220   0.00601
   D22       -1.76766  -0.00000   0.00000  -0.00345  -0.00345  -1.77112
   D23        0.01387  -0.00000   0.00000  -0.00199  -0.00199   0.01188
   D24       -2.68565  -0.00001   0.00000  -0.00189  -0.00189  -2.68754
   D25        1.82167  -0.00000   0.00000  -0.00315  -0.00315   1.81852
   D26       -1.78473   0.00000   0.00000  -0.00253  -0.00253  -1.78727
   D27        1.79893   0.00000   0.00000  -0.00244  -0.00244   1.79649
   D28        0.02306   0.00001   0.00000  -0.00369  -0.00369   0.01937
   D29        2.99877   0.00001   0.00000   0.00375   0.00375   3.00252
   D30        0.89599   0.00002   0.00000   0.00434   0.00434   0.90033
   D31       -1.10322   0.00002   0.00000   0.00428   0.00428  -1.09893
   D32       -1.26890   0.00001   0.00000   0.00366   0.00366  -1.26525
   D33        2.91150   0.00002   0.00000   0.00425   0.00425   2.91575
   D34        0.91229   0.00002   0.00000   0.00419   0.00419   0.91649
   D35        0.86920   0.00001   0.00000   0.00374   0.00374   0.87294
   D36       -1.23359   0.00003   0.00000   0.00434   0.00434  -1.22925
   D37        3.05039   0.00003   0.00000   0.00428   0.00428   3.05467
   D38        0.85366   0.00002   0.00000   0.00355   0.00355   0.85721
   D39       -1.57395   0.00000   0.00000  -0.00193  -0.00192  -1.57587
   D40        1.98956   0.00000   0.00000  -0.00185  -0.00185   1.98771
   D41        0.38514  -0.00000   0.00000  -0.00115  -0.00116   0.38398
   D42       -0.90971   0.00002   0.00000   0.00367   0.00367  -0.90604
   D43       -3.09135   0.00003   0.00000   0.00421   0.00421  -3.08714
   D44        1.19215   0.00003   0.00000   0.00416   0.00416   1.19631
   D45        1.23293   0.00002   0.00000   0.00332   0.00332   1.23624
   D46       -0.94871   0.00002   0.00000   0.00385   0.00385  -0.94486
   D47       -2.94840   0.00002   0.00000   0.00380   0.00380  -2.94460
   D48       -3.03594   0.00001   0.00000   0.00332   0.00332  -3.03262
   D49        1.06561   0.00002   0.00000   0.00385   0.00385   1.06946
   D50       -0.93408   0.00002   0.00000   0.00381   0.00381  -0.93028
   D51       -0.89017   0.00002   0.00000   0.00349   0.00349  -0.88668
   D52       -2.12502  -0.00002   0.00000  -0.00109  -0.00108  -2.12610
   D53       -0.36984  -0.00000   0.00000  -0.00112  -0.00112  -0.37095
   D54        1.42581  -0.00001   0.00000  -0.00105  -0.00105   1.42476
   D55        2.12931  -0.00001   0.00000  -0.00098  -0.00099   2.12832
   D56        0.38195  -0.00000   0.00000  -0.00116  -0.00116   0.38078
   D57       -1.41555  -0.00001   0.00000  -0.00131  -0.00131  -1.41686
         Item               Value     Threshold  Converged?
 Maximum Force            0.000084     0.000450     YES
 RMS     Force            0.000018     0.000300     YES
 Maximum Displacement     0.006450     0.001800     NO 
 RMS     Displacement     0.001740     0.001200     NO 
 Predicted change in Energy=-8.865779D-07
 GradGradGradGradGradGradGradGradGradGradGradGradGradGradGradGradGradGrad

 Leave Link  103 at Mon Oct  6 14:26:43 2025, MaxMem=   104857600 cpu:               0.0 elap:               0.0
 (Enter /home/zhouoh/g16/l202.exe)
                          Input orientation:                          
 ---------------------------------------------------------------------
 Center     Atomic      Atomic             Coordinates (Angstroms)
 Number     Number       Type             X           Y           Z
 ---------------------------------------------------------------------
      1          6           0       -1.292800    0.699439    0.305078
      2          6           0       -1.292694   -0.702544    0.298288
      3          1           0       -1.816672    1.210308    1.105058
      4          1           0       -1.817466   -1.220034    1.093667
      5          6           0        1.539565    0.688358    0.218958
      6          1           0        2.042221    1.214242   -0.582062
      7          1           0        1.435868    1.238933    1.141926
      8          6           0        1.534064   -0.688754    0.233068
      9          1           0        1.415108   -1.221128    1.165046
     10          1           0        2.036657   -1.236295   -0.553077
     11          6           0       -0.435994    1.415899   -0.492554
     12          1           0       -0.131419    1.035631   -1.456769
     13          1           0       -0.366142    2.490850   -0.383265
     14          6           0       -0.433252   -1.413116   -0.501740
     15          1           0       -0.365389   -2.488965   -0.402275
     16          1           0       -0.118655   -1.022798   -1.458352
 ---------------------------------------------------------------------
                    Distance matrix (angstroms):
                    1          2          3          4          5
     1  C    0.000000
     2  C    1.401999   0.000000
     3  H    1.084158   2.141129   0.000000
     4  H    2.140450   1.084348   2.430369   0.000000
     5  C    2.833696   3.156358   3.510261   3.959385   0.000000
     6  H    3.489184   3.945978   4.211585   4.861168   1.082058
     7  H    2.904651   3.453419   3.252875   4.078361   1.079701
     8  C    3.150147   2.827544   3.948954   3.500806   1.377195
     9  H    3.429416   2.890051   4.044736   3.233362   2.134645
    10  H    3.945730   3.477685   4.856277   4.191217   2.132471
    11  C    1.372461   2.418091   2.121533   3.372344   2.222251
    12  H    2.136805   2.729476   3.071409   3.799409   2.391830
    13  H    2.131119   3.394227   2.441092   4.249510   2.691350
    14  C    2.419228   1.372442   3.373130   2.121002   2.971129
    15  H    3.395049   2.131194   4.250047   2.440606   3.756350
    16  H    2.730275   2.136987   3.800144   3.072078   2.913953
                    6          7          8          9         10
     6  H    0.000000
     7  H    1.827678   0.000000
     8  C    2.131679   2.133457   0.000000
     9  H    3.062138   2.460257   1.079887   0.000000
    10  H    2.450715   3.059532   1.081862   1.827157   0.000000
    11  C    2.488017   2.491326   2.972746   3.623276   3.626541
    12  H    2.349835   3.041535   2.933068   3.789278   3.267853
    13  H    2.733031   2.672216   3.755067   4.398739   4.437780
    14  C    3.610738   3.637115   2.221481   2.496292   2.476763
    15  H    4.420708   4.418858   2.693018   2.689625   2.713255
    16  H    3.231349   3.780663   2.388298   3.045322   2.347441
                   11         12         13         14         15
    11  C    0.000000
    12  H    1.080316   0.000000
    13  H    1.082748   1.823505   0.000000
    14  C    2.829031   2.645666   3.906340   0.000000
    15  H    3.906546   3.686391   4.979852   1.082567   0.000000
    16  H    2.642104   2.058469   3.682769   1.080013   1.823684
                   16
    16  H    0.000000
 Stoichiometry    C6H10
 Framework group  C1[X(C6H10)]
 Deg. of freedom    42
 Full point group                 C1      NOp   1
 RotChk:  IX=3 Diff= 1.26D-03
 Largest Abelian subgroup         C1      NOp   1
 Largest concise Abelian subgroup C1      NOp   1
                         Standard orientation:                         
 ---------------------------------------------------------------------
 Center     Atomic      Atomic             Coordinates (Angstroms)
 Number     Number       Type             X           Y           Z
 ---------------------------------------------------------------------
      1          6           0       -1.293295   -0.702868   -0.296903
      2          6           0       -1.296524    0.699116   -0.291247
      3          1           0       -1.820142   -1.215649   -1.093700
      4          1           0       -1.826718    1.214693   -1.084270
      5          6           0        1.539449   -0.684920   -0.225711
      6          1           0        2.047578   -1.208938    0.573076
      7          1           0        1.432218   -1.236498   -1.147674
      8          6           0        1.530563    0.692163   -0.240904
      9          1           0        1.405423    1.223486   -1.172673
     10          1           0        2.035971    1.241554    0.542141
     11          6           0       -0.430582   -1.416615    0.496784
     12          1           0       -0.121850   -1.034825    1.459074
     13          1           0       -0.358722   -2.491484    0.387997
     14          6           0       -0.434593    1.412406    0.503669
     15          1           0       -0.369841    2.488333    0.402978
     16          1           0       -0.114027    1.023629    1.458926
 ---------------------------------------------------------------------
 Rotational constants (GHZ):           4.4119422           3.5994619           2.3439687
 Leave Link  202 at Mon Oct  6 14:26:43 2025, MaxMem=   104857600 cpu:               0.0 elap:               0.0
 (Enter /home/zhouoh/g16/l301.exe)
 Standard basis: STO-3G (5D, 7F)
 Ernie: Thresh=  0.10000D-02 Tol=  0.10000D-05 Strict=F.
 There are    40 symmetry adapted cartesian basis functions of A   symmetry.
 There are    40 symmetry adapted basis functions of A   symmetry.
    40 basis functions,   120 primitive gaussians,    40 cartesian basis functions
    23 alpha electrons       23 beta electrons
       nuclear repulsion energy       226.7097833818 Hartrees.
 IExCor=    0 DFT=F Ex=HF Corr=None ExCW=0 ScaHFX=  1.000000
 ScaDFX=  1.000000  1.000000  1.000000  1.000000 ScalE2=  1.000000  1.000000
 IRadAn=      5 IRanWt=     -1 IRanGd=            0 ICorTp=0 IEmpDi=  4
 NAtoms=   16 NActive=   16 NUniq=   16 SFac= 1.00D+00 NAtFMM=   60 NAOKFM=F Big=F
 Integral buffers will be    131072 words long.
 Raffenetti 1 integral format.
 Two-electron integral symmetry is turned on.
 Leave Link  301 at Mon Oct  6 14:26:43 2025, MaxMem=   104857600 cpu:               0.0 elap:               0.0
 (Enter /home/zhouoh/g16/l402.exe)
 External calculation of energy and first derivatives.
 Running external command "python ../GauUMA_client.py R"
         input file       "/home/zhouoh/scratch/Gau-2816605.EIn"
         output file      "/home/zhouoh/scratch/Gau-2816605.EOu"
         message file     "/home/zhouoh/scratch/Gau-2816605.EMs"
         fchk file        "/home/zhouoh/scratch/Gau-2816605.EFC"
         mat. el file     "/home/zhouoh/scratch/Gau-2816605.EUF"
Sent job to server.
Received result from server:
SCF Done:  E(UMA) =  -234.4938720861942     A.U.
 Recovered energy= -234.493872086     dipole=      0.000000000000      0.000000000000      0.000000000000
 Energy=    -234.493872     NIter=   0.
 Dipole moment=       0.000000       0.000000       0.000000
 Leave Link  402 at Mon Oct  6 14:26:43 2025, MaxMem=   104857600 cpu:               0.0 elap:               0.1
 (Enter /home/zhouoh/g16/l716.exe)
 Dipole        = 0.00000000D+00 0.00000000D+00 0.00000000D+00
 ***** Axes restored to original set *****
 -------------------------------------------------------------------
 Center     Atomic                   Forces (Hartrees/Bohr)
 Number     Number              X              Y              Z
 -------------------------------------------------------------------
      1        6           0.000064490   -0.000002697   -0.000078435
      2        6          -0.000073246    0.000016345    0.000071790
      3        1          -0.000002042   -0.000002603    0.000003523
      4        1           0.000000438   -0.000002820   -0.000001252
      5        6          -0.000016911    0.000010713    0.000002347
      6        1           0.000004640    0.000015212    0.000005159
      7        1          -0.000004598   -0.000009439    0.000007759
      8        6           0.000020274   -0.000016412    0.000002956
      9        1           0.000004075   -0.000013834   -0.000008281
     10        1          -0.000008466    0.000013257   -0.000017699
     11        6           0.000004664    0.000010189    0.000011546
     12        1           0.000006643   -0.000010952    0.000039491
     13        1           0.000005256    0.000002264   -0.000001106
     14        6          -0.000001104   -0.000003432   -0.000009756
     15        1          -0.000005857    0.000002957    0.000000147
     16        1           0.000001744   -0.000008749   -0.000028190
 -------------------------------------------------------------------
 Cartesian Forces:  Max     0.000078435 RMS     0.000023524
 Leave Link  716 at Mon Oct  6 14:26:43 2025, MaxMem=   104857600 cpu:               0.0 elap:               0.0
 (Enter /home/zhouoh/g16/l103.exe)

 GradGradGradGradGradGradGradGradGradGradGradGradGradGradGradGradGradGrad
 Berny optimization.
 FormGI is forming the generalized inverse of G from B-inverse, IUseBI=4.
 Internal  Forces:  Max     0.000047223 RMS     0.000011213
 Search for a saddle point.
 Step number  21 out of a maximum of  100
 All quantities printed in internal units (Hartrees-Bohrs-Radians)
 Swapping is turned off.
 Update second derivatives using D2CorX and points    1    4    5    6    7
                                                      8    9   10   11   13
                                                     14   15   16   17   18
                                                     19   20   21
 ITU=  0  0  0  0  0  0  0  0  0  0  0  0  0  0  0  0  0  0  0  0
 ITU=  0
     Eigenvalues ---   -0.03882   0.00152   0.00848   0.00870   0.01165
     Eigenvalues ---    0.01389   0.01567   0.01722   0.01930   0.02092
     Eigenvalues ---    0.02149   0.02265   0.02407   0.02537   0.02772
     Eigenvalues ---    0.03246   0.03895   0.04149   0.04609   0.04679
     Eigenvalues ---    0.05170   0.05253   0.05853   0.06181   0.09134
     Eigenvalues ---    0.11720   0.11897   0.15392   0.30182   0.30801
     Eigenvalues ---    0.32551   0.33499   0.33999   0.34825   0.34871
     Eigenvalues ---    0.35405   0.35500   0.35842   0.36072   0.43453
     Eigenvalues ---    0.43739   0.48873
 Eigenvectors required to have negative eigenvalues:
                          R9        R13       D20       D24       D6
   1                    0.54703   0.54138   0.16641  -0.15999  -0.15719
                          D13       D9        D16       A27       D40
   1                    0.15709  -0.14340   0.13502   0.12747  -0.12668
 RFO step:  Lambda0=1.224652914D-10 Lambda=-9.06234446D-07.
 Linear search not attempted -- option 19 set.
 Iteration  1 RMS(Cart)=  0.00215490 RMS(Int)=  0.00000401
 Iteration  2 RMS(Cart)=  0.00000376 RMS(Int)=  0.00000150
 Iteration  3 RMS(Cart)=  0.00000000 RMS(Int)=  0.00000150
 ITry= 1 IFail=0 DXMaxC= 7.98D-03 DCOld= 1.00D+10 DXMaxT= 3.00D-01 DXLimC= 3.00D+00 Rises=F
 Variable       Old X    -DE/DX   Delta X   Delta X   Delta X     New X
                                 (Linear)    (Quad)   (Total)
    R1        2.64939  -0.00000   0.00000  -0.00001  -0.00001   2.64939
    R2        2.04876   0.00000   0.00000   0.00002   0.00002   2.04878
    R3        2.59357  -0.00003   0.00000   0.00000   0.00000   2.59358
    R4        2.04912   0.00000   0.00000  -0.00001  -0.00001   2.04911
    R5        2.59354   0.00004   0.00000   0.00006   0.00006   2.59360
    R6        2.04479   0.00001   0.00000   0.00002   0.00002   2.04481
    R7        2.04034   0.00000   0.00000   0.00004   0.00004   2.04038
    R8        2.60252   0.00002   0.00000   0.00005   0.00005   2.60257
    R9        4.19945  -0.00001   0.00000  -0.00196  -0.00196   4.19748
   R10        4.44055  -0.00001   0.00000   0.00249   0.00249   4.44304
   R11        2.04069  -0.00000   0.00000  -0.00005  -0.00005   2.04065
   R12        2.04442   0.00000   0.00000   0.00001   0.00002   2.04444
   R13        4.19799   0.00002   0.00000   0.00194   0.00194   4.19993
   R14        4.43602   0.00001   0.00000  -0.00056  -0.00056   4.43546
   R15        2.04150  -0.00003   0.00000  -0.00007  -0.00007   2.04143
   R16        2.04610   0.00000   0.00000  -0.00000  -0.00000   2.04609
   R17        2.04575  -0.00000   0.00000  -0.00000  -0.00000   2.04575
   R18        2.04093   0.00002   0.00000   0.00007   0.00007   2.04100
    A1        2.06555  -0.00003   0.00000  -0.00008  -0.00008   2.06548
    A2        2.11666   0.00005   0.00000   0.00006   0.00006   2.11672
    A3        2.07660  -0.00002   0.00000  -0.00003  -0.00003   2.07656
    A4        2.06422   0.00003   0.00000   0.00014   0.00014   2.06436
    A5        2.11836  -0.00004   0.00000  -0.00022  -0.00022   2.11813
    A6        2.07550   0.00002   0.00000   0.00013   0.00013   2.07564
    A7        2.01485  -0.00000   0.00000  -0.00021  -0.00021   2.01464
    A8        2.08911   0.00000   0.00000   0.00020   0.00020   2.08931
    A9        1.58764  -0.00000   0.00000  -0.00044  -0.00044   1.58719
   A10        2.09527  -0.00000   0.00000  -0.00030  -0.00030   2.09497
   A11        1.59217   0.00001   0.00000   0.00128   0.00129   1.59346
   A12        1.90403  -0.00001   0.00000  -0.00014  -0.00014   1.90389
   A13        1.37853  -0.00001   0.00000  -0.00119  -0.00120   1.37733
   A14        2.09699   0.00000   0.00000   0.00015   0.00015   2.09714
   A15        2.09068  -0.00000   0.00000  -0.00007  -0.00007   2.09061
   A16        1.90308   0.00000   0.00000   0.00011   0.00010   1.90318
   A17        2.01396   0.00000   0.00000   0.00015   0.00015   2.01410
   A18        1.59797  -0.00001   0.00000  -0.00148  -0.00148   1.59649
   A19        1.57682   0.00000   0.00000   0.00086   0.00086   1.57768
   A20        1.37725   0.00001   0.00000   0.00063   0.00063   1.37788
   A21        1.77011   0.00000   0.00000  -0.00031  -0.00031   1.76981
   A22        2.10710  -0.00001   0.00000  -0.00026  -0.00026   2.10684
   A23        2.09426   0.00000   0.00000  -0.00002  -0.00002   2.09424
   A24        1.49060  -0.00000   0.00000   0.00088   0.00087   1.49148
   A25        1.80839   0.00000   0.00000  -0.00006  -0.00006   1.80833
   A26        2.00574   0.00000   0.00000   0.00009   0.00009   2.00583
   A27        1.47244   0.00001   0.00000  -0.00250  -0.00250   1.46994
   A28        1.76494   0.00000   0.00000   0.00021   0.00021   1.76516
   A29        2.09466   0.00000   0.00000   0.00016   0.00016   2.09482
   A30        2.10786   0.00000   0.00000   0.00002   0.00002   2.10788
   A31        1.81125  -0.00000   0.00000  -0.00006  -0.00005   1.81119
   A32        1.48788  -0.00000   0.00000  -0.00053  -0.00053   1.48734
   A33        2.00676  -0.00000   0.00000  -0.00005  -0.00005   2.00671
   A34        1.46359   0.00000   0.00000   0.00198   0.00198   1.46557
    D1        0.00064  -0.00001   0.00000  -0.00057  -0.00057   0.00007
    D2       -2.89946  -0.00001   0.00000  -0.00081  -0.00081  -2.90026
    D3        2.90438  -0.00001   0.00000  -0.00083  -0.00083   2.90355
    D4        0.00429  -0.00001   0.00000  -0.00107  -0.00107   0.00322
    D5       -1.03361   0.00000   0.00000  -0.00083  -0.00083  -1.03444
    D6        0.56219  -0.00000   0.00000  -0.00003  -0.00003   0.56215
    D7       -3.00920  -0.00000   0.00000  -0.00053  -0.00053  -3.00973
    D8        1.86866  -0.00000   0.00000  -0.00109  -0.00109   1.86757
    D9       -2.81872  -0.00000   0.00000  -0.00030  -0.00030  -2.81902
   D10       -0.10693  -0.00000   0.00000  -0.00079  -0.00079  -0.10772
   D11        1.03452  -0.00000   0.00000  -0.00047  -0.00047   1.03405
   D12        3.01016   0.00000   0.00000  -0.00031  -0.00031   3.00985
   D13       -0.55512  -0.00000   0.00000   0.00003   0.00003  -0.55509
   D14       -1.86406  -0.00000   0.00000  -0.00071  -0.00071  -1.86477
   D15        0.11159  -0.00000   0.00000  -0.00055  -0.00055   0.11104
   D16        2.82950  -0.00000   0.00000  -0.00021  -0.00021   2.82929
   D17       -1.97698  -0.00001   0.00000  -0.00256  -0.00256  -1.97954
   D18        1.59282  -0.00001   0.00000  -0.00174  -0.00174   1.59108
   D19       -0.37450   0.00000   0.00000  -0.00135  -0.00135  -0.37585
   D20        2.70544  -0.00000   0.00000  -0.00276  -0.00276   2.70268
   D21        0.00601  -0.00001   0.00000  -0.00337  -0.00337   0.00264
   D22       -1.77112  -0.00001   0.00000  -0.00447  -0.00447  -1.77559
   D23        0.01188  -0.00000   0.00000  -0.00193  -0.00193   0.00995
   D24       -2.68754  -0.00001   0.00000  -0.00255  -0.00255  -2.69009
   D25        1.81852  -0.00001   0.00000  -0.00365  -0.00365   1.81487
   D26       -1.78727  -0.00001   0.00000  -0.00331  -0.00331  -1.79057
   D27        1.79649  -0.00001   0.00000  -0.00392  -0.00392   1.79257
   D28        0.01937  -0.00001   0.00000  -0.00502  -0.00502   0.01435
   D29        3.00252   0.00000   0.00000   0.00460   0.00460   3.00712
   D30        0.90033   0.00001   0.00000   0.00471   0.00471   0.90505
   D31       -1.09893   0.00000   0.00000   0.00442   0.00443  -1.09451
   D32       -1.26525   0.00000   0.00000   0.00442   0.00442  -1.26083
   D33        2.91575   0.00001   0.00000   0.00453   0.00453   2.92028
   D34        0.91649   0.00000   0.00000   0.00424   0.00424   0.92073
   D35        0.87294  -0.00000   0.00000   0.00460   0.00460   0.87754
   D36       -1.22925   0.00001   0.00000   0.00471   0.00471  -1.22454
   D37        3.05467   0.00000   0.00000   0.00442   0.00442   3.05910
   D38        0.85721   0.00001   0.00000   0.00377   0.00377   0.86099
   D39       -1.57587  -0.00000   0.00000  -0.00182  -0.00182  -1.57769
   D40        1.98771  -0.00001   0.00000  -0.00241  -0.00241   1.98531
   D41        0.38398   0.00000   0.00000  -0.00118  -0.00118   0.38280
   D42       -0.90604   0.00001   0.00000   0.00426   0.00426  -0.90177
   D43       -3.08714   0.00000   0.00000   0.00402   0.00402  -3.08312
   D44        1.19631   0.00001   0.00000   0.00419   0.00419   1.20050
   D45        1.23624   0.00001   0.00000   0.00382   0.00382   1.24007
   D46       -0.94486   0.00000   0.00000   0.00358   0.00358  -0.94128
   D47       -2.94460   0.00001   0.00000   0.00375   0.00375  -2.94085
   D48       -3.03262   0.00001   0.00000   0.00397   0.00397  -3.02865
   D49        1.06946   0.00001   0.00000   0.00372   0.00372   1.07318
   D50       -0.93028   0.00001   0.00000   0.00390   0.00390  -0.92638
   D51       -0.88668   0.00001   0.00000   0.00331   0.00332  -0.88337
   D52       -2.12610  -0.00001   0.00000  -0.00149  -0.00148  -2.12759
   D53       -0.37095  -0.00000   0.00000  -0.00134  -0.00134  -0.37229
   D54        1.42476  -0.00000   0.00000  -0.00100  -0.00100   1.42376
   D55        2.12832   0.00000   0.00000  -0.00126  -0.00126   2.12706
   D56        0.38078  -0.00000   0.00000  -0.00120  -0.00120   0.37958
   D57       -1.41686  -0.00000   0.00000  -0.00089  -0.00089  -1.41775
         Item               Value     Threshold  Converged?
 Maximum Force            0.000047     0.000450     YES
 RMS     Force            0.000011     0.000300     YES
 Maximum Displacement     0.007981     0.001800     NO 
 RMS     Displacement     0.002155     0.001200     NO 
 Predicted change in Energy=-4.530379D-07
 GradGradGradGradGradGradGradGradGradGradGradGradGradGradGradGradGradGrad

 Leave Link  103 at Mon Oct  6 14:26:43 2025, MaxMem=   104857600 cpu:               0.0 elap:               0.0
 (Enter /home/zhouoh/g16/l202.exe)
                          Input orientation:                          
 ---------------------------------------------------------------------
 Center     Atomic      Atomic             Coordinates (Angstroms)
 Number     Number       Type             X           Y           Z
 ---------------------------------------------------------------------
      1          6           0       -1.292466    0.699831    0.304406
      2          6           0       -1.292958   -0.702154    0.299137
      3          1           0       -1.816248    1.211723    1.103802
      4          1           0       -1.817557   -1.218687    1.095245
      5          6           0        1.538732    0.688811    0.220737
      6          1           0        2.042292    1.217559   -0.577839
      7          1           0        1.433259    1.236616    1.145176
      8          6           0        1.534888   -0.688364    0.231301
      9          1           0        1.417287   -1.223412    1.161891
     10          1           0        2.037079   -1.233212   -0.556981
     11          6           0       -0.435073    1.415124   -0.493645
     12          1           0       -0.130418    1.033495   -1.457255
     13          1           0       -0.365216    2.490216   -0.385777
     14          6           0       -0.434225   -1.413710   -0.500829
     15          1           0       -0.366243   -2.489454   -0.400332
     16          1           0       -0.120132   -1.024354   -1.458044
 ---------------------------------------------------------------------
                    Distance matrix (angstroms):
                    1          2          3          4          5
     1  C    0.000000
     2  C    1.401995   0.000000
     3  H    1.084166   2.141085   0.000000
     4  H    2.140527   1.084343   2.430425   0.000000
     5  C    2.832456   3.155852   3.508437   3.958281   0.000000
     6  H    3.488124   3.946933   4.209071   4.861372   1.082068
     7  H    2.902518   3.450633   3.249865   4.074163   1.079724
     8  C    3.150613   2.828693   3.949899   3.502360   1.377221
     9  H    3.431750   2.891624   4.048334   3.235534   2.134741
    10  H    3.945188   3.479096   4.856339   4.193838   2.132455
    11  C    1.372462   2.418126   2.121521   3.372357   2.221211
    12  H    2.136618   2.729265   3.071287   3.799213   2.391763
    13  H    2.131108   3.394265   2.441082   4.249550   2.690341
    14  C    2.419098   1.372472   3.373088   2.121107   2.972173
    15  H    3.395008   2.131314   4.250134   2.440883   3.757130
    16  H    2.730093   2.137058   3.799988   3.072182   2.916346
                    6          7          8          9         10
     6  H    0.000000
     7  H    1.827585   0.000000
     8  C    2.131833   2.133318   0.000000
     9  H    3.061966   2.460137   1.079863   0.000000
    10  H    2.450865   3.059737   1.081870   1.827227   0.000000
    11  C    2.486656   2.491639   2.971692   3.624074   3.623427
    12  H    2.351153   3.042859   2.930745   3.788001   3.262897
    13  H    2.729952   2.673919   3.754271   4.400412   4.434438
    14  C    3.614228   3.636077   2.222509   2.495786   2.478522
    15  H    4.424307   4.417057   2.693916   2.687821   2.716365
    16  H    3.236822   3.781768   2.388696   3.044231   2.347146
                   11         12         13         14         15
    11  C    0.000000
    12  H    1.080278   0.000000
    13  H    1.082746   1.823521   0.000000
    14  C    2.828842   2.644969   3.906230   0.000000
    15  H    3.906298   3.685630   4.979691   1.082565   0.000000
    16  H    2.642027   2.057876   3.682666   1.080052   1.823689
                   16
    16  H    0.000000
 Stoichiometry    C6H10
 Framework group  C1[X(C6H10)]
 Deg. of freedom    42
 Full point group                 C1      NOp   1
 RotChk:  IX=3 Diff= 2.69D-03
 Largest Abelian subgroup         C1      NOp   1
 Largest concise Abelian subgroup C1      NOp   1
                         Standard orientation:                         
 ---------------------------------------------------------------------
 Center     Atomic      Atomic             Coordinates (Angstroms)
 Number     Number       Type             X           Y           Z
 ---------------------------------------------------------------------
      1          6           0       -1.291616   -0.705690   -0.296236
      2          6           0       -1.298116    0.696284   -0.292111
      3          1           0       -1.817383   -1.220501   -1.092449
      4          1           0       -1.829110    1.209887   -1.085872
      5          6           0        1.539909   -0.682424   -0.227464
      6          1           0        2.049929   -1.208331    0.568885
      7          1           0        1.431939   -1.231454   -1.150888
      8          6           0        1.530081    0.694713   -0.239134
      9          1           0        1.405289    1.228468   -1.169530
     10          1           0        2.034056    1.242377    0.546052
     11          6           0       -0.426970   -1.416618    0.497879
     12          1           0       -0.118902   -1.032874    1.459562
     13          1           0       -0.353053   -2.491490    0.390524
     14          6           0       -0.438262    1.412198    0.502747
     15          1           0       -0.375441    2.488139    0.401014
     16          1           0       -0.117471    1.025001    1.458615
 ---------------------------------------------------------------------
 Rotational constants (GHZ):           4.4120620           3.5994266           2.3440693
 Leave Link  202 at Mon Oct  6 14:26:43 2025, MaxMem=   104857600 cpu:               0.0 elap:               0.0
 (Enter /home/zhouoh/g16/l301.exe)
 Standard basis: STO-3G (5D, 7F)
 Ernie: Thresh=  0.10000D-02 Tol=  0.10000D-05 Strict=F.
 There are    40 symmetry adapted cartesian basis functions of A   symmetry.
 There are    40 symmetry adapted basis functions of A   symmetry.
    40 basis functions,   120 primitive gaussians,    40 cartesian basis functions
    23 alpha electrons       23 beta electrons
       nuclear repulsion energy       226.7106900363 Hartrees.
 IExCor=    0 DFT=F Ex=HF Corr=None ExCW=0 ScaHFX=  1.000000
 ScaDFX=  1.000000  1.000000  1.000000  1.000000 ScalE2=  1.000000  1.000000
 IRadAn=      5 IRanWt=     -1 IRanGd=            0 ICorTp=0 IEmpDi=  4
 NAtoms=   16 NActive=   16 NUniq=   16 SFac= 1.00D+00 NAtFMM=   60 NAOKFM=F Big=F
 Integral buffers will be    131072 words long.
 Raffenetti 1 integral format.
 Two-electron integral symmetry is turned on.
 Leave Link  301 at Mon Oct  6 14:26:43 2025, MaxMem=   104857600 cpu:               0.0 elap:               0.0
 (Enter /home/zhouoh/g16/l402.exe)
 External calculation of energy and first derivatives.
 Running external command "python ../GauUMA_client.py R"
         input file       "/home/zhouoh/scratch/Gau-2816605.EIn"
         output file      "/home/zhouoh/scratch/Gau-2816605.EOu"
         message file     "/home/zhouoh/scratch/Gau-2816605.EMs"
         fchk file        "/home/zhouoh/scratch/Gau-2816605.EFC"
         mat. el file     "/home/zhouoh/scratch/Gau-2816605.EUF"
Sent job to server.
Received result from server:
SCF Done:  E(UMA) =  -234.49387242790132     A.U.
 Recovered energy= -234.493872428     dipole=      0.000000000000      0.000000000000      0.000000000000
 Energy=    -234.493872     NIter=   0.
 Dipole moment=       0.000000       0.000000       0.000000
 Leave Link  402 at Mon Oct  6 14:26:43 2025, MaxMem=   104857600 cpu:               0.0 elap:               0.1
 (Enter /home/zhouoh/g16/l716.exe)
 Dipole        = 0.00000000D+00 0.00000000D+00 0.00000000D+00
 ***** Axes restored to original set *****
 -------------------------------------------------------------------
 Center     Atomic                   Forces (Hartrees/Bohr)
 Number     Number              X              Y              Z
 -------------------------------------------------------------------
      1        6           0.000009284   -0.000007595    0.000000612
      2        6          -0.000009407    0.000007768   -0.000009735
      3        1          -0.000002817    0.000001628   -0.000001086
      4        1          -0.000000208   -0.000000120   -0.000001514
      5        6          -0.000006967   -0.000000741    0.000006454
      6        1          -0.000025947   -0.000004361   -0.000014314
      7        1           0.000009372   -0.000002597    0.000002077
      8        6          -0.000002305   -0.000014467   -0.000002791
      9        1          -0.000005393   -0.000010779   -0.000005936
     10        1           0.000004605    0.000006300   -0.000002843
     11        6          -0.000001760    0.000018591    0.000021091
     12        1           0.000032806    0.000003367    0.000008000
     13        1           0.000007728    0.000002226    0.000002573
     14        6           0.000010836    0.000010570   -0.000007687
     15        1          -0.000011458    0.000003046    0.000003678
     16        1          -0.000008369   -0.000012837    0.000001420
 -------------------------------------------------------------------
 Cartesian Forces:  Max     0.000032806 RMS     0.000009849
 Leave Link  716 at Mon Oct  6 14:26:43 2025, MaxMem=   104857600 cpu:               0.0 elap:               0.0
 (Enter /home/zhouoh/g16/l103.exe)

 GradGradGradGradGradGradGradGradGradGradGradGradGradGradGradGradGradGrad
 Berny optimization.
 FormGI is forming the generalized inverse of G from B-inverse, IUseBI=4.
 Internal  Forces:  Max     0.000023867 RMS     0.000003911
 Search for a saddle point.
 Step number  22 out of a maximum of  100
 All quantities printed in internal units (Hartrees-Bohrs-Radians)
 Swapping is turned off.
 Update second derivatives using D2CorX and points    1    4    5    6    7
                                                      8    9   10   11   13
                                                     14   15   16   17   18
                                                     19   20   21   22
 ITU=  0  0  0  0  0  0  0  0  0  0  0  0  0  0  0  0  0  0  0  0
 ITU=  0  0
     Eigenvalues ---   -0.03966   0.00079   0.00188   0.00791   0.01160
     Eigenvalues ---    0.01388   0.01706   0.01746   0.01996   0.02073
     Eigenvalues ---    0.02255   0.02315   0.02415   0.02616   0.02719
     Eigenvalues ---    0.03774   0.03907   0.04278   0.04676   0.04694
     Eigenvalues ---    0.05180   0.05252   0.05846   0.06295   0.09132
     Eigenvalues ---    0.11721   0.11899   0.19251   0.30433   0.30802
     Eigenvalues ---    0.32552   0.33524   0.34005   0.34836   0.34871
     Eigenvalues ---    0.35419   0.35503   0.35845   0.36072   0.43734
     Eigenvalues ---    0.44086   0.48893
 Eigenvectors required to have negative eigenvalues:
                          R13       R9        D20       D13       D6
   1                    0.55894   0.52579   0.17491   0.15893  -0.15389
                          D24       D9        D40       D16       A27
   1                   -0.15324  -0.14233  -0.13720   0.13314   0.12654
 RFO step:  Lambda0=6.040098768D-10 Lambda=-2.36510583D-07.
 Linear search not attempted -- option 19 set.
 Iteration  1 RMS(Cart)=  0.00104316 RMS(Int)=  0.00000094
 Iteration  2 RMS(Cart)=  0.00000085 RMS(Int)=  0.00000048
 ITry= 1 IFail=0 DXMaxC= 3.46D-03 DCOld= 1.00D+10 DXMaxT= 3.00D-01 DXLimC= 3.00D+00 Rises=F
 Variable       Old X    -DE/DX   Delta X   Delta X   Delta X     New X
                                 (Linear)    (Quad)   (Total)
    R1        2.64939   0.00000   0.00000  -0.00007  -0.00007   2.64931
    R2        2.04878  -0.00000   0.00000   0.00004   0.00004   2.04882
    R3        2.59358   0.00000   0.00000  -0.00002  -0.00002   2.59355
    R4        2.04911   0.00000   0.00000  -0.00003  -0.00003   2.04908
    R5        2.59360   0.00000   0.00000   0.00013   0.00013   2.59372
    R6        2.04481   0.00000   0.00000   0.00004   0.00004   2.04485
    R7        2.04038   0.00000   0.00000   0.00007   0.00007   2.04045
    R8        2.60257   0.00001   0.00000   0.00002   0.00002   2.60259
    R9        4.19748  -0.00001   0.00000  -0.00547  -0.00547   4.19201
   R10        4.44304  -0.00002   0.00000  -0.00599  -0.00599   4.43705
   R11        2.04065   0.00000   0.00000  -0.00007  -0.00007   2.04058
   R12        2.04444  -0.00000   0.00000  -0.00007  -0.00007   2.04437
   R13        4.19993  -0.00000   0.00000   0.00427   0.00427   4.20420
   R14        4.43546   0.00000   0.00000   0.00008   0.00008   4.43555
   R15        2.04143   0.00001   0.00000  -0.00003  -0.00003   2.04140
   R16        2.04609   0.00000   0.00000   0.00001   0.00001   2.04610
   R17        2.04575  -0.00000   0.00000   0.00001   0.00001   2.04576
   R18        2.04100  -0.00001   0.00000   0.00002   0.00002   2.04103
    A1        2.06548  -0.00000   0.00000  -0.00054  -0.00054   2.06494
    A2        2.11672   0.00000   0.00000   0.00060   0.00060   2.11732
    A3        2.07656  -0.00000   0.00000  -0.00018  -0.00018   2.07638
    A4        2.06436  -0.00000   0.00000   0.00050   0.00050   2.06485
    A5        2.11813   0.00000   0.00000  -0.00041  -0.00041   2.11772
    A6        2.07564  -0.00000   0.00000   0.00007   0.00007   2.07571
    A7        2.01464  -0.00000   0.00000  -0.00034  -0.00034   2.01429
    A8        2.08931   0.00000   0.00000  -0.00046  -0.00046   2.08885
    A9        1.58719  -0.00000   0.00000   0.00009   0.00009   1.58728
   A10        2.09497  -0.00000   0.00000  -0.00027  -0.00028   2.09470
   A11        1.59346  -0.00000   0.00000   0.00166   0.00166   1.59512
   A12        1.90389   0.00000   0.00000   0.00070   0.00070   1.90459
   A13        1.37733   0.00000   0.00000   0.00024   0.00024   1.37757
   A14        2.09714  -0.00000   0.00000   0.00070   0.00070   2.09784
   A15        2.09061   0.00000   0.00000   0.00001   0.00001   2.09062
   A16        1.90318  -0.00000   0.00000  -0.00052  -0.00052   1.90266
   A17        2.01410  -0.00000   0.00000   0.00053   0.00053   2.01464
   A18        1.59649  -0.00000   0.00000  -0.00102  -0.00102   1.59547
   A19        1.57768   0.00000   0.00000  -0.00136  -0.00136   1.57632
   A20        1.37788  -0.00000   0.00000   0.00141   0.00141   1.37929
   A21        1.76981   0.00000   0.00000   0.00152   0.00152   1.77132
   A22        2.10684  -0.00000   0.00000  -0.00027  -0.00027   2.10657
   A23        2.09424   0.00000   0.00000  -0.00013  -0.00013   2.09411
   A24        1.49148  -0.00001   0.00000   0.00001   0.00001   1.49148
   A25        1.80833   0.00000   0.00000  -0.00005  -0.00005   1.80828
   A26        2.00583  -0.00000   0.00000  -0.00025  -0.00025   2.00558
   A27        1.46994   0.00000   0.00000   0.00034   0.00034   1.47028
   A28        1.76516   0.00000   0.00000  -0.00105  -0.00104   1.76411
   A29        2.09482  -0.00000   0.00000  -0.00020  -0.00020   2.09462
   A30        2.10788   0.00000   0.00000   0.00070   0.00070   2.10858
   A31        1.81119   0.00000   0.00000   0.00003   0.00003   1.81122
   A32        1.48734   0.00000   0.00000  -0.00052  -0.00052   1.48682
   A33        2.00671   0.00000   0.00000   0.00018   0.00018   2.00689
   A34        1.46557   0.00000   0.00000   0.00064   0.00064   1.46621
    D1        0.00007  -0.00000   0.00000  -0.00023  -0.00023  -0.00017
    D2       -2.90026  -0.00000   0.00000  -0.00099  -0.00099  -2.90126
    D3        2.90355  -0.00000   0.00000  -0.00085  -0.00085   2.90270
    D4        0.00322  -0.00000   0.00000  -0.00161  -0.00161   0.00161
    D5       -1.03444   0.00001   0.00000   0.00049   0.00049  -1.03395
    D6        0.56215  -0.00000   0.00000   0.00135   0.00135   0.56350
    D7       -3.00973   0.00000   0.00000  -0.00047  -0.00047  -3.01020
    D8        1.86757   0.00001   0.00000  -0.00018  -0.00018   1.86739
    D9       -2.81902  -0.00000   0.00000   0.00068   0.00068  -2.81834
   D10       -0.10772   0.00000   0.00000  -0.00114  -0.00114  -0.10886
   D11        1.03405  -0.00000   0.00000  -0.00027  -0.00027   1.03377
   D12        3.00985  -0.00000   0.00000  -0.00107  -0.00107   3.00878
   D13       -0.55509  -0.00001   0.00000   0.00083   0.00083  -0.55426
   D14       -1.86477  -0.00000   0.00000  -0.00109  -0.00109  -1.86586
   D15        0.11104   0.00000   0.00000  -0.00189  -0.00189   0.10914
   D16        2.82929  -0.00000   0.00000   0.00000   0.00001   2.82929
   D17       -1.97954  -0.00000   0.00000  -0.00189  -0.00189  -1.98143
   D18        1.59108   0.00000   0.00000   0.00074   0.00074   1.59182
   D19       -0.37585  -0.00000   0.00000  -0.00002  -0.00002  -0.37587
   D20        2.70268   0.00000   0.00000   0.00211   0.00211   2.70479
   D21        0.00264   0.00000   0.00000  -0.00122  -0.00122   0.00142
   D22       -1.77559   0.00000   0.00000   0.00081   0.00081  -1.77477
   D23        0.00995   0.00000   0.00000   0.00489   0.00489   0.01484
   D24       -2.69009   0.00000   0.00000   0.00156   0.00156  -2.68853
   D25        1.81487   0.00000   0.00000   0.00359   0.00359   1.81847
   D26       -1.79057   0.00000   0.00000   0.00246   0.00246  -1.78811
   D27        1.79257   0.00000   0.00000  -0.00086  -0.00087   1.79170
   D28        0.01435  -0.00000   0.00000   0.00117   0.00117   0.01551
   D29        3.00712  -0.00001   0.00000  -0.00181  -0.00181   3.00532
   D30        0.90505  -0.00000   0.00000  -0.00157  -0.00157   0.90348
   D31       -1.09451   0.00000   0.00000  -0.00131  -0.00130  -1.09581
   D32       -1.26083  -0.00001   0.00000  -0.00210  -0.00210  -1.26293
   D33        2.92028  -0.00000   0.00000  -0.00186  -0.00186   2.91842
   D34        0.92073   0.00000   0.00000  -0.00160  -0.00160   0.91913
   D35        0.87754  -0.00001   0.00000  -0.00151  -0.00151   0.87603
   D36       -1.22454  -0.00000   0.00000  -0.00127  -0.00127  -1.22581
   D37        3.05910   0.00000   0.00000  -0.00101  -0.00101   3.05808
   D38        0.86099   0.00000   0.00000  -0.00148  -0.00148   0.85951
   D39       -1.57769  -0.00000   0.00000   0.00121   0.00121  -1.57648
   D40        1.98531  -0.00000   0.00000  -0.00201  -0.00201   1.98329
   D41        0.38280  -0.00000   0.00000  -0.00025  -0.00025   0.38256
   D42       -0.90177   0.00000   0.00000  -0.00088  -0.00088  -0.90265
   D43       -3.08312   0.00001   0.00000  -0.00022  -0.00022  -3.08334
   D44        1.20050   0.00001   0.00000  -0.00028  -0.00028   1.20022
   D45        1.24007   0.00000   0.00000  -0.00069  -0.00069   1.23938
   D46       -0.94128   0.00001   0.00000  -0.00003  -0.00003  -0.94131
   D47       -2.94085   0.00000   0.00000  -0.00009  -0.00009  -2.94094
   D48       -3.02865   0.00000   0.00000  -0.00022  -0.00022  -3.02887
   D49        1.07318   0.00001   0.00000   0.00045   0.00045   1.07363
   D50       -0.92638   0.00000   0.00000   0.00038   0.00038  -0.92600
   D51       -0.88337   0.00000   0.00000  -0.00041  -0.00041  -0.88377
   D52       -2.12759   0.00000   0.00000  -0.00180  -0.00180  -2.12939
   D53       -0.37229  -0.00000   0.00000  -0.00004  -0.00004  -0.37233
   D54        1.42376  -0.00000   0.00000  -0.00010  -0.00010   1.42366
   D55        2.12706   0.00000   0.00000  -0.00167  -0.00167   2.12539
   D56        0.37958  -0.00000   0.00000  -0.00016  -0.00016   0.37942
   D57       -1.41775  -0.00000   0.00000   0.00004   0.00005  -1.41771
         Item               Value     Threshold  Converged?
 Maximum Force            0.000024     0.000450     YES
 RMS     Force            0.000004     0.000300     YES
 Maximum Displacement     0.003460     0.001800     NO 
 RMS     Displacement     0.001043     0.001200     YES
 Predicted change in Energy=-1.179530D-07
 GradGradGradGradGradGradGradGradGradGradGradGradGradGradGradGradGradGrad

 Leave Link  103 at Mon Oct  6 14:26:43 2025, MaxMem=   104857600 cpu:               0.0 elap:               0.0
 (Enter /home/zhouoh/g16/l202.exe)
                          Input orientation:                          
 ---------------------------------------------------------------------
 Center     Atomic      Atomic             Coordinates (Angstroms)
 Number     Number       Type             X           Y           Z
 ---------------------------------------------------------------------
      1          6           0       -1.292112    0.699231    0.304216
      2          6           0       -1.293499   -0.702715    0.299028
      3          1           0       -1.816211    1.211000    1.103515
      4          1           0       -1.818572   -1.219333    1.094745
      5          6           0        1.538127    0.689834    0.220136
      6          1           0        2.041210    1.217815   -0.579276
      7          1           0        1.435090    1.238144    1.144594
      8          6           0        1.535280   -0.687345    0.231927
      9          1           0        1.416433   -1.222283    1.162381
     10          1           0        2.036648   -1.232526   -0.556599
     11          6           0       -0.433604    1.414622   -0.492527
     12          1           0       -0.128996    1.033607   -1.456375
     13          1           0       -0.364077    2.489714   -0.384394
     14          6           0       -0.435275   -1.414417   -0.501469
     15          1           0       -0.367035   -2.490098   -0.400396
     16          1           0       -0.120408   -1.025223   -1.458509
 ---------------------------------------------------------------------
                    Distance matrix (angstroms):
                    1          2          3          4          5
     1  C    0.000000
     2  C    1.401957   0.000000
     3  H    1.084189   2.140732   0.000000
     4  H    2.140791   1.084325   2.430350   0.000000
     5  C    2.831503   3.156505   3.507642   3.959455   0.000000
     6  H    3.487194   3.947169   4.208506   4.862094   1.082089
     7  H    2.904185   3.453565   3.251673   4.077743   1.079760
     8  C    3.149915   2.829616   3.949160   3.503682   1.377232
     9  H    3.429997   2.891204   4.046519   3.235713   2.135141
    10  H    3.943771   3.478890   4.855030   4.194024   2.132442
    11  C    1.372450   2.418490   2.121417   3.372727   2.218317
    12  H    2.136429   2.729895   3.071025   3.799819   2.389177
    13  H    2.131024   3.394480   2.440835   4.249758   2.687639
    14  C    2.418844   1.372539   3.372798   2.121195   2.973702
    15  H    3.394711   2.131259   4.249704   2.440748   3.758546
    16  H    2.730171   2.137543   3.800053   3.072547   2.917192
                    6          7          8          9         10
     6  H    0.000000
     7  H    1.827436   0.000000
     8  C    2.131584   2.133192   0.000000
     9  H    3.062319   2.460562   1.079828   0.000000
    10  H    2.450451   3.059434   1.081834   1.827475   0.000000
    11  C    2.484142   2.490647   2.969781   3.621412   3.621276
    12  H    2.347984   3.041913   2.929480   3.786195   3.261130
    13  H    2.727840   2.672309   3.752481   4.397914   4.432630
    14  C    3.614925   3.639212   2.224767   2.496825   2.479219
    15  H    4.424959   4.419777   2.696025   2.688937   2.717274
    16  H    3.236798   3.783985   2.390195   3.044630   2.347191
                   11         12         13         14         15
    11  C    0.000000
    12  H    1.080260   0.000000
    13  H    1.082751   1.823363   0.000000
    14  C    2.829053   2.645463   3.906535   0.000000
    15  H    3.906373   3.686224   4.979838   1.082572   0.000000
    16  H    2.642737   2.058850   3.683461   1.080064   1.823810
                   16
    16  H    0.000000
 Stoichiometry    C6H10
 Framework group  C1[X(C6H10)]
 Deg. of freedom    42
 Full point group                 C1      NOp   1
 RotChk:  IX=3 Diff= 9.28D-03
 Largest Abelian subgroup         C1      NOp   1
 Largest concise Abelian subgroup C1      NOp   1
                         Standard orientation:                         
 ---------------------------------------------------------------------
 Center     Atomic      Atomic             Coordinates (Angstroms)
 Number     Number       Type             X           Y           Z
 ---------------------------------------------------------------------
      1          6           0       -1.286635   -0.713687   -0.295667
      2          6           0       -1.303209    0.688168   -0.292203
      3          1           0       -1.809376   -1.232142   -1.091538
      4          1           0       -1.838064    1.198031   -1.085758
      5          6           0        1.543740   -0.673487   -0.226629
      6          1           0        2.056751   -1.194947    0.570752
      7          1           0        1.441764   -1.224077   -1.149848
      8          6           0        1.525886    0.703564   -0.240105
      9          1           0        1.396314    1.235978   -1.170575
     10          1           0        2.025478    1.255169    0.545073
     11          6           0       -0.416207   -1.418694    0.497389
     12          1           0       -0.110650   -1.033153    1.459135
     13          1           0       -0.335591   -2.493108    0.390217
     14          6           0       -0.448531    1.410170    0.502845
     15          1           0       -0.392504    2.486395    0.400083
     16          1           0       -0.124394    1.025651    1.458680
 ---------------------------------------------------------------------
 Rotational constants (GHZ):           4.4121616           3.5998343           2.3440464
 Leave Link  202 at Mon Oct  6 14:26:43 2025, MaxMem=   104857600 cpu:               0.0 elap:               0.0
 (Enter /home/zhouoh/g16/l301.exe)
 Standard basis: STO-3G (5D, 7F)
 Ernie: Thresh=  0.10000D-02 Tol=  0.10000D-05 Strict=F.
 There are    40 symmetry adapted cartesian basis functions of A   symmetry.
 There are    40 symmetry adapted basis functions of A   symmetry.
    40 basis functions,   120 primitive gaussians,    40 cartesian basis functions
    23 alpha electrons       23 beta electrons
       nuclear repulsion energy       226.7140771335 Hartrees.
 IExCor=    0 DFT=F Ex=HF Corr=None ExCW=0 ScaHFX=  1.000000
 ScaDFX=  1.000000  1.000000  1.000000  1.000000 ScalE2=  1.000000  1.000000
 IRadAn=      5 IRanWt=     -1 IRanGd=            0 ICorTp=0 IEmpDi=  4
 NAtoms=   16 NActive=   16 NUniq=   16 SFac= 1.00D+00 NAtFMM=   60 NAOKFM=F Big=F
 Integral buffers will be    131072 words long.
 Raffenetti 1 integral format.
 Two-electron integral symmetry is turned on.
 Leave Link  301 at Mon Oct  6 14:26:43 2025, MaxMem=   104857600 cpu:               0.0 elap:               0.0
 (Enter /home/zhouoh/g16/l402.exe)
 External calculation of energy and first derivatives.
 Running external command "python ../GauUMA_client.py R"
         input file       "/home/zhouoh/scratch/Gau-2816605.EIn"
         output file      "/home/zhouoh/scratch/Gau-2816605.EOu"
         message file     "/home/zhouoh/scratch/Gau-2816605.EMs"
         fchk file        "/home/zhouoh/scratch/Gau-2816605.EFC"
         mat. el file     "/home/zhouoh/scratch/Gau-2816605.EUF"
Sent job to server.
Received result from server:
SCF Done:  E(UMA) =  -234.49387135459048     A.U.
 Recovered energy= -234.493871355     dipole=      0.000000000000      0.000000000000      0.000000000000
 Energy=    -234.493871     NIter=   0.
 Dipole moment=       0.000000       0.000000       0.000000
 Leave Link  402 at Mon Oct  6 14:26:43 2025, MaxMem=   104857600 cpu:               0.0 elap:               0.1
 (Enter /home/zhouoh/g16/l716.exe)
 Dipole        = 0.00000000D+00 0.00000000D+00 0.00000000D+00
 ***** Axes restored to original set *****
 -------------------------------------------------------------------
 Center     Atomic                   Forces (Hartrees/Bohr)
 Number     Number              X              Y              Z
 -------------------------------------------------------------------
      1        6          -0.000167384   -0.000007498    0.000251312
      2        6           0.000143095    0.000033594   -0.000260801
      3        1           0.000003837    0.000024706   -0.000008730
      4        1           0.000002827    0.000024712    0.000011667
      5        6           0.000091246    0.000004694    0.000083888
      6        1           0.000010886   -0.000017238    0.000012637
      7        1          -0.000054437   -0.000001976   -0.000013596
      8        6          -0.000156696   -0.000062447   -0.000136573
      9        1           0.000066217    0.000003317    0.000020487
     10        1           0.000029140   -0.000027370    0.000017063
     11        6          -0.000027670    0.000010591   -0.000118746
     12        1          -0.000002718    0.000005807   -0.000057350
     13        1           0.000008349   -0.000001634    0.000014151
     14        6           0.000095885   -0.000000571    0.000157302
     15        1          -0.000015829   -0.000001902   -0.000032789
     16        1          -0.000026749    0.000013217    0.000060077
 -------------------------------------------------------------------
 Cartesian Forces:  Max     0.000260801 RMS     0.000080826
 Leave Link  716 at Mon Oct  6 14:26:43 2025, MaxMem=   104857600 cpu:               0.0 elap:               0.0
 (Enter /home/zhouoh/g16/l103.exe)

 GradGradGradGradGradGradGradGradGradGradGradGradGradGradGradGradGradGrad
 Berny optimization.
 FormGI is forming the generalized inverse of G from B-inverse, IUseBI=4.
 Internal  Forces:  Max     0.000129705 RMS     0.000031020
 Search for a saddle point.
 Step number  23 out of a maximum of  100
 All quantities printed in internal units (Hartrees-Bohrs-Radians)
 Swapping is turned off.
 Update second derivatives using D2CorX and points    1    4    5    6    7
                                                      8    9   10   11   13
                                                     14   15   16   17   18
                                                     19   20   21   22   23
 ITU=  0  0  0  0  0  0  0  0  0  0  0  0  0  0  0  0  0  0  0  0
 ITU=  0  0  0
     Eigenvalues ---   -0.04080   0.00011   0.00539   0.00995   0.01144
     Eigenvalues ---    0.01390   0.01700   0.01749   0.01978   0.02088
     Eigenvalues ---    0.02261   0.02280   0.02430   0.02672   0.02997
     Eigenvalues ---    0.03555   0.03993   0.04340   0.04643   0.04747
     Eigenvalues ---    0.05215   0.05277   0.05822   0.06219   0.09128
     Eigenvalues ---    0.11721   0.11899   0.16749   0.30299   0.30803
     Eigenvalues ---    0.32556   0.33518   0.34013   0.34828   0.34872
     Eigenvalues ---    0.35409   0.35502   0.35842   0.36072   0.43724
     Eigenvalues ---    0.43746   0.48893
 Eigenvectors required to have negative eigenvalues:
                          R9        R13       D20       D6        D24
   1                    0.55952   0.52998   0.16758  -0.16110  -0.15508
                          D13       D9        D16       A27       D40
   1                    0.15052  -0.14520   0.12971   0.12657  -0.12492
 RFO step:  Lambda0=4.615276897D-08 Lambda=-2.11886131D-06.
 Linear search not attempted -- option 19 set.
 Iteration  1 RMS(Cart)=  0.00260903 RMS(Int)=  0.00000549
 Iteration  2 RMS(Cart)=  0.00000539 RMS(Int)=  0.00000256
 Iteration  3 RMS(Cart)=  0.00000000 RMS(Int)=  0.00000256
 ITry= 1 IFail=0 DXMaxC= 9.12D-03 DCOld= 1.00D+10 DXMaxT= 3.00D-01 DXLimC= 3.00D+00 Rises=F
 Variable       Old X    -DE/DX   Delta X   Delta X   Delta X     New X
                                 (Linear)    (Quad)   (Total)
    R1        2.64931  -0.00001   0.00000   0.00017   0.00017   2.64948
    R2        2.04882   0.00000   0.00000  -0.00012  -0.00012   2.04870
    R3        2.59355   0.00009   0.00000   0.00025   0.00025   2.59380
    R4        2.04908  -0.00000   0.00000   0.00012   0.00012   2.04920
    R5        2.59372  -0.00008   0.00000  -0.00056  -0.00056   2.59317
    R6        2.04485  -0.00001   0.00000  -0.00004  -0.00004   2.04482
    R7        2.04045  -0.00001   0.00000  -0.00004  -0.00004   2.04041
    R8        2.60259   0.00003   0.00000  -0.00014  -0.00014   2.60245
    R9        4.19201   0.00005   0.00000   0.00182   0.00182   4.19383
   R10        4.43705   0.00003   0.00000   0.00529   0.00529   4.44234
   R11        2.04058   0.00001   0.00000   0.00005   0.00005   2.04062
   R12        2.04437   0.00001   0.00000   0.00003   0.00003   2.04440
   R13        4.20420  -0.00009   0.00000   0.00011   0.00010   4.20431
   R14        4.43555  -0.00002   0.00000  -0.00545  -0.00544   4.43010
   R15        2.04140   0.00005   0.00000   0.00016   0.00016   2.04156
   R16        2.04610   0.00000   0.00000   0.00001   0.00001   2.04611
   R17        2.04576  -0.00000   0.00000  -0.00003  -0.00003   2.04573
   R18        2.04103  -0.00006   0.00000  -0.00022  -0.00022   2.04081
    A1        2.06494   0.00008   0.00000   0.00118   0.00118   2.06612
    A2        2.11732  -0.00012   0.00000  -0.00175  -0.00175   2.11557
    A3        2.07638   0.00004   0.00000   0.00064   0.00064   2.07702
    A4        2.06485  -0.00008   0.00000  -0.00133  -0.00133   2.06353
    A5        2.11772   0.00013   0.00000   0.00192   0.00192   2.11964
    A6        2.07571  -0.00005   0.00000  -0.00069  -0.00069   2.07501
    A7        2.01429   0.00001   0.00000   0.00011   0.00011   2.01440
    A8        2.08885  -0.00001   0.00000   0.00017   0.00017   2.08902
    A9        1.58728  -0.00001   0.00000  -0.00137  -0.00137   1.58591
   A10        2.09470   0.00001   0.00000   0.00010   0.00010   2.09480
   A11        1.59512  -0.00003   0.00000   0.00037   0.00037   1.59549
   A12        1.90459   0.00002   0.00000   0.00010   0.00009   1.90468
   A13        1.37757   0.00002   0.00000  -0.00056  -0.00057   1.37700
   A14        2.09784  -0.00002   0.00000  -0.00023  -0.00023   2.09761
   A15        2.09062   0.00002   0.00000   0.00023   0.00023   2.09085
   A16        1.90266  -0.00002   0.00000  -0.00005  -0.00006   1.90260
   A17        2.01464  -0.00001   0.00000  -0.00014  -0.00014   2.01450
   A18        1.59547   0.00003   0.00000  -0.00066  -0.00066   1.59481
   A19        1.57632   0.00002   0.00000   0.00104   0.00104   1.57736
   A20        1.37929  -0.00003   0.00000   0.00070   0.00070   1.37999
   A21        1.77132  -0.00001   0.00000  -0.00115  -0.00115   1.77017
   A22        2.10657   0.00002   0.00000  -0.00008  -0.00008   2.10648
   A23        2.09411  -0.00002   0.00000   0.00041   0.00041   2.09452
   A24        1.49148  -0.00001   0.00000   0.00102   0.00102   1.49250
   A25        1.80828   0.00000   0.00000  -0.00067  -0.00067   1.80761
   A26        2.00558  -0.00000   0.00000   0.00003   0.00004   2.00561
   A27        1.47028  -0.00000   0.00000  -0.00297  -0.00297   1.46732
   A28        1.76411   0.00001   0.00000   0.00117   0.00117   1.76528
   A29        2.09462   0.00002   0.00000  -0.00003  -0.00003   2.09458
   A30        2.10858  -0.00003   0.00000  -0.00008  -0.00008   2.10850
   A31        1.81122   0.00000   0.00000   0.00072   0.00072   1.81194
   A32        1.48682   0.00001   0.00000  -0.00185  -0.00185   1.48497
   A33        2.00689   0.00000   0.00000   0.00003   0.00003   2.00692
   A34        1.46621  -0.00000   0.00000   0.00364   0.00364   1.46985
    D1       -0.00017   0.00002   0.00000   0.00037   0.00037   0.00020
    D2       -2.90126   0.00003   0.00000   0.00095   0.00096  -2.90030
    D3        2.90270   0.00002   0.00000   0.00079   0.00078   2.90348
    D4        0.00161   0.00003   0.00000   0.00137   0.00137   0.00298
    D5       -1.03395   0.00001   0.00000  -0.00163  -0.00162  -1.03557
    D6        0.56350   0.00000   0.00000  -0.00113  -0.00112   0.56238
    D7       -3.01020   0.00002   0.00000  -0.00016  -0.00016  -3.01036
    D8        1.86739   0.00001   0.00000  -0.00114  -0.00114   1.86626
    D9       -2.81834   0.00001   0.00000  -0.00064  -0.00064  -2.81898
   D10       -0.10886   0.00002   0.00000   0.00033   0.00033  -0.10853
   D11        1.03377   0.00000   0.00000  -0.00166  -0.00166   1.03211
   D12        3.00878   0.00002   0.00000   0.00005   0.00005   3.00883
   D13       -0.55426  -0.00001   0.00000  -0.00016  -0.00016  -0.55442
   D14       -1.86586   0.00001   0.00000  -0.00099  -0.00099  -1.86685
   D15        0.10914   0.00003   0.00000   0.00072   0.00072   0.10987
   D16        2.82929   0.00000   0.00000   0.00051   0.00051   2.82981
   D17       -1.98143   0.00003   0.00000  -0.00118  -0.00118  -1.98262
   D18        1.59182   0.00001   0.00000  -0.00211  -0.00212   1.58971
   D19       -0.37587  -0.00000   0.00000  -0.00142  -0.00142  -0.37728
   D20        2.70479  -0.00001   0.00000  -0.00360  -0.00360   2.70119
   D21        0.00142   0.00001   0.00000  -0.00321  -0.00321  -0.00179
   D22       -1.77477  -0.00000   0.00000  -0.00458  -0.00458  -1.77935
   D23        0.01484  -0.00003   0.00000  -0.00458  -0.00458   0.01027
   D24       -2.68853   0.00000   0.00000  -0.00419  -0.00419  -2.69272
   D25        1.81847  -0.00002   0.00000  -0.00556  -0.00556   1.81291
   D26       -1.78811  -0.00002   0.00000  -0.00516  -0.00516  -1.79327
   D27        1.79170   0.00001   0.00000  -0.00477  -0.00478   1.78693
   D28        0.01551  -0.00001   0.00000  -0.00614  -0.00614   0.00937
   D29        3.00532   0.00002   0.00000   0.00582   0.00582   3.01114
   D30        0.90348  -0.00001   0.00000   0.00574   0.00574   0.90922
   D31       -1.09581  -0.00000   0.00000   0.00549   0.00549  -1.09032
   D32       -1.26293   0.00002   0.00000   0.00589   0.00589  -1.25703
   D33        2.91842  -0.00000   0.00000   0.00581   0.00582   2.92424
   D34        0.91913   0.00000   0.00000   0.00556   0.00556   0.92469
   D35        0.87603   0.00003   0.00000   0.00619   0.00619   0.88221
   D36       -1.22581   0.00001   0.00000   0.00611   0.00611  -1.21970
   D37        3.05808   0.00001   0.00000   0.00585   0.00585   3.06394
   D38        0.85951  -0.00000   0.00000   0.00497   0.00497   0.86448
   D39       -1.57648   0.00001   0.00000  -0.00191  -0.00191  -1.57838
   D40        1.98329   0.00004   0.00000  -0.00151  -0.00151   1.98178
   D41        0.38256  -0.00000   0.00000  -0.00127  -0.00128   0.38128
   D42       -0.90265   0.00004   0.00000   0.00635   0.00635  -0.89630
   D43       -3.08334   0.00001   0.00000   0.00559   0.00558  -3.07775
   D44        1.20022   0.00001   0.00000   0.00597   0.00597   1.20618
   D45        1.23938   0.00003   0.00000   0.00581   0.00581   1.24519
   D46       -0.94131  -0.00000   0.00000   0.00504   0.00504  -0.93627
   D47       -2.94094  -0.00001   0.00000   0.00542   0.00542  -2.93552
   D48       -3.02887   0.00002   0.00000   0.00569   0.00569  -3.02318
   D49        1.07363  -0.00001   0.00000   0.00493   0.00492   1.07855
   D50       -0.92600  -0.00002   0.00000   0.00531   0.00531  -0.92070
   D51       -0.88377  -0.00000   0.00000   0.00417   0.00417  -0.87961
   D52       -2.12939   0.00002   0.00000  -0.00068  -0.00067  -2.13006
   D53       -0.37233   0.00001   0.00000  -0.00142  -0.00141  -0.37374
   D54        1.42366   0.00001   0.00000  -0.00168  -0.00168   1.42198
   D55        2.12539   0.00002   0.00000  -0.00098  -0.00099   2.12440
   D56        0.37942   0.00001   0.00000  -0.00125  -0.00125   0.37817
   D57       -1.41771   0.00000   0.00000  -0.00119  -0.00120  -1.41891
         Item               Value     Threshold  Converged?
 Maximum Force            0.000130     0.000450     YES
 RMS     Force            0.000031     0.000300     YES
 Maximum Displacement     0.009125     0.001800     NO 
 RMS     Displacement     0.002609     0.001200     NO 
 Predicted change in Energy=-1.036423D-06
 GradGradGradGradGradGradGradGradGradGradGradGradGradGradGradGradGradGrad

 Leave Link  103 at Mon Oct  6 14:26:43 2025, MaxMem=   104857600 cpu:               0.0 elap:               0.0
 (Enter /home/zhouoh/g16/l202.exe)
                          Input orientation:                          
 ---------------------------------------------------------------------
 Center     Atomic      Atomic             Coordinates (Angstroms)
 Number     Number       Type             X           Y           Z
 ---------------------------------------------------------------------
      1          6           0       -1.292546    0.700536    0.304171
      2          6           0       -1.293301   -0.701499    0.298919
      3          1           0       -1.816279    1.213128    1.103097
      4          1           0       -1.818607   -1.217153    1.095192
      5          6           0        1.537467    0.689513    0.222409
      6          1           0        2.040898    1.220966   -0.574453
      7          1           0        1.431436    1.234727    1.148329
      8          6           0        1.536534   -0.687624    0.229680
      9          1           0        1.420416   -1.225575    1.158770
     10          1           0        2.037187   -1.229746   -0.561428
     11          6           0       -0.433933    1.414369   -0.494079
     12          1           0       -0.129538    1.031414   -1.457323
     13          1           0       -0.363247    2.489561   -0.387650
     14          6           0       -0.435416   -1.414877   -0.499944
     15          1           0       -0.368331   -2.490482   -0.397478
     16          1           0       -0.119741   -1.027231   -1.457217
 ---------------------------------------------------------------------
                    Distance matrix (angstroms):
                    1          2          3          4          5
     1  C    0.000000
     2  C    1.402045   0.000000
     3  H    1.084127   2.141496   0.000000
     4  H    2.140091   1.084388   2.430295   0.000000
     5  C    2.831215   3.154999   3.506765   3.957317   0.000000
     6  H    3.486356   3.946585   4.206192   4.860856   1.082070
     7  H    2.901386   3.448863   3.248102   4.071525   1.079736
     8  C    3.152179   2.830716   3.951844   3.505208   1.377157
     9  H    3.435171   2.894522   4.052970   3.239657   2.134955
    10  H    3.944917   3.480143   4.856695   4.196629   2.132528
    11  C    1.372580   2.417489   2.121874   3.371649   2.219277
    12  H    2.136569   2.727951   3.071460   3.797939   2.391088
    13  H    2.131389   3.394000   2.441907   4.249308   2.687948
    14  C    2.419968   1.372245   3.373860   2.120559   2.973637
    15  H    3.395450   2.130963   4.250296   2.439822   3.758816
    16  H    2.731874   2.137138   3.801665   3.071972   2.917994
                    6          7          8          9         10
     6  H    0.000000
     7  H    1.827461   0.000000
     8  C    2.131603   2.133166   0.000000
     9  H    3.061800   2.460348   1.079852   0.000000
    10  H    2.450750   3.060038   1.081851   1.827431   0.000000
    11  C    2.483678   2.491862   2.970681   3.624889   3.619712
    12  H    2.350783   3.044240   2.928629   3.786858   3.257326
    13  H    2.724728   2.674833   3.752968   4.401715   4.430071
    14  C    3.617368   3.636254   2.224823   2.496253   2.480287
    15  H    4.428380   4.416544   2.696689   2.687287   2.720818
    16  H    3.240682   3.783051   2.388347   3.042171   2.344310
                   11         12         13         14         15
    11  C    0.000000
    12  H    1.080347   0.000000
    13  H    1.082756   1.823461   0.000000
    14  C    2.829252   2.644707   3.906718   0.000000
    15  H    3.906597   3.685655   4.980055   1.082556   0.000000
    16  H    2.643437   2.058668   3.683896   1.079950   1.823718
                   16
    16  H    0.000000
 Stoichiometry    C6H10
 Framework group  C1[X(C6H10)]
 Deg. of freedom    42
 Full point group                 C1      NOp   1
 RotChk:  IX=3 Diff= 6.06D-03
 Largest Abelian subgroup         C1      NOp   1
 Largest concise Abelian subgroup C1      NOp   1
                         Standard orientation:                         
 ---------------------------------------------------------------------
 Center     Atomic      Atomic             Coordinates (Angstroms)
 Number     Number       Type             X           Y           Z
 ---------------------------------------------------------------------
      1          6           0       -1.290074   -0.709346   -0.295720
      2          6           0       -1.300009    0.692659   -0.292213
      3          1           0       -1.814601   -1.226386   -1.091252
      4          1           0       -1.832846    1.203836   -1.086367
      5          6           0        1.540194   -0.679654   -0.228796
      6          1           0        2.051264   -1.206771    0.566081
      7          1           0        1.432904   -1.226738   -1.153467
      8          6           0        1.530180    0.697437   -0.237780
      9          1           0        1.405675    1.233422   -1.166919
     10          1           0        2.031393    1.243845    0.550017
     11          6           0       -0.422630   -1.416507    0.498911
     12          1           0       -0.115723   -1.030330    1.460069
     13          1           0       -0.345444   -2.491348    0.393456
     14          6           0       -0.442661    1.412673    0.501255
     15          1           0       -0.383176    2.488563    0.397097
     16          1           0       -0.119445    1.028334    1.457344
 ---------------------------------------------------------------------
 Rotational constants (GHZ):           4.4118770           3.5989796           2.3435512
 Leave Link  202 at Mon Oct  6 14:26:43 2025, MaxMem=   104857600 cpu:               0.0 elap:               0.0
 (Enter /home/zhouoh/g16/l301.exe)
 Standard basis: STO-3G (5D, 7F)
 Ernie: Thresh=  0.10000D-02 Tol=  0.10000D-05 Strict=F.
 There are    40 symmetry adapted cartesian basis functions of A   symmetry.
 There are    40 symmetry adapted basis functions of A   symmetry.
    40 basis functions,   120 primitive gaussians,    40 cartesian basis functions
    23 alpha electrons       23 beta electrons
       nuclear repulsion energy       226.7034146754 Hartrees.
 IExCor=    0 DFT=F Ex=HF Corr=None ExCW=0 ScaHFX=  1.000000
 ScaDFX=  1.000000  1.000000  1.000000  1.000000 ScalE2=  1.000000  1.000000
 IRadAn=      5 IRanWt=     -1 IRanGd=            0 ICorTp=0 IEmpDi=  4
 NAtoms=   16 NActive=   16 NUniq=   16 SFac= 1.00D+00 NAtFMM=   60 NAOKFM=F Big=F
 Integral buffers will be    131072 words long.
 Raffenetti 1 integral format.
 Two-electron integral symmetry is turned on.
 Leave Link  301 at Mon Oct  6 14:26:43 2025, MaxMem=   104857600 cpu:               0.0 elap:               0.0
 (Enter /home/zhouoh/g16/l402.exe)
 External calculation of energy and first derivatives.
 Running external command "python ../GauUMA_client.py R"
         input file       "/home/zhouoh/scratch/Gau-2816605.EIn"
         output file      "/home/zhouoh/scratch/Gau-2816605.EOu"
         message file     "/home/zhouoh/scratch/Gau-2816605.EMs"
         fchk file        "/home/zhouoh/scratch/Gau-2816605.EFC"
         mat. el file     "/home/zhouoh/scratch/Gau-2816605.EUF"
Sent job to server.
Received result from server:
SCF Done:  E(UMA) =  -234.4938714071608     A.U.
 Recovered energy= -234.493871407     dipole=      0.000000000000      0.000000000000      0.000000000000
 Energy=    -234.493871     NIter=   0.
 Dipole moment=       0.000000       0.000000       0.000000
 Leave Link  402 at Mon Oct  6 14:26:43 2025, MaxMem=   104857600 cpu:               0.0 elap:               0.1
 (Enter /home/zhouoh/g16/l716.exe)
 Dipole        = 0.00000000D+00 0.00000000D+00 0.00000000D+00
 ***** Axes restored to original set *****
 -------------------------------------------------------------------
 Center     Atomic                   Forces (Hartrees/Bohr)
 Number     Number              X              Y              Z
 -------------------------------------------------------------------
      1        6           0.000231228   -0.000015726   -0.000268425
      2        6          -0.000216383   -0.000041264    0.000273724
      3        1          -0.000009914   -0.000020482    0.000005700
      4        1           0.000009677   -0.000018374   -0.000005157
      5        6           0.000159834   -0.000048766   -0.000005296
      6        1          -0.000030398   -0.000000657   -0.000017430
      7        1          -0.000016938    0.000001928    0.000003941
      8        6          -0.000083633    0.000009808    0.000030314
      9        1           0.000001134    0.000000516   -0.000008035
     10        1           0.000044465    0.000002671    0.000023984
     11        6          -0.000160961    0.000050312    0.000034071
     12        1           0.000020611    0.000014691    0.000046221
     13        1           0.000000603    0.000002101    0.000020371
     14        6           0.000085145    0.000046524   -0.000062311
     15        1          -0.000003499    0.000001878   -0.000013982
     16        1          -0.000030973    0.000014839   -0.000057689
 -------------------------------------------------------------------
 Cartesian Forces:  Max     0.000273724 RMS     0.000084306
 Leave Link  716 at Mon Oct  6 14:26:43 2025, MaxMem=   104857600 cpu:               0.0 elap:               0.0
 (Enter /home/zhouoh/g16/l103.exe)

 GradGradGradGradGradGradGradGradGradGradGradGradGradGradGradGradGradGrad
 Berny optimization.
 FormGI is forming the generalized inverse of G from B-inverse, IUseBI=4.
 Internal  Forces:  Max     0.000153908 RMS     0.000032192
 Search for a saddle point.
 Step number  24 out of a maximum of  100
 All quantities printed in internal units (Hartrees-Bohrs-Radians)
 Swapping is turned off.
 Update second derivatives using D2CorX and points    1    5    6    7    8
                                                      9   10   11   13   14
                                                     15   16   17   18   19
                                                     20   21   22   23   24
 ITU=  0  0  0  0  0  0  0  0  0  0  0  0  0  0  0  0  0  0  0  0
 ITU=  0  0  0  0
     Eigenvalues ---   -0.04019   0.00042   0.00525   0.00830   0.01114
     Eigenvalues ---    0.01190   0.01404   0.01709   0.01856   0.02033
     Eigenvalues ---    0.02221   0.02263   0.02408   0.02529   0.02844
     Eigenvalues ---    0.03397   0.04012   0.04391   0.04666   0.04913
     Eigenvalues ---    0.05226   0.05426   0.05900   0.06235   0.09153
     Eigenvalues ---    0.11723   0.11898   0.18583   0.30503   0.30805
     Eigenvalues ---    0.32554   0.33559   0.34004   0.34837   0.34871
     Eigenvalues ---    0.35415   0.35505   0.35843   0.36072   0.43742
     Eigenvalues ---    0.44142   0.48905
 Eigenvectors required to have negative eigenvalues:
                          R13       R9        D20       D24       D6
   1                    0.54674   0.53985   0.17047  -0.15823  -0.15596
                          D13       D9        D40       D16       A27
   1                    0.15315  -0.14326  -0.13515   0.13087   0.12745
 RFO step:  Lambda0=6.620618033D-08 Lambda=-7.06980267D-06.
 Linear search not attempted -- option 19 set.
 Iteration  1 RMS(Cart)=  0.01047044 RMS(Int)=  0.00010267
 Iteration  2 RMS(Cart)=  0.00009393 RMS(Int)=  0.00003903
 Iteration  3 RMS(Cart)=  0.00000001 RMS(Int)=  0.00003903
 ITry= 1 IFail=0 DXMaxC= 3.95D-02 DCOld= 1.00D+10 DXMaxT= 3.00D-01 DXLimC= 3.00D+00 Rises=F
 Variable       Old X    -DE/DX   Delta X   Delta X   Delta X     New X
                                 (Linear)    (Quad)   (Total)
    R1        2.64948   0.00000   0.00000   0.00042   0.00044   2.64992
    R2        2.04870  -0.00000   0.00000  -0.00002  -0.00002   2.04868
    R3        2.59380  -0.00011   0.00000  -0.00034  -0.00033   2.59347
    R4        2.04920   0.00000   0.00000   0.00001   0.00001   2.04921
    R5        2.59317   0.00010   0.00000  -0.00007  -0.00006   2.59311
    R6        2.04482   0.00000   0.00000   0.00007   0.00006   2.04487
    R7        2.04041   0.00001   0.00000  -0.00030  -0.00030   2.04010
    R8        2.60245  -0.00002   0.00000  -0.00004  -0.00006   2.60239
    R9        4.19383   0.00004   0.00000   0.02597   0.02596   4.21978
   R10        4.44234  -0.00000   0.00000   0.01328   0.01331   4.45564
   R11        2.04062  -0.00001   0.00000   0.00032   0.00032   2.04095
   R12        2.04440  -0.00001   0.00000   0.00031   0.00032   2.04472
   R13        4.20431   0.00001   0.00000  -0.01936  -0.01942   4.18488
   R14        4.43010   0.00003   0.00000   0.02590   0.02593   4.45604
   R15        2.04156  -0.00004   0.00000  -0.00003  -0.00003   2.04153
   R16        2.04611   0.00000   0.00000  -0.00009  -0.00009   2.04602
   R17        2.04573  -0.00000   0.00000  -0.00002  -0.00002   2.04572
   R18        2.04081   0.00004   0.00000   0.00016   0.00019   2.04100
    A1        2.06612  -0.00009   0.00000   0.00050   0.00049   2.06661
    A2        2.11557   0.00015   0.00000   0.00009   0.00008   2.11565
    A3        2.07702  -0.00005   0.00000   0.00008   0.00008   2.07710
    A4        2.06353   0.00010   0.00000  -0.00026  -0.00027   2.06326
    A5        2.11964  -0.00015   0.00000  -0.00089  -0.00090   2.11874
    A6        2.07501   0.00006   0.00000   0.00056   0.00055   2.07557
    A7        2.01440   0.00000   0.00000   0.00138   0.00139   2.01579
    A8        2.08902   0.00002   0.00000   0.00144   0.00145   2.09048
    A9        1.58591  -0.00001   0.00000   0.00673   0.00672   1.59263
   A10        2.09480  -0.00001   0.00000   0.00153   0.00147   2.09627
   A11        1.59549   0.00001   0.00000  -0.01361  -0.01357   1.58193
   A12        1.90468  -0.00002   0.00000  -0.00299  -0.00307   1.90161
   A13        1.37700   0.00001   0.00000  -0.00002  -0.00008   1.37692
   A14        2.09761   0.00001   0.00000  -0.00345  -0.00347   2.09413
   A15        2.09085  -0.00002   0.00000   0.00036   0.00039   2.09123
   A16        1.90260   0.00002   0.00000   0.00191   0.00179   1.90439
   A17        2.01450   0.00000   0.00000  -0.00243  -0.00250   2.01200
   A18        1.59481  -0.00002   0.00000   0.00806   0.00814   1.60295
   A19        1.57736   0.00001   0.00000   0.00299   0.00299   1.58035
   A20        1.37999   0.00000   0.00000  -0.01123  -0.01131   1.36868
   A21        1.77017  -0.00002   0.00000  -0.00248  -0.00248   1.76769
   A22        2.10648  -0.00001   0.00000   0.00124   0.00123   2.10771
   A23        2.09452   0.00001   0.00000   0.00040   0.00039   2.09491
   A24        1.49250  -0.00001   0.00000  -0.00597  -0.00602   1.48648
   A25        1.80761   0.00001   0.00000   0.00178   0.00181   1.80942
   A26        2.00561   0.00000   0.00000   0.00113   0.00113   2.00674
   A27        1.46732   0.00002   0.00000   0.01235   0.01235   1.47966
   A28        1.76528   0.00002   0.00000   0.00017   0.00019   1.76547
   A29        2.09458  -0.00002   0.00000   0.00106   0.00104   2.09563
   A30        2.10850   0.00001   0.00000  -0.00359  -0.00362   2.10488
   A31        1.81194  -0.00001   0.00000  -0.00218  -0.00218   1.80977
   A32        1.48497   0.00000   0.00000   0.00970   0.00966   1.49462
   A33        2.00692  -0.00000   0.00000  -0.00060  -0.00058   2.00634
   A34        1.46985  -0.00001   0.00000  -0.01834  -0.01833   1.45153
    D1        0.00020  -0.00001   0.00000  -0.00062  -0.00061  -0.00041
    D2       -2.90030  -0.00002   0.00000   0.00215   0.00219  -2.89811
    D3        2.90348  -0.00001   0.00000   0.00259   0.00257   2.90605
    D4        0.00298  -0.00002   0.00000   0.00535   0.00537   0.00835
    D5       -1.03557   0.00001   0.00000   0.00364   0.00371  -1.03186
    D6        0.56238  -0.00001   0.00000  -0.00465  -0.00463   0.55775
    D7       -3.01036   0.00001   0.00000   0.00302   0.00305  -3.00731
    D8        1.86626   0.00000   0.00000   0.00692   0.00697   1.87323
    D9       -2.81898  -0.00002   0.00000  -0.00136  -0.00137  -2.82035
   D10       -0.10853   0.00001   0.00000   0.00630   0.00631  -0.10223
   D11        1.03211   0.00001   0.00000   0.00712   0.00705   1.03916
   D12        3.00883   0.00001   0.00000   0.00501   0.00496   3.01379
   D13       -0.55442  -0.00000   0.00000  -0.00371  -0.00371  -0.55813
   D14       -1.86685   0.00001   0.00000   0.01001   0.00998  -1.85687
   D15        0.10987   0.00000   0.00000   0.00791   0.00789   0.11776
   D16        2.82981  -0.00001   0.00000  -0.00082  -0.00078   2.82902
   D17       -1.98262   0.00000   0.00000   0.01811   0.01809  -1.96453
   D18        1.58971  -0.00002   0.00000   0.00733   0.00727   1.59698
   D19       -0.37728   0.00001   0.00000   0.00628   0.00631  -0.37098
   D20        2.70119   0.00001   0.00000   0.00581   0.00585   2.70705
   D21       -0.00179   0.00002   0.00000   0.02069   0.02067   0.01888
   D22       -1.77935   0.00001   0.00000   0.01554   0.01558  -1.76377
   D23        0.01027  -0.00002   0.00000  -0.00544  -0.00544   0.00483
   D24       -2.69272  -0.00000   0.00000   0.00945   0.00938  -2.68334
   D25        1.81291  -0.00002   0.00000   0.00430   0.00429   1.81720
   D26       -1.79327  -0.00001   0.00000   0.01292   0.01291  -1.78036
   D27        1.78693   0.00000   0.00000   0.02781   0.02773   1.81466
   D28        0.00937  -0.00001   0.00000   0.02265   0.02264   0.03201
   D29        3.01114  -0.00001   0.00000  -0.01582  -0.01582   2.99532
   D30        0.90922  -0.00000   0.00000  -0.01590  -0.01589   0.89333
   D31       -1.09032  -0.00001   0.00000  -0.01573  -0.01571  -1.10604
   D32       -1.25703  -0.00001   0.00000  -0.01460  -0.01463  -1.27166
   D33        2.92424  -0.00000   0.00000  -0.01467  -0.01471   2.90953
   D34        0.92469  -0.00001   0.00000  -0.01450  -0.01453   0.91016
   D35        0.88221  -0.00002   0.00000  -0.01950  -0.01948   0.86274
   D36       -1.21970  -0.00002   0.00000  -0.01957  -0.01956  -1.23926
   D37        3.06394  -0.00002   0.00000  -0.01940  -0.01937   3.04456
   D38        0.86448   0.00001   0.00000  -0.01292  -0.01296   0.85151
   D39       -1.57838  -0.00002   0.00000   0.00270   0.00272  -1.57567
   D40        1.98178  -0.00001   0.00000   0.01720   0.01715   1.99893
   D41        0.38128   0.00001   0.00000   0.00690   0.00678   0.38806
   D42       -0.89630  -0.00003   0.00000  -0.02229  -0.02232  -0.91861
   D43       -3.07775  -0.00002   0.00000  -0.02264  -0.02266  -3.10041
   D44        1.20618  -0.00002   0.00000  -0.02423  -0.02425   1.18193
   D45        1.24519  -0.00002   0.00000  -0.02214  -0.02215   1.22304
   D46       -0.93627  -0.00000   0.00000  -0.02248  -0.02249  -0.95876
   D47       -2.93552  -0.00000   0.00000  -0.02407  -0.02409  -2.95960
   D48       -3.02318  -0.00002   0.00000  -0.02433  -0.02437  -3.04755
   D49        1.07855  -0.00000   0.00000  -0.02468  -0.02471   1.05384
   D50       -0.92070  -0.00000   0.00000  -0.02627  -0.02631  -0.94700
   D51       -0.87961   0.00000   0.00000  -0.01736  -0.01726  -0.89687
   D52       -2.13006   0.00003   0.00000   0.01293   0.01295  -2.11711
   D53       -0.37374   0.00000   0.00000   0.00656   0.00655  -0.36719
   D54        1.42198   0.00000   0.00000   0.00581   0.00581   1.42780
   D55        2.12440   0.00002   0.00000   0.01225   0.01214   2.13655
   D56        0.37817  -0.00000   0.00000   0.00640   0.00633   0.38450
   D57       -1.41891   0.00000   0.00000   0.00437   0.00431  -1.41460
         Item               Value     Threshold  Converged?
 Maximum Force            0.000154     0.000450     YES
 RMS     Force            0.000032     0.000300     YES
 Maximum Displacement     0.039515     0.001800     NO 
 RMS     Displacement     0.010481     0.001200     NO 
 Predicted change in Energy=-3.560152D-06
 GradGradGradGradGradGradGradGradGradGradGradGradGradGradGradGradGradGrad

 Leave Link  103 at Mon Oct  6 14:26:43 2025, MaxMem=   104857600 cpu:               0.0 elap:               0.0
 (Enter /home/zhouoh/g16/l202.exe)
                          Input orientation:                          
 ---------------------------------------------------------------------
 Center     Atomic      Atomic             Coordinates (Angstroms)
 Number     Number       Type             X           Y           Z
 ---------------------------------------------------------------------
      1          6           0       -1.294417    0.699393    0.307590
      2          6           0       -1.290370   -0.702842    0.297345
      3          1           0       -1.818453    1.207806    1.108971
      4          1           0       -1.812187   -1.222877    1.093074
      5          6           0        1.544603    0.684818    0.214725
      6          1           0        2.049185    1.204556   -0.589148
      7          1           0        1.437283    1.242009    1.133152
      8          6           0        1.530807   -0.692069    0.236436
      9          1           0        1.407991   -1.215933    1.172881
     10          1           0        2.039286   -1.247553   -0.540517
     11          6           0       -0.442280    1.419021   -0.492090
     12          1           0       -0.137099    1.039742   -1.456522
     13          1           0       -0.372477    2.493698   -0.380504
     14          6           0       -0.429163   -1.409360   -0.503983
     15          1           0       -0.360329   -2.485617   -0.409956
     16          1           0       -0.119380   -1.014767   -1.460457
 ---------------------------------------------------------------------
                    Distance matrix (angstroms):
                    1          2          3          4          5
     1  C    0.000000
     2  C    1.402278   0.000000
     3  H    1.084117   2.142005   0.000000
     4  H    2.140138   1.084396   2.430743   0.000000
     5  C    2.840575   3.157451   3.518996   3.959650   0.000000
     6  H    3.498428   3.946728   4.224007   4.861326   1.082101
     7  H    2.904853   3.452696   3.256005   4.078765   1.079577
     8  C    3.150098   2.821855   3.948213   3.491589   1.377127
     9  H    3.423479   2.882877   4.035905   3.221174   2.132975
    10  H    3.952652   3.476396   4.861249   4.183667   2.132876
    11  C    1.372403   2.417595   2.121758   3.371796   2.233012
    12  H    2.137128   2.728128   3.071962   3.798132   2.397323
    13  H    2.131427   3.394094   2.441906   4.249368   2.702136
    14  C    2.419535   1.372214   3.373619   2.120877   2.966121
    15  H    3.395832   2.131557   4.251427   2.441619   3.751087
    16  H    2.728561   2.135036   3.798504   3.070736   2.909237
                    6          7          8          9         10
     6  H    0.000000
     7  H    1.828152   0.000000
     8  C    2.132484   2.133893   0.000000
     9  H    3.061804   2.458437   1.080022   0.000000
    10  H    2.452611   3.059656   1.082021   1.826271   0.000000
    11  C    2.502561   2.491084   2.980021   3.624722   3.642956
    12  H    2.357825   3.037433   2.940610   3.793301   3.287466
    13  H    2.751338   2.670788   3.761943   4.398231   4.454117
    14  C    3.603057   3.632298   2.214545   2.494879   2.474017
    15  H    4.410810   4.416762   2.685337   2.691547   2.703332
    16  H    3.222925   3.773995   2.388869   3.050868   2.358033
                   11         12         13         14         15
    11  C    0.000000
    12  H    1.080332   0.000000
    13  H    1.082707   1.824062   0.000000
    14  C    2.828436   2.643999   3.905422   0.000000
    15  H    3.906361   3.684194   4.979417   1.082547   0.000000
    16  H    2.639189   2.054589   3.679630   1.080051   1.823460
                   16
    16  H    0.000000
 Stoichiometry    C6H10
 Framework group  C1[X(C6H10)]
 Deg. of freedom    42
 Full point group                 C1      NOp   1
 RotChk:  IX=0 Diff= 3.19D-02
 Largest Abelian subgroup         C1      NOp   1
 Largest concise Abelian subgroup C1      NOp   1
                         Standard orientation:                         
 ---------------------------------------------------------------------
 Center     Atomic      Atomic             Coordinates (Angstroms)
 Number     Number       Type             X           Y           Z
 ---------------------------------------------------------------------
      1          6           0       -1.307632   -0.678701   -0.300182
      2          6           0       -1.281168    0.723289   -0.289794
      3          1           0       -1.843914   -1.178532   -1.098856
      4          1           0       -1.798799    1.251739   -1.082708
      5          6           0        1.531708   -0.709424   -0.222244
      6          1           0        2.032154   -1.237304    0.578904
      7          1           0        1.410690   -1.264648   -1.140158
      8          6           0        1.539760    0.667512   -0.243721
      9          1           0        1.420395    1.193457   -1.179446
     10          1           0        2.061110    1.214661    0.530613
     11          6           0       -0.462890   -1.411988    0.494923
     12          1           0       -0.146634   -1.037818    1.457781
     13          1           0       -0.410822   -2.487619    0.382846
     14          6           0       -0.404603    1.415821    0.507077
     15          1           0       -0.319108    2.490862    0.412815
     16          1           0       -0.096130    1.016146    1.461862
 ---------------------------------------------------------------------
 Rotational constants (GHZ):           4.4116842           3.5962281           2.3434061
 Leave Link  202 at Mon Oct  6 14:26:43 2025, MaxMem=   104857600 cpu:               0.0 elap:               0.0
 (Enter /home/zhouoh/g16/l301.exe)
 Standard basis: STO-3G (5D, 7F)
 Ernie: Thresh=  0.10000D-02 Tol=  0.10000D-05 Strict=F.
 There are    40 symmetry adapted cartesian basis functions of A   symmetry.
 There are    40 symmetry adapted basis functions of A   symmetry.
    40 basis functions,   120 primitive gaussians,    40 cartesian basis functions
    23 alpha electrons       23 beta electrons
       nuclear repulsion energy       226.6785369104 Hartrees.
 IExCor=    0 DFT=F Ex=HF Corr=None ExCW=0 ScaHFX=  1.000000
 ScaDFX=  1.000000  1.000000  1.000000  1.000000 ScalE2=  1.000000  1.000000
 IRadAn=      5 IRanWt=     -1 IRanGd=            0 ICorTp=0 IEmpDi=  4
 NAtoms=   16 NActive=   16 NUniq=   16 SFac= 1.00D+00 NAtFMM=   60 NAOKFM=F Big=F
 Integral buffers will be    131072 words long.
 Raffenetti 1 integral format.
 Two-electron integral symmetry is turned on.
 Leave Link  301 at Mon Oct  6 14:26:43 2025, MaxMem=   104857600 cpu:               0.0 elap:               0.0
 (Enter /home/zhouoh/g16/l402.exe)
 External calculation of energy and first derivatives.
 Running external command "python ../GauUMA_client.py R"
         input file       "/home/zhouoh/scratch/Gau-2816605.EIn"
         output file      "/home/zhouoh/scratch/Gau-2816605.EOu"
         message file     "/home/zhouoh/scratch/Gau-2816605.EMs"
         fchk file        "/home/zhouoh/scratch/Gau-2816605.EFC"
         mat. el file     "/home/zhouoh/scratch/Gau-2816605.EUF"
Sent job to server.
Received result from server:
SCF Done:  E(UMA) =  -234.49385792725283     A.U.
 Recovered energy= -234.493857927     dipole=      0.000000000000      0.000000000000      0.000000000000
 Energy=    -234.493858     NIter=   0.
 Dipole moment=       0.000000       0.000000       0.000000
 Leave Link  402 at Mon Oct  6 14:26:44 2025, MaxMem=   104857600 cpu:               0.0 elap:               0.1
 (Enter /home/zhouoh/g16/l716.exe)
 Dipole        = 0.00000000D+00 0.00000000D+00 0.00000000D+00
 ***** Axes restored to original set *****
 -------------------------------------------------------------------
 Center     Atomic                   Forces (Hartrees/Bohr)
 Number     Number              X              Y              Z
 -------------------------------------------------------------------
      1        6           0.000507807    0.000065290   -0.000689459
      2        6          -0.000425570    0.000002434    0.000677218
      3        1           0.000034916   -0.000054074    0.000045156
      4        1          -0.000027290   -0.000042921   -0.000042973
      5        6          -0.000269084   -0.000037227   -0.000028601
      6        1          -0.000162380    0.000030462   -0.000062049
      7        1           0.000162081   -0.000041377    0.000053723
      8        6           0.000574042    0.000191081    0.000338254
      9        1          -0.000157671   -0.000094221   -0.000089273
     10        1          -0.000241817    0.000147719   -0.000168631
     11        6          -0.000126585   -0.000076779    0.000227631
     12        1           0.000058171    0.000016492    0.000092248
     13        1          -0.000005821    0.000015455   -0.000034000
     14        6          -0.000175944   -0.000045349   -0.000417022
     15        1          -0.000028858    0.000018002    0.000116142
     16        1           0.000284003   -0.000094988   -0.000018366
 -------------------------------------------------------------------
 Cartesian Forces:  Max     0.000689459 RMS     0.000230681
 Leave Link  716 at Mon Oct  6 14:26:44 2025, MaxMem=   104857600 cpu:               0.0 elap:               0.0
 (Enter /home/zhouoh/g16/l103.exe)

 GradGradGradGradGradGradGradGradGradGradGradGradGradGradGradGradGradGrad
 Berny optimization.
 FormGI is forming the generalized inverse of G from B-inverse, IUseBI=4.
 Internal  Forces:  Max     0.000354391 RMS     0.000086589
 Search for a saddle point.
 Step number  25 out of a maximum of  100
 All quantities printed in internal units (Hartrees-Bohrs-Radians)
 Swapping is turned off.
 Update second derivatives using D2CorX and points    1    4    5    6    7
                                                      8    9   10   11   13
                                                     14   15   16   17   18
                                                     19   20   21   22   23
                                                     24   25
 ITU=  0  0  0  0  0  0  0  0  0  0  0  0  0  0  0  0  0  0  0  0
 ITU=  0  0  0  0  0
     Eigenvalues ---   -0.03938   0.00155   0.00684   0.00877   0.01093
     Eigenvalues ---    0.01187   0.01404   0.01712   0.01817   0.02061
     Eigenvalues ---    0.02214   0.02264   0.02417   0.02561   0.02777
     Eigenvalues ---    0.03291   0.03991   0.04310   0.04664   0.04903
     Eigenvalues ---    0.05226   0.05405   0.05894   0.06201   0.09150
     Eigenvalues ---    0.11722   0.11898   0.17688   0.30441   0.30802
     Eigenvalues ---    0.32550   0.33550   0.33999   0.34834   0.34871
     Eigenvalues ---    0.35413   0.35503   0.35842   0.36072   0.43739
     Eigenvalues ---    0.44039   0.48891
 Eigenvectors required to have negative eigenvalues:
                          R9        R13       D20       D6        D24
   1                    0.55220   0.53351   0.16902  -0.16094  -0.16048
                          D13       D9        D16       A27       D40
   1                    0.15309  -0.14585   0.13289   0.13090  -0.12796
 RFO step:  Lambda0=7.355132183D-07 Lambda=-2.93436282D-05.
 Linear search not attempted -- option 19 set.
 Iteration  1 RMS(Cart)=  0.00792562 RMS(Int)=  0.00005947
 Iteration  2 RMS(Cart)=  0.00005360 RMS(Int)=  0.00002280
 Iteration  3 RMS(Cart)=  0.00000000 RMS(Int)=  0.00002280
 ITry= 1 IFail=0 DXMaxC= 3.01D-02 DCOld= 1.00D+10 DXMaxT= 3.00D-01 DXLimC= 3.00D+00 Rises=F
 Variable       Old X    -DE/DX   Delta X   Delta X   Delta X     New X
                                 (Linear)    (Quad)   (Total)
    R1        2.64992   0.00001   0.00000  -0.00057  -0.00056   2.64936
    R2        2.04868  -0.00001   0.00000   0.00008   0.00008   2.04877
    R3        2.59347  -0.00035   0.00000   0.00009   0.00009   2.59355
    R4        2.04921   0.00000   0.00000  -0.00009  -0.00009   2.04912
    R5        2.59311   0.00027   0.00000   0.00051   0.00051   2.59362
    R6        2.04487   0.00001   0.00000  -0.00007  -0.00008   2.04479
    R7        2.04010   0.00001   0.00000   0.00026   0.00026   2.04037
    R8        2.60239  -0.00009   0.00000   0.00019   0.00018   2.60257
    R9        4.21978  -0.00006   0.00000  -0.02154  -0.02155   4.19824
   R10        4.45564  -0.00011   0.00000  -0.01398  -0.01397   4.44167
   R11        2.04095  -0.00001   0.00000  -0.00029  -0.00029   2.04066
   R12        2.04472  -0.00003   0.00000  -0.00031  -0.00030   2.04443
   R13        4.18488   0.00020   0.00000   0.01406   0.01402   4.19891
   R14        4.45604  -0.00009   0.00000  -0.02234  -0.02232   4.43371
   R15        2.04153  -0.00008   0.00000  -0.00006  -0.00006   2.04147
   R16        2.04602   0.00001   0.00000   0.00008   0.00008   2.04610
   R17        2.04572  -0.00001   0.00000   0.00003   0.00003   2.04575
   R18        2.04100   0.00009   0.00000  -0.00008  -0.00006   2.04094
    A1        2.06661  -0.00022   0.00000  -0.00106  -0.00106   2.06555
    A2        2.11565   0.00035   0.00000   0.00099   0.00099   2.11664
    A3        2.07710  -0.00013   0.00000  -0.00051  -0.00050   2.07660
    A4        2.06326   0.00022   0.00000   0.00097   0.00097   2.06422
    A5        2.11874  -0.00035   0.00000  -0.00038  -0.00039   2.11836
    A6        2.07557   0.00014   0.00000  -0.00006  -0.00006   2.07551
    A7        2.01579  -0.00000   0.00000  -0.00106  -0.00105   2.01473
    A8        2.09048   0.00003   0.00000  -0.00124  -0.00123   2.08925
    A9        1.59263  -0.00006   0.00000  -0.00575  -0.00576   1.58688
   A10        2.09627  -0.00005   0.00000  -0.00118  -0.00122   2.09505
   A11        1.58193   0.00009   0.00000   0.01151   0.01153   1.59346
   A12        1.90161   0.00000   0.00000   0.00238   0.00234   1.90395
   A13        1.37692   0.00004   0.00000   0.00110   0.00106   1.37799
   A14        2.09413   0.00006   0.00000   0.00311   0.00310   2.09723
   A15        2.09123  -0.00003   0.00000  -0.00073  -0.00071   2.09052
   A16        1.90439   0.00000   0.00000  -0.00111  -0.00118   1.90320
   A17        2.01200   0.00002   0.00000   0.00214   0.00209   2.01409
   A18        1.60295  -0.00007   0.00000  -0.00604  -0.00599   1.59695
   A19        1.58035  -0.00004   0.00000  -0.00316  -0.00316   1.57719
   A20        1.36868   0.00008   0.00000   0.00955   0.00950   1.37818
   A21        1.76769  -0.00002   0.00000   0.00211   0.00211   1.76981
   A22        2.10771  -0.00002   0.00000  -0.00080  -0.00082   2.10689
   A23        2.09491   0.00003   0.00000  -0.00056  -0.00057   2.09434
   A24        1.48648   0.00003   0.00000   0.00469   0.00466   1.49115
   A25        1.80942  -0.00000   0.00000  -0.00106  -0.00104   1.80838
   A26        2.00674  -0.00001   0.00000  -0.00095  -0.00096   2.00578
   A27        1.47966  -0.00002   0.00000  -0.00904  -0.00904   1.47063
   A28        1.76547   0.00001   0.00000  -0.00014  -0.00013   1.76534
   A29        2.09563  -0.00005   0.00000  -0.00103  -0.00104   2.09459
   A30        2.10488   0.00007   0.00000   0.00317   0.00316   2.10804
   A31        1.80977   0.00001   0.00000   0.00149   0.00149   1.81126
   A32        1.49462  -0.00008   0.00000  -0.00728  -0.00731   1.48732
   A33        2.00634   0.00001   0.00000   0.00034   0.00035   2.00670
   A34        1.45153   0.00008   0.00000   0.01392   0.01392   1.46545
    D1       -0.00041   0.00000   0.00000   0.00071   0.00072   0.00030
    D2       -2.89811  -0.00001   0.00000  -0.00174  -0.00171  -2.89983
    D3        2.90605  -0.00000   0.00000  -0.00212  -0.00212   2.90393
    D4        0.00835  -0.00002   0.00000  -0.00457  -0.00455   0.00380
    D5       -1.03186  -0.00002   0.00000  -0.00241  -0.00237  -1.03423
    D6        0.55775   0.00000   0.00000   0.00422   0.00423   0.56198
    D7       -3.00731  -0.00002   0.00000  -0.00234  -0.00233  -3.00964
    D8        1.87323  -0.00004   0.00000  -0.00533  -0.00530   1.86792
    D9       -2.82035  -0.00001   0.00000   0.00131   0.00130  -2.81905
   D10       -0.10223  -0.00003   0.00000  -0.00526  -0.00525  -0.10748
   D11        1.03916  -0.00002   0.00000  -0.00524  -0.00527   1.03389
   D12        3.01379  -0.00002   0.00000  -0.00396  -0.00399   3.00979
   D13       -0.55813   0.00006   0.00000   0.00278   0.00277  -0.55536
   D14       -1.85687  -0.00004   0.00000  -0.00784  -0.00786  -1.86472
   D15        0.11776  -0.00005   0.00000  -0.00657  -0.00658   0.11118
   D16        2.82902   0.00003   0.00000   0.00017   0.00019   2.82921
   D17       -1.96453  -0.00007   0.00000  -0.01456  -0.01458  -1.97911
   D18        1.59698  -0.00002   0.00000  -0.00572  -0.00575   1.59123
   D19       -0.37098   0.00001   0.00000  -0.00459  -0.00458  -0.37556
   D20        2.70705   0.00007   0.00000  -0.00366  -0.00364   2.70341
   D21        0.01888  -0.00004   0.00000  -0.01549  -0.01550   0.00338
   D22       -1.76377   0.00002   0.00000  -0.01046  -0.01044  -1.77421
   D23        0.00483   0.00011   0.00000   0.00556   0.00555   0.01038
   D24       -2.68334  -0.00001   0.00000  -0.00626  -0.00630  -2.68964
   D25        1.81720   0.00006   0.00000  -0.00124  -0.00125   1.81595
   D26       -1.78036   0.00001   0.00000  -0.00987  -0.00987  -1.79023
   D27        1.81466  -0.00010   0.00000  -0.02169  -0.02173   1.79293
   D28        0.03201  -0.00004   0.00000  -0.01666  -0.01667   0.01534
   D29        2.99532  -0.00002   0.00000   0.01064   0.01065   3.00597
   D30        0.89333   0.00000   0.00000   0.01057   0.01057   0.90390
   D31       -1.10604   0.00000   0.00000   0.01050   0.01051  -1.09553
   D32       -1.27166  -0.00001   0.00000   0.00979   0.00977  -1.26190
   D33        2.90953   0.00000   0.00000   0.00972   0.00969   2.91922
   D34        0.91016   0.00001   0.00000   0.00965   0.00963   0.91979
   D35        0.86274  -0.00002   0.00000   0.01382   0.01383   0.87657
   D36       -1.23926  -0.00001   0.00000   0.01375   0.01376  -1.22550
   D37        3.04456  -0.00000   0.00000   0.01368   0.01370   3.05826
   D38        0.85151   0.00001   0.00000   0.00876   0.00874   0.86025
   D39       -1.57567   0.00002   0.00000  -0.00155  -0.00154  -1.57721
   D40        1.99893  -0.00010   0.00000  -0.01312  -0.01316   1.98577
   D41        0.38806  -0.00001   0.00000  -0.00501  -0.00508   0.38298
   D42       -0.91861  -0.00003   0.00000   0.01622   0.01621  -0.90241
   D43       -3.10041   0.00002   0.00000   0.01681   0.01680  -3.08361
   D44        1.18193   0.00003   0.00000   0.01811   0.01809   1.20002
   D45        1.22304   0.00001   0.00000   0.01671   0.01670   1.23973
   D46       -0.95876   0.00006   0.00000   0.01730   0.01729  -0.94147
   D47       -2.95960   0.00007   0.00000   0.01860   0.01859  -2.94102
   D48       -3.04755   0.00002   0.00000   0.01857   0.01854  -3.02900
   D49        1.05384   0.00007   0.00000   0.01916   0.01914   1.07298
   D50       -0.94700   0.00008   0.00000   0.02046   0.02043  -0.92657
   D51       -0.89687   0.00003   0.00000   0.01315   0.01320  -0.88367
   D52       -2.11711  -0.00001   0.00000  -0.01003  -0.01002  -2.12713
   D53       -0.36719  -0.00001   0.00000  -0.00483  -0.00484  -0.37203
   D54        1.42780  -0.00000   0.00000  -0.00387  -0.00387   1.42393
   D55        2.13655  -0.00006   0.00000  -0.00900  -0.00907   2.12748
   D56        0.38450  -0.00002   0.00000  -0.00465  -0.00470   0.37980
   D57       -1.41460  -0.00000   0.00000  -0.00296  -0.00300  -1.41759
         Item               Value     Threshold  Converged?
 Maximum Force            0.000354     0.000450     YES
 RMS     Force            0.000087     0.000300     YES
 Maximum Displacement     0.030141     0.001800     NO 
 RMS     Displacement     0.007920     0.001200     NO 
 Predicted change in Energy=-1.443226D-05
 GradGradGradGradGradGradGradGradGradGradGradGradGradGradGradGradGradGrad

 Leave Link  103 at Mon Oct  6 14:26:44 2025, MaxMem=   104857600 cpu:               0.0 elap:               0.0
 (Enter /home/zhouoh/g16/l202.exe)
                          Input orientation:                          
 ---------------------------------------------------------------------
 Center     Atomic      Atomic             Coordinates (Angstroms)
 Number     Number       Type             X           Y           Z
 ---------------------------------------------------------------------
      1          6           0       -1.292632    0.699837    0.304533
      2          6           0       -1.292906   -0.702132    0.298797
      3          1           0       -1.816515    1.211448    1.104038
      4          1           0       -1.817695   -1.218887    1.094640
      5          6           0        1.538898    0.688647    0.220445
      6          1           0        2.041905    1.216813   -0.578853
      7          1           0        1.434131    1.236987    1.144639
      8          6           0        1.534678   -0.688522    0.231664
      9          1           0        1.417090   -1.223185    1.162484
     10          1           0        2.036625   -1.233799   -0.556467
     11          6           0       -0.435385    1.415428   -0.493386
     12          1           0       -0.130613    1.034063   -1.457086
     13          1           0       -0.365486    2.490493   -0.385246
     14          6           0       -0.433780   -1.413558   -0.500885
     15          1           0       -0.365987   -2.489310   -0.400338
     16          1           0       -0.119327   -1.024296   -1.457984
 ---------------------------------------------------------------------
                    Distance matrix (angstroms):
                    1          2          3          4          5
     1  C    0.000000
     2  C    1.401980   0.000000
     3  H    1.084161   2.141113   0.000000
     4  H    2.140435   1.084346   2.430354   0.000000
     5  C    2.832800   3.155871   3.508967   3.958487   0.000000
     6  H    3.488090   3.946338   4.209459   4.861041   1.082059
     7  H    2.903368   3.451429   3.250999   4.075315   1.079717
     8  C    3.150640   2.828413   3.949862   3.502059   1.377222
     9  H    3.431717   2.891631   4.048092   3.235499   2.134802
    10  H    3.945152   3.478494   4.856253   4.193109   2.132399
    11  C    1.372450   2.418049   2.121530   3.372273   2.221611
    12  H    2.136656   2.729180   3.071332   3.799123   2.391796
    13  H    2.131161   3.394242   2.441189   4.249527   2.690760
    14  C    2.419248   1.372485   3.373186   2.121042   2.971707
    15  H    3.395022   2.131191   4.250034   2.440572   3.756777
    16  H    2.730521   2.137138   3.800389   3.072168   2.915649
                    6          7          8          9         10
     6  H    0.000000
     7  H    1.827627   0.000000
     8  C    2.131788   2.133359   0.000000
     9  H    3.062064   2.460296   1.079869   0.000000
    10  H    2.450720   3.059664   1.081863   1.827219   0.000000
    11  C    2.486708   2.491998   2.972112   3.624341   3.623978
    12  H    2.350431   3.042791   2.931274   3.788496   3.263623
    13  H    2.730435   2.674032   3.754643   4.400506   4.435066
    14  C    3.613024   3.636239   2.221966   2.495748   2.477560
    15  H    4.423252   4.417315   2.693471   2.687908   2.715369
    16  H    3.235176   3.781571   2.388176   3.044173   2.346221
                   11         12         13         14         15
    11  C    0.000000
    12  H    1.080298   0.000000
    13  H    1.082748   1.823512   0.000000
    14  C    2.828997   2.645199   3.906360   0.000000
    15  H    3.906463   3.685956   4.979826   1.082566   0.000000
    16  H    2.642461   2.058390   3.683083   1.080021   1.823656
                   16
    16  H    0.000000
 Stoichiometry    C6H10
 Framework group  C1[X(C6H10)]
 Deg. of freedom    42
 Full point group                 C1      NOp   1
 RotChk:  IX=3 Diff= 2.71D-02
 Largest Abelian subgroup         C1      NOp   1
 Largest concise Abelian subgroup C1      NOp   1
                         Standard orientation:                         
 ---------------------------------------------------------------------
 Center     Atomic      Atomic             Coordinates (Angstroms)
 Number     Number       Type             X           Y           Z
 ---------------------------------------------------------------------
      1          6           0       -1.292587   -0.704190   -0.296381
      2          6           0       -1.297257    0.697775   -0.291763
      3          1           0       -1.819038   -1.218103   -1.092715
      4          1           0       -1.827843    1.212224   -1.085253
      5          6           0        1.539296   -0.684005   -0.227165
      6          1           0        2.048155   -1.209929    0.569902
      7          1           0        1.431414   -1.233425   -1.150359
      8          6           0        1.530669    0.693136   -0.239462
      9          1           0        1.406512    1.226665   -1.170080
     10          1           0        2.035020    1.240635    0.545587
     11          6           0       -0.428910   -1.416425    0.497599
     12          1           0       -0.120292   -1.033314    1.459381
     13          1           0       -0.356186   -2.491351    0.389953
     14          6           0       -0.436198    1.412558    0.502830
     15          1           0       -0.372329    2.488436    0.401069
     16          1           0       -0.115499    1.025070    1.458576
 ---------------------------------------------------------------------
 Rotational constants (GHZ):           4.4119889           3.5995379           2.3439954
 Leave Link  202 at Mon Oct  6 14:26:44 2025, MaxMem=   104857600 cpu:               0.0 elap:               0.0
 (Enter /home/zhouoh/g16/l301.exe)
 Standard basis: STO-3G (5D, 7F)
 Ernie: Thresh=  0.10000D-02 Tol=  0.10000D-05 Strict=F.
 There are    40 symmetry adapted cartesian basis functions of A   symmetry.
 There are    40 symmetry adapted basis functions of A   symmetry.
    40 basis functions,   120 primitive gaussians,    40 cartesian basis functions
    23 alpha electrons       23 beta electrons
       nuclear repulsion energy       226.7106753314 Hartrees.
 IExCor=    0 DFT=F Ex=HF Corr=None ExCW=0 ScaHFX=  1.000000
 ScaDFX=  1.000000  1.000000  1.000000  1.000000 ScalE2=  1.000000  1.000000
 IRadAn=      5 IRanWt=     -1 IRanGd=            0 ICorTp=0 IEmpDi=  4
 NAtoms=   16 NActive=   16 NUniq=   16 SFac= 1.00D+00 NAtFMM=   60 NAOKFM=F Big=F
 Integral buffers will be    131072 words long.
 Raffenetti 1 integral format.
 Two-electron integral symmetry is turned on.
 Leave Link  301 at Mon Oct  6 14:26:44 2025, MaxMem=   104857600 cpu:               0.0 elap:               0.0
 (Enter /home/zhouoh/g16/l402.exe)
 External calculation of energy and first derivatives.
 Running external command "python ../GauUMA_client.py R"
         input file       "/home/zhouoh/scratch/Gau-2816605.EIn"
         output file      "/home/zhouoh/scratch/Gau-2816605.EOu"
         message file     "/home/zhouoh/scratch/Gau-2816605.EMs"
         fchk file        "/home/zhouoh/scratch/Gau-2816605.EFC"
         mat. el file     "/home/zhouoh/scratch/Gau-2816605.EUF"
Sent job to server.
Received result from server:
SCF Done:  E(UMA) =  -234.49387246732906     A.U.
 Recovered energy= -234.493872467     dipole=      0.000000000000      0.000000000000      0.000000000000
 Energy=    -234.493872     NIter=   0.
 Dipole moment=       0.000000       0.000000       0.000000
 Leave Link  402 at Mon Oct  6 14:26:44 2025, MaxMem=   104857600 cpu:               0.0 elap:               0.1
 (Enter /home/zhouoh/g16/l716.exe)
 Dipole        = 0.00000000D+00 0.00000000D+00 0.00000000D+00
 ***** Axes restored to original set *****
 -------------------------------------------------------------------
 Center     Atomic                   Forces (Hartrees/Bohr)
 Number     Number              X              Y              Z
 -------------------------------------------------------------------
      1        6           0.000029413   -0.000008623   -0.000040218
      2        6          -0.000030745   -0.000001062    0.000035129
      3        1          -0.000005454   -0.000002079   -0.000000505
      4        1           0.000001244   -0.000004131   -0.000001036
      5        6          -0.000009356   -0.000002339    0.000001122
      6        1          -0.000005760    0.000001313   -0.000003256
      7        1          -0.000003567    0.000001147    0.000002154
      8        6          -0.000004178   -0.000010115   -0.000016284
      9        1           0.000000215   -0.000002696   -0.000002908
     10        1           0.000016075    0.000002740    0.000002892
     11        6           0.000022185    0.000014624    0.000014515
     12        1           0.000018636    0.000000299    0.000020925
     13        1           0.000006111    0.000000305    0.000006834
     14        6          -0.000012753    0.000009745    0.000003125
     15        1          -0.000004808    0.000000580   -0.000003855
     16        1          -0.000017258    0.000000290   -0.000018633
 -------------------------------------------------------------------
 Cartesian Forces:  Max     0.000040218 RMS     0.000013199
 Leave Link  716 at Mon Oct  6 14:26:44 2025, MaxMem=   104857600 cpu:               0.0 elap:               0.0
 (Enter /home/zhouoh/g16/l103.exe)

 GradGradGradGradGradGradGradGradGradGradGradGradGradGradGradGradGradGrad
 Berny optimization.
 FormGI is forming the generalized inverse of G from B-inverse, IUseBI=4.
 Internal  Forces:  Max     0.000025762 RMS     0.000006393
 Search for a saddle point.
 Step number  26 out of a maximum of  100
 All quantities printed in internal units (Hartrees-Bohrs-Radians)
 Swapping is turned off.
 Update second derivatives using D2CorX and points    1    4    5    6    7
                                                      8    9   10   11   13
                                                     14   15   16   17   18
                                                     19   20   21   22   23
                                                     24   25   26
 ITU=  0  0  0  0  0  0  0  0  0  0  0  0  0  0  0  0  0  0  0  0
 ITU=  0  0  0  0  0  0
     Eigenvalues ---   -0.03970   0.00138   0.00651   0.00826   0.01160
     Eigenvalues ---    0.01379   0.01694   0.01791   0.02023   0.02201
     Eigenvalues ---    0.02262   0.02379   0.02454   0.02699   0.02974
     Eigenvalues ---    0.03634   0.03994   0.04372   0.04667   0.04897
     Eigenvalues ---    0.05228   0.05413   0.05878   0.06173   0.09148
     Eigenvalues ---    0.11723   0.11897   0.18290   0.30474   0.30806
     Eigenvalues ---    0.32557   0.33564   0.34011   0.34836   0.34871
     Eigenvalues ---    0.35416   0.35503   0.35843   0.36071   0.43736
     Eigenvalues ---    0.44119   0.48907
 Eigenvectors required to have negative eigenvalues:
                          R9        R13       D20       D24       D13
   1                    0.55188   0.53236   0.16655  -0.16294   0.15991
                          D6        D9        D16       D40       R10
   1                   -0.15666  -0.14293   0.13881  -0.12681   0.12483
 RFO step:  Lambda0=2.005255961D-09 Lambda=-1.49973678D-07.
 Linear search not attempted -- option 19 set.
 Iteration  1 RMS(Cart)=  0.00067706 RMS(Int)=  0.00000038
 Iteration  2 RMS(Cart)=  0.00000035 RMS(Int)=  0.00000013
 ITry= 1 IFail=0 DXMaxC= 2.06D-03 DCOld= 1.00D+10 DXMaxT= 3.00D-01 DXLimC= 3.00D+00 Rises=F
 Variable       Old X    -DE/DX   Delta X   Delta X   Delta X     New X
                                 (Linear)    (Quad)   (Total)
    R1        2.64936   0.00000   0.00000   0.00003   0.00003   2.64939
    R2        2.04877  -0.00000   0.00000  -0.00000  -0.00000   2.04877
    R3        2.59355  -0.00000   0.00000   0.00007   0.00007   2.59362
    R4        2.04912   0.00000   0.00000   0.00001   0.00001   2.04913
    R5        2.59362   0.00001   0.00000  -0.00012  -0.00012   2.59351
    R6        2.04479   0.00000   0.00000   0.00002   0.00002   2.04481
    R7        2.04037   0.00000   0.00000   0.00002   0.00002   2.04038
    R8        2.60257   0.00000   0.00000  -0.00003  -0.00003   2.60255
    R9        4.19824  -0.00002   0.00000  -0.00157  -0.00157   4.19667
   R10        4.44167  -0.00002   0.00000  -0.00039  -0.00039   4.44128
   R11        2.04066  -0.00000   0.00000  -0.00001  -0.00001   2.04065
   R12        2.04443  -0.00000   0.00000   0.00000   0.00000   2.04443
   R13        4.19891   0.00001   0.00000   0.00194   0.00194   4.20084
   R14        4.43371   0.00002   0.00000   0.00111   0.00111   4.43483
   R15        2.04147  -0.00001   0.00000  -0.00002  -0.00002   2.04145
   R16        2.04610  -0.00000   0.00000   0.00000   0.00000   2.04610
   R17        2.04575   0.00000   0.00000  -0.00000  -0.00000   2.04575
   R18        2.04094   0.00001   0.00000   0.00002   0.00002   2.04096
    A1        2.06555  -0.00002   0.00000   0.00001   0.00001   2.06556
    A2        2.11664   0.00003   0.00000  -0.00007  -0.00007   2.11656
    A3        2.07660  -0.00001   0.00000   0.00002   0.00002   2.07662
    A4        2.06422   0.00002   0.00000  -0.00004  -0.00004   2.06418
    A5        2.11836  -0.00002   0.00000   0.00011   0.00011   2.11847
    A6        2.07551   0.00001   0.00000  -0.00002  -0.00002   2.07549
    A7        2.01473  -0.00000   0.00000  -0.00011  -0.00011   2.01462
    A8        2.08925   0.00000   0.00000  -0.00006  -0.00006   2.08919
    A9        1.58688   0.00000   0.00000  -0.00006  -0.00006   1.58682
   A10        2.09505   0.00000   0.00000  -0.00003  -0.00003   2.09502
   A11        1.59346   0.00000   0.00000   0.00035   0.00035   1.59381
   A12        1.90395  -0.00000   0.00000   0.00015   0.00015   1.90410
   A13        1.37799  -0.00000   0.00000  -0.00041  -0.00041   1.37758
   A14        2.09723  -0.00000   0.00000   0.00002   0.00002   2.09725
   A15        2.09052  -0.00000   0.00000   0.00010   0.00010   2.09062
   A16        1.90320   0.00000   0.00000  -0.00013  -0.00013   1.90307
   A17        2.01409   0.00000   0.00000   0.00009   0.00009   2.01419
   A18        1.59695  -0.00001   0.00000  -0.00068  -0.00068   1.59628
   A19        1.57719   0.00001   0.00000   0.00033   0.00033   1.57753
   A20        1.37818  -0.00000   0.00000   0.00013   0.00013   1.37831
   A21        1.76981   0.00000   0.00000   0.00030   0.00030   1.77011
   A22        2.10689  -0.00000   0.00000  -0.00006  -0.00006   2.10683
   A23        2.09434   0.00000   0.00000  -0.00007  -0.00007   2.09427
   A24        1.49115  -0.00000   0.00000   0.00014   0.00014   1.49128
   A25        1.80838   0.00000   0.00000  -0.00008  -0.00008   1.80831
   A26        2.00578   0.00000   0.00000  -0.00002  -0.00002   2.00576
   A27        1.47063   0.00000   0.00000  -0.00060  -0.00060   1.47002
   A28        1.76534   0.00000   0.00000  -0.00022  -0.00022   1.76511
   A29        2.09459  -0.00000   0.00000   0.00012   0.00012   2.09472
   A30        2.10804   0.00000   0.00000  -0.00002  -0.00002   2.10802
   A31        1.81126  -0.00000   0.00000   0.00004   0.00004   1.81130
   A32        1.48732  -0.00000   0.00000  -0.00026  -0.00026   1.48706
   A33        2.00670  -0.00000   0.00000   0.00007   0.00007   2.00676
   A34        1.46545   0.00000   0.00000   0.00070   0.00070   1.46615
    D1        0.00030  -0.00001   0.00000  -0.00042  -0.00042  -0.00011
    D2       -2.89983  -0.00001   0.00000  -0.00068  -0.00068  -2.90051
    D3        2.90393  -0.00001   0.00000  -0.00064  -0.00064   2.90329
    D4        0.00380  -0.00001   0.00000  -0.00090  -0.00090   0.00290
    D5       -1.03423   0.00000   0.00000  -0.00004  -0.00004  -1.03427
    D6        0.56198   0.00000   0.00000   0.00029   0.00029   0.56227
    D7       -3.00964   0.00000   0.00000  -0.00012  -0.00012  -3.00976
    D8        1.86792   0.00000   0.00000  -0.00026  -0.00026   1.86766
    D9       -2.81905  -0.00000   0.00000   0.00007   0.00007  -2.81898
   D10       -0.10748  -0.00000   0.00000  -0.00035  -0.00035  -0.10783
   D11        1.03389  -0.00000   0.00000  -0.00012  -0.00012   1.03377
   D12        3.00979  -0.00000   0.00000  -0.00017  -0.00017   3.00963
   D13       -0.55536  -0.00000   0.00000   0.00032   0.00032  -0.55503
   D14       -1.86472  -0.00000   0.00000  -0.00038  -0.00038  -1.86511
   D15        0.11118  -0.00000   0.00000  -0.00043  -0.00043   0.11075
   D16        2.82921  -0.00000   0.00000   0.00006   0.00006   2.82927
   D17       -1.97911  -0.00000   0.00000  -0.00080  -0.00080  -1.97991
   D18        1.59123  -0.00000   0.00000  -0.00032  -0.00032   1.59091
   D19       -0.37556  -0.00000   0.00000  -0.00044  -0.00044  -0.37601
   D20        2.70341  -0.00000   0.00000  -0.00051  -0.00051   2.70290
   D21        0.00338  -0.00000   0.00000  -0.00107  -0.00107   0.00232
   D22       -1.77421  -0.00001   0.00000  -0.00144  -0.00144  -1.77565
   D23        0.01038  -0.00001   0.00000   0.00002   0.00002   0.01040
   D24       -2.68964  -0.00000   0.00000  -0.00054  -0.00054  -2.69018
   D25        1.81595  -0.00001   0.00000  -0.00091  -0.00091   1.81503
   D26       -1.79023  -0.00000   0.00000  -0.00051  -0.00051  -1.79074
   D27        1.79293  -0.00000   0.00000  -0.00107  -0.00107   1.79187
   D28        0.01534  -0.00001   0.00000  -0.00144  -0.00144   0.01390
   D29        3.00597  -0.00000   0.00000   0.00119   0.00119   3.00716
   D30        0.90390   0.00000   0.00000   0.00122   0.00122   0.90512
   D31       -1.09553   0.00000   0.00000   0.00121   0.00121  -1.09431
   D32       -1.26190  -0.00001   0.00000   0.00109   0.00109  -1.26081
   D33        2.91922  -0.00000   0.00000   0.00112   0.00112   2.92034
   D34        0.91979  -0.00000   0.00000   0.00111   0.00111   0.92090
   D35        0.87657  -0.00000   0.00000   0.00124   0.00124   0.87781
   D36       -1.22550   0.00000   0.00000   0.00127   0.00127  -1.22423
   D37        3.05826  -0.00000   0.00000   0.00126   0.00126   3.05953
   D38        0.86025   0.00000   0.00000   0.00096   0.00096   0.86121
   D39       -1.57721  -0.00001   0.00000  -0.00051  -0.00051  -1.57772
   D40        1.98577  -0.00000   0.00000  -0.00102  -0.00102   1.98475
   D41        0.38298   0.00000   0.00000  -0.00044  -0.00044   0.38255
   D42       -0.90241   0.00000   0.00000   0.00134   0.00134  -0.90107
   D43       -3.08361   0.00000   0.00000   0.00128   0.00128  -3.08234
   D44        1.20002   0.00000   0.00000   0.00127   0.00127   1.20129
   D45        1.23973  -0.00000   0.00000   0.00103   0.00103   1.24077
   D46       -0.94147  -0.00000   0.00000   0.00098   0.00098  -0.94049
   D47       -2.94102  -0.00000   0.00000   0.00097   0.00097  -2.94005
   D48       -3.02900   0.00000   0.00000   0.00112   0.00112  -3.02788
   D49        1.07298   0.00000   0.00000   0.00107   0.00107   1.07405
   D50       -0.92657   0.00000   0.00000   0.00106   0.00106  -0.92551
   D51       -0.88367   0.00000   0.00000   0.00086   0.00086  -0.88281
   D52       -2.12713  -0.00000   0.00000  -0.00086  -0.00086  -2.12800
   D53       -0.37203  -0.00000   0.00000  -0.00044  -0.00044  -0.37246
   D54        1.42393  -0.00000   0.00000  -0.00046  -0.00046   1.42347
   D55        2.12748   0.00000   0.00000  -0.00086  -0.00086   2.12662
   D56        0.37980  -0.00000   0.00000  -0.00045  -0.00045   0.37935
   D57       -1.41759  -0.00000   0.00000  -0.00037  -0.00037  -1.41797
         Item               Value     Threshold  Converged?
 Maximum Force            0.000026     0.000450     YES
 RMS     Force            0.000006     0.000300     YES
 Maximum Displacement     0.002065     0.001800     NO 
 RMS     Displacement     0.000677     0.001200     YES
 Predicted change in Energy=-7.398384D-08
 GradGradGradGradGradGradGradGradGradGradGradGradGradGradGradGradGradGrad

 Leave Link  103 at Mon Oct  6 14:26:44 2025, MaxMem=   104857600 cpu:               0.0 elap:               0.0
 (Enter /home/zhouoh/g16/l202.exe)
                          Input orientation:                          
 ---------------------------------------------------------------------
 Center     Atomic      Atomic             Coordinates (Angstroms)
 Number     Number       Type             X           Y           Z
 ---------------------------------------------------------------------
      1          6           0       -1.292584    0.699900    0.304325
      2          6           0       -1.293026   -0.702088    0.299008
      3          1           0       -1.816592    1.211823    1.103546
      4          1           0       -1.817750   -1.218507    1.095121
      5          6           0        1.538576    0.688941    0.220872
      6          1           0        2.041819    1.217904   -0.577760
      7          1           0        1.433358    1.236559    1.145453
      8          6           0        1.535167   -0.688225    0.231142
      9          1           0        1.417752   -1.223612    1.161561
     10          1           0        2.037088   -1.232754   -0.557525
     11          6           0       -0.434823    1.415083   -0.493470
     12          1           0       -0.129923    1.033403   -1.456994
     13          1           0       -0.364921    2.490186   -0.385697
     14          6           0       -0.434436   -1.413955   -0.500753
     15          1           0       -0.366606   -2.489667   -0.399822
     16          1           0       -0.120100   -1.024964   -1.458013
 ---------------------------------------------------------------------
                    Distance matrix (angstroms):
                    1          2          3          4          5
     1  C    0.000000
     2  C    1.401998   0.000000
     3  H    1.084160   2.141135   0.000000
     4  H    2.140431   1.084353   2.430345   0.000000
     5  C    2.832411   3.155794   3.508514   3.958231   0.000000
     6  H    3.487785   3.946679   4.208819   4.861163   1.082067
     7  H    2.902802   3.450795   3.250314   4.074259   1.079725
     8  C    3.150940   2.829040   3.950387   3.502815   1.377209
     9  H    3.432299   2.892111   4.049160   3.236189   2.134796
    10  H    3.945206   3.479211   4.856538   4.194188   2.132446
    11  C    1.372487   2.418046   2.121571   3.372227   2.220782
    12  H    2.136644   2.729153   3.071327   3.799098   2.391188
    13  H    2.131152   3.394231   2.441188   4.249463   2.689928
    14  C    2.419288   1.372424   3.373253   2.120983   2.972489
    15  H    3.395084   2.131210   4.250130   2.440598   3.757463
    16  H    2.730515   2.137083   3.800379   3.072127   2.916733
                    6          7          8          9         10
     6  H    0.000000
     7  H    1.827576   0.000000
     8  C    2.131748   2.133337   0.000000
     9  H    3.061977   2.460274   1.079864   0.000000
    10  H    2.450746   3.059760   1.081865   1.827270   0.000000
    11  C    2.485907   2.491594   2.971503   3.624069   3.622911
    12  H    2.350224   3.042671   2.930244   3.787644   3.261969
    13  H    2.729100   2.673912   3.754081   4.400481   4.433898
    14  C    3.614478   3.636464   2.222991   2.496021   2.478807
    15  H    4.424732   4.417296   2.694447   2.687889   2.717065
    16  H    3.237159   3.782295   2.388838   3.044112   2.346809
                   11         12         13         14         15
    11  C    0.000000
    12  H    1.080288   0.000000
    13  H    1.082749   1.823491   0.000000
    14  C    2.829048   2.645125   3.906454   0.000000
    15  H    3.906469   3.685871   4.979873   1.082563   0.000000
    16  H    2.642579   2.058390   3.683215   1.080031   1.823701
                   16
    16  H    0.000000
 Stoichiometry    C6H10
 Framework group  C1[X(C6H10)]
 Deg. of freedom    42
 Full point group                 C1      NOp   1
 RotChk:  IX=3 Diff= 2.40D-03
 Largest Abelian subgroup         C1      NOp   1
 Largest concise Abelian subgroup C1      NOp   1
                         Standard orientation:                         
 ---------------------------------------------------------------------
 Center     Atomic      Atomic             Coordinates (Angstroms)
 Number     Number       Type             X           Y           Z
 ---------------------------------------------------------------------
      1          6           0       -1.291350   -0.706480   -0.296064
      2          6           0       -1.298559    0.695494   -0.292047
      3          1           0       -1.817069   -1.221697   -1.092038
      4          1           0       -1.829963    1.208606   -1.085866
      5          6           0        1.540123   -0.681732   -0.227532
      6          1           0        2.050119   -1.207490    0.568930
      7          1           0        1.432697   -1.230736   -1.151037
      8          6           0        1.529985    0.695391   -0.239064
      9          1           0        1.405083    1.229315   -1.169349
     10          1           0        2.033403    1.243096    0.546443
     11          6           0       -0.425947   -1.416739    0.497867
     12          1           0       -0.117835   -1.032667    1.459417
     13          1           0       -0.351403   -2.491593    0.390726
     14          6           0       -0.439234    1.412273    0.502518
     15          1           0       -0.377151    2.488204    0.400233
     16          1           0       -0.117984    1.025723    1.458471
 ---------------------------------------------------------------------
 Rotational constants (GHZ):           4.4119771           3.5992984           2.3438505
 Leave Link  202 at Mon Oct  6 14:26:44 2025, MaxMem=   104857600 cpu:               0.0 elap:               0.0
 (Enter /home/zhouoh/g16/l301.exe)
 Standard basis: STO-3G (5D, 7F)
 Ernie: Thresh=  0.10000D-02 Tol=  0.10000D-05 Strict=F.
 There are    40 symmetry adapted cartesian basis functions of A   symmetry.
 There are    40 symmetry adapted basis functions of A   symmetry.
    40 basis functions,   120 primitive gaussians,    40 cartesian basis functions
    23 alpha electrons       23 beta electrons
       nuclear repulsion energy       226.7077188919 Hartrees.
 IExCor=    0 DFT=F Ex=HF Corr=None ExCW=0 ScaHFX=  1.000000
 ScaDFX=  1.000000  1.000000  1.000000  1.000000 ScalE2=  1.000000  1.000000
 IRadAn=      5 IRanWt=     -1 IRanGd=            0 ICorTp=0 IEmpDi=  4
 NAtoms=   16 NActive=   16 NUniq=   16 SFac= 1.00D+00 NAtFMM=   60 NAOKFM=F Big=F
 Integral buffers will be    131072 words long.
 Raffenetti 1 integral format.
 Two-electron integral symmetry is turned on.
 Leave Link  301 at Mon Oct  6 14:26:44 2025, MaxMem=   104857600 cpu:               0.0 elap:               0.0
 (Enter /home/zhouoh/g16/l402.exe)
 External calculation of energy and first derivatives.
 Running external command "python ../GauUMA_client.py R"
         input file       "/home/zhouoh/scratch/Gau-2816605.EIn"
         output file      "/home/zhouoh/scratch/Gau-2816605.EOu"
         message file     "/home/zhouoh/scratch/Gau-2816605.EMs"
         fchk file        "/home/zhouoh/scratch/Gau-2816605.EFC"
         mat. el file     "/home/zhouoh/scratch/Gau-2816605.EUF"
Sent job to server.
Received result from server:
SCF Done:  E(UMA) =  -234.49387242352046     A.U.
 Recovered energy= -234.493872423     dipole=      0.000000000000      0.000000000000      0.000000000000
 Energy=    -234.493872     NIter=   0.
 Dipole moment=       0.000000       0.000000       0.000000
 Leave Link  402 at Mon Oct  6 14:26:44 2025, MaxMem=   104857600 cpu:               0.0 elap:               0.1
 (Enter /home/zhouoh/g16/l716.exe)
 Dipole        = 0.00000000D+00 0.00000000D+00 0.00000000D+00
 ***** Axes restored to original set *****
 -------------------------------------------------------------------
 Center     Atomic                   Forces (Hartrees/Bohr)
 Number     Number              X              Y              Z
 -------------------------------------------------------------------
      1        6           0.000056819   -0.000002143   -0.000038146
      2        6          -0.000053021   -0.000003808    0.000038667
      3        1          -0.000000663   -0.000002318    0.000001963
      4        1           0.000000215   -0.000002171   -0.000003161
      5        6           0.000025458   -0.000011181    0.000004488
      6        1          -0.000013809   -0.000001700   -0.000005383
      7        1          -0.000000045   -0.000004699    0.000003270
      8        6          -0.000018581   -0.000005238    0.000002341
      9        1          -0.000001041   -0.000006902   -0.000005912
     10        1           0.000006311    0.000002221   -0.000000412
     11        6          -0.000066251    0.000017524    0.000003854
     12        1           0.000016812    0.000002705    0.000011807
     13        1           0.000007239    0.000001917    0.000006113
     14        6           0.000055635    0.000015400   -0.000007546
     15        1          -0.000007829    0.000002327   -0.000002766
     16        1          -0.000007249   -0.000001936   -0.000009177
 -------------------------------------------------------------------
 Cartesian Forces:  Max     0.000066251 RMS     0.000020118
 Leave Link  716 at Mon Oct  6 14:26:44 2025, MaxMem=   104857600 cpu:               0.0 elap:               0.0
 (Enter /home/zhouoh/g16/l103.exe)

 GradGradGradGradGradGradGradGradGradGradGradGradGradGradGradGradGradGrad
 Berny optimization.
 FormGI is forming the generalized inverse of G from B-inverse, IUseBI=4.
 Internal  Forces:  Max     0.000029458 RMS     0.000006745
 Search for a saddle point.
 Step number  27 out of a maximum of  100
 All quantities printed in internal units (Hartrees-Bohrs-Radians)
 Swapping is turned off.
 Update second derivatives using D2CorX and points    1    4    5    6    7
                                                      8    9   10   11   13
                                                     14   15   16   17   18
                                                     19   20   21   22   23
                                                     24   25   26   27
 ITU=  0  0  0  0  0  0  0  0  0  0  0  0  0  0  0  0  0  0  0  0
 ITU=  0  0  0  0  0  0  0
     Eigenvalues ---   -0.04194   0.00111   0.00550   0.01003   0.01157
     Eigenvalues ---    0.01373   0.01718   0.01726   0.02005   0.02214
     Eigenvalues ---    0.02271   0.02440   0.02450   0.02749   0.02889
     Eigenvalues ---    0.03514   0.04053   0.04266   0.04664   0.04946
     Eigenvalues ---    0.05234   0.05465   0.05859   0.06319   0.09142
     Eigenvalues ---    0.11726   0.11897   0.21505   0.30800   0.30928
     Eigenvalues ---    0.32561   0.33631   0.34026   0.34857   0.34872
     Eigenvalues ---    0.35431   0.35513   0.35846   0.36073   0.43739
     Eigenvalues ---    0.45109   0.48919
 Eigenvectors required to have negative eigenvalues:
                          R9        R13       D20       D24       D6
   1                    0.55416   0.53179   0.16213  -0.16128  -0.15682
                          D13       R10       D9        D16       D40
   1                    0.15446   0.14725  -0.14308   0.13351  -0.13099
 RFO step:  Lambda0=9.775613236D-10 Lambda=-6.06284131D-08.
 Linear search not attempted -- option 19 set.
 Iteration  1 RMS(Cart)=  0.00031314 RMS(Int)=  0.00000009
 Iteration  2 RMS(Cart)=  0.00000008 RMS(Int)=  0.00000003
 ITry= 1 IFail=0 DXMaxC= 1.02D-03 DCOld= 1.00D+10 DXMaxT= 3.00D-01 DXLimC= 3.00D+00 Rises=F
 Variable       Old X    -DE/DX   Delta X   Delta X   Delta X     New X
                                 (Linear)    (Quad)   (Total)
    R1        2.64939   0.00000   0.00000  -0.00001  -0.00001   2.64938
    R2        2.04877   0.00000   0.00000   0.00001   0.00001   2.04877
    R3        2.59362  -0.00003   0.00000  -0.00005  -0.00005   2.59357
    R4        2.04913  -0.00000   0.00000  -0.00001  -0.00001   2.04912
    R5        2.59351   0.00003   0.00000   0.00007   0.00007   2.59358
    R6        2.04481   0.00000   0.00000  -0.00000  -0.00000   2.04481
    R7        2.04038  -0.00000   0.00000  -0.00000  -0.00000   2.04038
    R8        2.60255  -0.00000   0.00000   0.00001   0.00001   2.60256
    R9        4.19667   0.00002   0.00000   0.00074   0.00074   4.19741
   R10        4.44128  -0.00001   0.00000   0.00020   0.00020   4.44148
   R11        2.04065  -0.00000   0.00000   0.00000   0.00000   2.04065
   R12        2.04443  -0.00000   0.00000   0.00000   0.00000   2.04443
   R13        4.20084  -0.00001   0.00000  -0.00085  -0.00085   4.19999
   R14        4.43483   0.00000   0.00000   0.00004   0.00004   4.43487
   R15        2.04145  -0.00000   0.00000  -0.00000  -0.00000   2.04145
   R16        2.04610   0.00000   0.00000  -0.00000  -0.00000   2.04610
   R17        2.04575  -0.00000   0.00000   0.00000   0.00000   2.04575
   R18        2.04096   0.00000   0.00000   0.00001   0.00001   2.04097
    A1        2.06556  -0.00001   0.00000  -0.00007  -0.00007   2.06549
    A2        2.11656   0.00003   0.00000   0.00014   0.00014   2.11670
    A3        2.07662  -0.00001   0.00000  -0.00006  -0.00006   2.07656
    A4        2.06418   0.00001   0.00000   0.00008   0.00008   2.06426
    A5        2.11847  -0.00003   0.00000  -0.00016  -0.00016   2.11831
    A6        2.07549   0.00001   0.00000   0.00006   0.00006   2.07555
    A7        2.01462   0.00000   0.00000   0.00004   0.00004   2.01466
    A8        2.08919   0.00000   0.00000   0.00003   0.00003   2.08922
    A9        1.58682  -0.00001   0.00000   0.00011   0.00011   1.58693
   A10        2.09502  -0.00000   0.00000   0.00001   0.00001   2.09503
   A11        1.59381   0.00000   0.00000  -0.00023  -0.00022   1.59359
   A12        1.90410   0.00000   0.00000  -0.00007  -0.00007   1.90403
   A13        1.37758   0.00000   0.00000   0.00012   0.00012   1.37770
   A14        2.09725   0.00000   0.00000  -0.00002  -0.00002   2.09723
   A15        2.09062  -0.00000   0.00000  -0.00004  -0.00004   2.09057
   A16        1.90307  -0.00000   0.00000   0.00006   0.00006   1.90313
   A17        2.01419  -0.00000   0.00000  -0.00005  -0.00005   2.01414
   A18        1.59628  -0.00000   0.00000   0.00025   0.00025   1.59652
   A19        1.57753   0.00000   0.00000  -0.00005  -0.00005   1.57747
   A20        1.37831  -0.00000   0.00000  -0.00018  -0.00018   1.37813
   A21        1.77011  -0.00001   0.00000  -0.00014  -0.00014   1.76997
   A22        2.10683   0.00000   0.00000   0.00005   0.00005   2.10688
   A23        2.09427   0.00000   0.00000   0.00001   0.00001   2.09429
   A24        1.49128  -0.00000   0.00000  -0.00013  -0.00013   1.49115
   A25        1.80831   0.00000   0.00000   0.00006   0.00006   1.80837
   A26        2.00576  -0.00000   0.00000   0.00002   0.00002   2.00578
   A27        1.47002   0.00001   0.00000   0.00036   0.00036   1.47038
   A28        1.76511   0.00001   0.00000   0.00009   0.00009   1.76520
   A29        2.09472  -0.00000   0.00000  -0.00003  -0.00003   2.09469
   A30        2.10802   0.00000   0.00000  -0.00005  -0.00005   2.10797
   A31        1.81130  -0.00000   0.00000  -0.00005  -0.00005   1.81125
   A32        1.48706   0.00000   0.00000   0.00023   0.00023   1.48729
   A33        2.00676   0.00000   0.00000  -0.00003  -0.00003   2.00673
   A34        1.46615  -0.00000   0.00000  -0.00047  -0.00047   1.46569
    D1       -0.00011   0.00000   0.00000   0.00012   0.00012   0.00000
    D2       -2.90051   0.00000   0.00000   0.00020   0.00020  -2.90031
    D3        2.90329   0.00000   0.00000   0.00018   0.00018   2.90348
    D4        0.00290   0.00000   0.00000   0.00027   0.00027   0.00316
    D5       -1.03427   0.00000   0.00000   0.00011   0.00011  -1.03416
    D6        0.56227  -0.00001   0.00000  -0.00011  -0.00011   0.56215
    D7       -3.00976   0.00001   0.00000   0.00012   0.00012  -3.00964
    D8        1.86766   0.00000   0.00000   0.00018   0.00018   1.86784
    D9       -2.81898  -0.00000   0.00000  -0.00005  -0.00005  -2.81903
   D10       -0.10783   0.00001   0.00000   0.00019   0.00019  -0.10764
   D11        1.03377   0.00000   0.00000   0.00016   0.00016   1.03393
   D12        3.00963   0.00000   0.00000   0.00015   0.00015   3.00978
   D13       -0.55503  -0.00000   0.00000  -0.00015  -0.00015  -0.55519
   D14       -1.86511   0.00000   0.00000   0.00024   0.00024  -1.86487
   D15        0.11075   0.00000   0.00000   0.00023   0.00023   0.11098
   D16        2.82927  -0.00000   0.00000  -0.00008  -0.00008   2.82920
   D17       -1.97991   0.00000   0.00000   0.00041   0.00041  -1.97950
   D18        1.59091   0.00000   0.00000   0.00020   0.00020   1.59111
   D19       -0.37601   0.00000   0.00000   0.00021   0.00021  -0.37579
   D20        2.70290   0.00000   0.00000   0.00023   0.00023   2.70313
   D21        0.00232   0.00000   0.00000   0.00052   0.00052   0.00284
   D22       -1.77565   0.00000   0.00000   0.00057   0.00057  -1.77508
   D23        0.01040   0.00000   0.00000   0.00000   0.00000   0.01040
   D24       -2.69018   0.00000   0.00000   0.00030   0.00030  -2.68988
   D25        1.81503  -0.00000   0.00000   0.00034   0.00034   1.81538
   D26       -1.79074  -0.00000   0.00000   0.00033   0.00033  -1.79041
   D27        1.79187   0.00000   0.00000   0.00063   0.00063   1.79249
   D28        0.01390  -0.00000   0.00000   0.00067   0.00067   0.01457
   D29        3.00716  -0.00000   0.00000  -0.00057  -0.00057   3.00659
   D30        0.90512  -0.00000   0.00000  -0.00059  -0.00059   0.90453
   D31       -1.09431   0.00000   0.00000  -0.00058  -0.00058  -1.09490
   D32       -1.26081  -0.00000   0.00000  -0.00053  -0.00053  -1.26134
   D33        2.92034   0.00000   0.00000  -0.00055  -0.00055   2.91979
   D34        0.92090   0.00000   0.00000  -0.00054  -0.00054   0.92036
   D35        0.87781  -0.00000   0.00000  -0.00063  -0.00063   0.87718
   D36       -1.22423  -0.00000   0.00000  -0.00065  -0.00065  -1.22488
   D37        3.05953  -0.00000   0.00000  -0.00065  -0.00065   3.05888
   D38        0.86121   0.00000   0.00000  -0.00047  -0.00047   0.86074
   D39       -1.57772   0.00000   0.00000   0.00018   0.00018  -1.57754
   D40        1.98475   0.00000   0.00000   0.00046   0.00046   1.98521
   D41        0.38255   0.00000   0.00000   0.00021   0.00021   0.38276
   D42       -0.90107  -0.00000   0.00000  -0.00068  -0.00068  -0.90175
   D43       -3.08234   0.00000   0.00000  -0.00067  -0.00067  -3.08301
   D44        1.20129  -0.00000   0.00000  -0.00069  -0.00069   1.20060
   D45        1.24077   0.00000   0.00000  -0.00058  -0.00058   1.24019
   D46       -0.94049   0.00000   0.00000  -0.00057  -0.00057  -0.94106
   D47       -2.94005   0.00000   0.00000  -0.00059  -0.00059  -2.94064
   D48       -3.02788  -0.00000   0.00000  -0.00063  -0.00063  -3.02850
   D49        1.07405   0.00000   0.00000  -0.00062  -0.00062   1.07343
   D50       -0.92551   0.00000   0.00000  -0.00064  -0.00064  -0.92615
   D51       -0.88281   0.00000   0.00000  -0.00045  -0.00045  -0.88326
   D52       -2.12800   0.00001   0.00000   0.00045   0.00045  -2.12755
   D53       -0.37246  -0.00000   0.00000   0.00021   0.00021  -0.37225
   D54        1.42347  -0.00000   0.00000   0.00022   0.00022   1.42369
   D55        2.12662   0.00001   0.00000   0.00045   0.00045   2.12706
   D56        0.37935  -0.00000   0.00000   0.00021   0.00021   0.37956
   D57       -1.41797  -0.00000   0.00000   0.00015   0.00015  -1.41781
         Item               Value     Threshold  Converged?
 Maximum Force            0.000029     0.000450     YES
 RMS     Force            0.000007     0.000300     YES
 Maximum Displacement     0.001021     0.001800     YES
 RMS     Displacement     0.000313     0.001200     YES
 Predicted change in Energy=-2.982537D-08
 Optimization completed.
    -- Stationary point found.
                           ----------------------------
                           !   Optimized Parameters   !
                           ! (Angstroms and Degrees)  !
 --------------------------                            --------------------------
 ! Name  Definition              Value          Derivative Info.                !
 --------------------------------------------------------------------------------
 ! R1    R(1,2)                  1.402          -DE/DX =    0.0                 !
 ! R2    R(1,3)                  1.0842         -DE/DX =    0.0                 !
 ! R3    R(1,11)                 1.3725         -DE/DX =    0.0                 !
 ! R4    R(2,4)                  1.0844         -DE/DX =    0.0                 !
 ! R5    R(2,14)                 1.3724         -DE/DX =    0.0                 !
 ! R6    R(5,6)                  1.0821         -DE/DX =    0.0                 !
 ! R7    R(5,7)                  1.0797         -DE/DX =    0.0                 !
 ! R8    R(5,8)                  1.3772         -DE/DX =    0.0                 !
 ! R9    R(5,11)                 2.2208         -DE/DX =    0.0                 !
 ! R10   R(6,12)                 2.3502         -DE/DX =    0.0                 !
 ! R11   R(8,9)                  1.0799         -DE/DX =    0.0                 !
 ! R12   R(8,10)                 1.0819         -DE/DX =    0.0                 !
 ! R13   R(8,14)                 2.223          -DE/DX =    0.0                 !
 ! R14   R(10,16)                2.3468         -DE/DX =    0.0                 !
 ! R15   R(11,12)                1.0803         -DE/DX =    0.0                 !
 ! R16   R(11,13)                1.0827         -DE/DX =    0.0                 !
 ! R17   R(14,15)                1.0826         -DE/DX =    0.0                 !
 ! R18   R(14,16)                1.08           -DE/DX =    0.0                 !
 ! A1    A(2,1,3)              118.3479         -DE/DX =    0.0                 !
 ! A2    A(2,1,11)             121.2702         -DE/DX =    0.0                 !
 ! A3    A(3,1,11)             118.9813         -DE/DX =    0.0                 !
 ! A4    A(1,2,4)              118.269          -DE/DX =    0.0                 !
 ! A5    A(1,2,14)             121.3794         -DE/DX =    0.0                 !
 ! A6    A(4,2,14)             118.9169         -DE/DX =    0.0                 !
 ! A7    A(6,5,7)              115.4294         -DE/DX =    0.0                 !
 ! A8    A(6,5,8)              119.7018         -DE/DX =    0.0                 !
 ! A9    A(6,5,11)              90.9179         -DE/DX =    0.0                 !
 ! A10   A(7,5,8)              120.0358         -DE/DX =    0.0                 !
 ! A11   A(7,5,11)              91.3186         -DE/DX =    0.0                 !
 ! A12   A(8,5,11)             109.0968         -DE/DX =    0.0                 !
 ! A13   A(5,6,12)              78.9294         -DE/DX =    0.0                 !
 ! A14   A(5,8,9)              120.1635         -DE/DX =    0.0                 !
 ! A15   A(5,8,10)             119.7835         -DE/DX =    0.0                 !
 ! A16   A(5,8,14)             109.0379         -DE/DX =    0.0                 !
 ! A17   A(9,8,10)             115.4043         -DE/DX =    0.0                 !
 ! A18   A(9,8,14)              91.46           -DE/DX =    0.0                 !
 ! A19   A(10,8,14)             90.3855         -DE/DX =    0.0                 !
 ! A20   A(8,10,16)             78.9713         -DE/DX =    0.0                 !
 ! A21   A(1,11,5)             101.4196         -DE/DX =    0.0                 !
 ! A22   A(1,11,12)            120.7127         -DE/DX =    0.0                 !
 ! A23   A(1,11,13)            119.993          -DE/DX =    0.0                 !
 ! A24   A(5,11,12)             85.4443         -DE/DX =    0.0                 !
 ! A25   A(5,11,13)            103.6082         -DE/DX =    0.0                 !
 ! A26   A(12,11,13)           114.9215         -DE/DX =    0.0                 !
 ! A27   A(6,12,11)             84.2262         -DE/DX =    0.0                 !
 ! A28   A(2,14,8)             101.1336         -DE/DX =    0.0                 !
 ! A29   A(2,14,15)            120.0184         -DE/DX =    0.0                 !
 ! A30   A(2,14,16)            120.7808         -DE/DX =    0.0                 !
 ! A31   A(8,14,15)            103.7797         -DE/DX =    0.0                 !
 ! A32   A(8,14,16)             85.2023         -DE/DX =    0.0                 !
 ! A33   A(15,14,16)           114.979          -DE/DX =    0.0                 !
 ! A34   A(10,16,14)            84.0044         -DE/DX =    0.0                 !
 ! D1    D(3,1,2,4)             -0.0064         -DE/DX =    0.0                 !
 ! D2    D(3,1,2,14)          -166.187          -DE/DX =    0.0                 !
 ! D3    D(11,1,2,4)           166.3465         -DE/DX =    0.0                 !
 ! D4    D(11,1,2,14)            0.1659         -DE/DX =    0.0                 !
 ! D5    D(2,1,11,5)           -59.2595         -DE/DX =    0.0                 !
 ! D6    D(2,1,11,12)           32.2156         -DE/DX =    0.0                 !
 ! D7    D(2,1,11,13)         -172.4465         -DE/DX =    0.0                 !
 ! D8    D(3,1,11,5)           107.0091         -DE/DX =    0.0                 !
 ! D9    D(3,1,11,12)         -161.5159         -DE/DX =    0.0                 !
 ! D10   D(3,1,11,13)           -6.178          -DE/DX =    0.0                 !
 ! D11   D(1,2,14,8)            59.2307         -DE/DX =    0.0                 !
 ! D12   D(1,2,14,15)          172.4388         -DE/DX =    0.0                 !
 ! D13   D(1,2,14,16)          -31.8011         -DE/DX =    0.0                 !
 ! D14   D(4,2,14,8)          -106.8627         -DE/DX =    0.0                 !
 ! D15   D(4,2,14,15)            6.3454         -DE/DX =    0.0                 !
 ! D16   D(4,2,14,16)          162.1054         -DE/DX =    0.0                 !
 ! D17   D(7,5,6,12)          -113.4405         -DE/DX =    0.0                 !
 ! D18   D(8,5,6,12)            91.1523         -DE/DX =    0.0                 !
 ! D19   D(11,5,6,12)          -21.5435         -DE/DX =    0.0                 !
 ! D20   D(6,5,8,9)            154.8647         -DE/DX =    0.0                 !
 ! D21   D(6,5,8,10)             0.1328         -DE/DX =    0.0                 !
 ! D22   D(6,5,8,14)          -101.7372         -DE/DX =    0.0                 !
 ! D23   D(7,5,8,9)              0.5958         -DE/DX =    0.0                 !
 ! D24   D(7,5,8,10)          -154.1362         -DE/DX =    0.0                 !
 ! D25   D(7,5,8,14)           103.9938         -DE/DX =    0.0                 !
 ! D26   D(11,5,8,9)          -102.6017         -DE/DX =    0.0                 !
 ! D27   D(11,5,8,10)          102.6664         -DE/DX =    0.0                 !
 ! D28   D(11,5,8,14)            0.7963         -DE/DX =    0.0                 !
 ! D29   D(6,5,11,1)           172.2975         -DE/DX =    0.0                 !
 ! D30   D(6,5,11,12)           51.8595         -DE/DX =    0.0                 !
 ! D31   D(6,5,11,13)          -62.6996         -DE/DX =    0.0                 !
 ! D32   D(7,5,11,1)           -72.2391         -DE/DX =    0.0                 !
 ! D33   D(7,5,11,12)          167.323          -DE/DX =    0.0                 !
 ! D34   D(7,5,11,13)           52.7638         -DE/DX =    0.0                 !
 ! D35   D(8,5,11,1)            50.295          -DE/DX =    0.0                 !
 ! D36   D(8,5,11,12)          -70.1429         -DE/DX =    0.0                 !
 ! D37   D(8,5,11,13)          175.2979         -DE/DX =    0.0                 !
 ! D38   D(5,6,12,11)           49.3438         -DE/DX =    0.0                 !
 ! D39   D(5,8,10,16)          -90.3968         -DE/DX =    0.0                 !
 ! D40   D(9,8,10,16)          113.7178         -DE/DX =    0.0                 !
 ! D41   D(14,8,10,16)          21.9182         -DE/DX =    0.0                 !
 ! D42   D(5,8,14,2)           -51.6277         -DE/DX =    0.0                 !
 ! D43   D(5,8,14,15)         -176.6048         -DE/DX =    0.0                 !
 ! D44   D(5,8,14,16)           68.829          -DE/DX =    0.0                 !
 ! D45   D(9,8,14,2)            71.0907         -DE/DX =    0.0                 !
 ! D46   D(9,8,14,15)          -53.8864         -DE/DX =    0.0                 !
 ! D47   D(9,8,14,16)         -168.4526         -DE/DX =    0.0                 !
 ! D48   D(10,8,14,2)         -173.4846         -DE/DX =    0.0                 !
 ! D49   D(10,8,14,15)          61.5383         -DE/DX =    0.0                 !
 ! D50   D(10,8,14,16)         -53.0279         -DE/DX =    0.0                 !
 ! D51   D(8,10,16,14)         -50.581          -DE/DX =    0.0                 !
 ! D52   D(1,11,12,6)         -121.9253         -DE/DX =    0.0                 !
 ! D53   D(5,11,12,6)          -21.3406         -DE/DX =    0.0                 !
 ! D54   D(13,11,12,6)          81.5587         -DE/DX =    0.0                 !
 ! D55   D(2,14,16,10)         121.8461         -DE/DX =    0.0                 !
 ! D56   D(8,14,16,10)          21.7353         -DE/DX =    0.0                 !
 ! D57   D(15,14,16,10)        -81.2435         -DE/DX =    0.0                 !
 --------------------------------------------------------------------------------
 Largest change from initial coordinates is atom    9       0.039 Angstoms.
 GradGradGradGradGradGradGradGradGradGradGradGradGradGradGradGradGradGrad

 Leave Link  103 at Mon Oct  6 14:26:44 2025, MaxMem=   104857600 cpu:               0.0 elap:               0.0
 (Enter /home/zhouoh/g16/l202.exe)
                          Input orientation:                          
 ---------------------------------------------------------------------
 Center     Atomic      Atomic             Coordinates (Angstroms)
 Number     Number       Type             X           Y           Z
 ---------------------------------------------------------------------
      1          6           0       -1.292584    0.699900    0.304325
      2          6           0       -1.293026   -0.702088    0.299008
      3          1           0       -1.816592    1.211823    1.103546
      4          1           0       -1.817750   -1.218507    1.095121
      5          6           0        1.538576    0.688941    0.220872
      6          1           0        2.041819    1.217904   -0.577760
      7          1           0        1.433358    1.236559    1.145453
      8          6           0        1.535167   -0.688225    0.231142
      9          1           0        1.417752   -1.223612    1.161561
     10          1           0        2.037088   -1.232754   -0.557525
     11          6           0       -0.434823    1.415083   -0.493470
     12          1           0       -0.129923    1.033403   -1.456994
     13          1           0       -0.364921    2.490186   -0.385697
     14          6           0       -0.434436   -1.413955   -0.500753
     15          1           0       -0.366606   -2.489667   -0.399822
     16          1           0       -0.120100   -1.024964   -1.458013
 ---------------------------------------------------------------------
                    Distance matrix (angstroms):
                    1          2          3          4          5
     1  C    0.000000
     2  C    1.401998   0.000000
     3  H    1.084160   2.141135   0.000000
     4  H    2.140431   1.084353   2.430345   0.000000
     5  C    2.832411   3.155794   3.508514   3.958231   0.000000
     6  H    3.487785   3.946679   4.208819   4.861163   1.082067
     7  H    2.902802   3.450795   3.250314   4.074259   1.079725
     8  C    3.150940   2.829040   3.950387   3.502815   1.377209
     9  H    3.432299   2.892111   4.049160   3.236189   2.134796
    10  H    3.945206   3.479211   4.856538   4.194188   2.132446
    11  C    1.372487   2.418046   2.121571   3.372227   2.220782
    12  H    2.136644   2.729153   3.071327   3.799098   2.391188
    13  H    2.131152   3.394231   2.441188   4.249463   2.689928
    14  C    2.419288   1.372424   3.373253   2.120983   2.972489
    15  H    3.395084   2.131210   4.250130   2.440598   3.757463
    16  H    2.730515   2.137083   3.800379   3.072127   2.916733
                    6          7          8          9         10
     6  H    0.000000
     7  H    1.827576   0.000000
     8  C    2.131748   2.133337   0.000000
     9  H    3.061977   2.460274   1.079864   0.000000
    10  H    2.450746   3.059760   1.081865   1.827270   0.000000
    11  C    2.485907   2.491594   2.971503   3.624069   3.622911
    12  H    2.350224   3.042671   2.930244   3.787644   3.261969
    13  H    2.729100   2.673912   3.754081   4.400481   4.433898
    14  C    3.614478   3.636464   2.222991   2.496021   2.478807
    15  H    4.424732   4.417296   2.694447   2.687889   2.717065
    16  H    3.237159   3.782295   2.388838   3.044112   2.346809
                   11         12         13         14         15
    11  C    0.000000
    12  H    1.080288   0.000000
    13  H    1.082749   1.823491   0.000000
    14  C    2.829048   2.645125   3.906454   0.000000
    15  H    3.906469   3.685871   4.979873   1.082563   0.000000
    16  H    2.642579   2.058390   3.683215   1.080031   1.823701
                   16
    16  H    0.000000
 Stoichiometry    C6H10
 Framework group  C1[X(C6H10)]
 Deg. of freedom    42
 Full point group                 C1      NOp   1
 RotChk:  IX=3 Diff= 4.12D-15
 Largest Abelian subgroup         C1      NOp   1
 Largest concise Abelian subgroup C1      NOp   1
                         Standard orientation:                         
 ---------------------------------------------------------------------
 Center     Atomic      Atomic             Coordinates (Angstroms)
 Number     Number       Type             X           Y           Z
 ---------------------------------------------------------------------
      1          6           0       -1.291350   -0.706480   -0.296064
      2          6           0       -1.298559    0.695494   -0.292047
      3          1           0       -1.817069   -1.221697   -1.092038
      4          1           0       -1.829963    1.208606   -1.085866
      5          6           0        1.540123   -0.681732   -0.227532
      6          1           0        2.050119   -1.207490    0.568930
      7          1           0        1.432697   -1.230736   -1.151037
      8          6           0        1.529985    0.695391   -0.239064
      9          1           0        1.405083    1.229315   -1.169349
     10          1           0        2.033403    1.243096    0.546443
     11          6           0       -0.425947   -1.416739    0.497867
     12          1           0       -0.117835   -1.032667    1.459417
     13          1           0       -0.351403   -2.491593    0.390726
     14          6           0       -0.439234    1.412273    0.502518
     15          1           0       -0.377151    2.488204    0.400233
     16          1           0       -0.117984    1.025723    1.458471
 ---------------------------------------------------------------------
 Rotational constants (GHZ):           4.4119771           3.5992984           2.3438505
 Leave Link  202 at Mon Oct  6 14:26:44 2025, MaxMem=   104857600 cpu:               0.0 elap:               0.0
 (Enter /home/zhouoh/g16/l601.exe)
 Leave Link  601 at Mon Oct  6 14:26:44 2025, MaxMem=   104857600 cpu:               0.0 elap:               0.0
 (Enter /home/zhouoh/g16/l9999.exe)
 1\1\GINC-ZHOUOH-B650M\FTS\RExternal='python ../GauUMA_client.py'\ZDO\C
 6H10\ZHOUOH\06-Oct-2025\0\\#p opt=(nomicro,ts,noeigen,calcfc) external
 ='python ../GauUMA_client.py'\\UMA NEB DFT Confirmation\\0,1\C,-1.2925
 840701,0.6999002309,0.3043252698\C,-1.293025506,-0.7020875803,0.299007
 6055\H,-1.816591754,1.2118231649,1.1035458194\H,-1.8177500887,-1.21850
 74408,1.0951209205\C,1.5385762375,0.6889408302,0.2208724645\H,2.041818
 6204,1.2179043327,-0.5777600013\H,1.4333577509,1.2365590809,1.14545304
 73\C,1.5351668309,-0.6882253257,0.2311419922\H,1.4177524164,-1.2236123
 941,1.1615614197\H,2.0370876543,-1.2327538322,-0.5575247832\C,-0.43482
 25135,1.4150833622,-0.4934704141\H,-0.129923039,1.0334025459,-1.456993
 8695\H,-0.364921434,2.4901855511,-0.3856967338\C,-0.4344359118,-1.4139
 549598,-0.5007526676\H,-0.3666060419,-2.4896666679,-0.3998223131\H,-0.
 1201001514,-1.024963898,-1.4580127564\\Version=ES64L-G16RevA.03\HF=-23
 4.4938724\RMSD=0.000e+00\RMSF=2.012e-05\Dipole=0.,0.,0.\PG=C01 [X(C6H1
 0)]\\@


 ... A MOLECULAR SYSTEM ... (PASSES) ... FROM ONE STATE OF EQUILIBRIUM 
 TO ANOTHER ... BY MEANS OF ALL POSSIBLE INTERMEDIATE PATHS, 
 BUT THE PATH MOST ECONOMICAL OF ENERGY WILL BE THE MORE OFTEN TRAVELED.

                      -- HENRY EYRING, 1945
 Job cpu time:       0 days  0 hours  0 minutes  2.3 seconds.
 Elapsed time:       0 days  0 hours  0 minutes  6.6 seconds.
 File lengths (MBytes):  RWF=      6 Int=      0 D2E=      0 Chk=      2 Scr=      1
 Normal termination of Gaussian 16 at Mon Oct  6 14:26:44 2025.
