%nprocshared=1
#p opt=(nomicro,ts,noeigen,calcall) external='python ../GauUMA_client.py'

UMA NEB DFT Confirmation

0 1
C      -1.22312415     -1.09719475     -1.04937856
C       0.06118165     -1.66787130     -0.57899348
H      -2.15421130     -1.63684179     -0.88305598
H       0.81511752     -1.84145971     -1.34358010
C      -0.86116610      1.75876211      0.75879193
H      -0.68920620      2.33580445     -0.14456315
H      -1.89779750      1.57372832      1.02683142
C       0.14053341      1.24615437      1.45684061
H      -0.04481512      0.64871256      2.34505772
H       1.17753372      1.38771521      1.16023470
C      -1.20820931      0.10063686     -1.61873273
H      -0.26377394      0.62326357     -1.73630557
H      -2.10089013      0.61772556     -1.94185754
C       0.38819512     -1.83037342      0.69698433
H      -0.32845216     -1.64775714      1.49343593
H       1.39715789     -2.11798993      0.98306382


