 Entering Gaussian System, Link 0=g16
 Input=DA_s_trans.gjf
 Output=DA_s_trans.log
 Initial command:
 /home/zhouoh/g16/l1.exe "/home/zhouoh/scratch/Gau-2817889.inp" -scrdir="/home/zhouoh/scratch/"
 Entering Link 1 = /home/zhouoh/g16/l1.exe PID=   2817891.
  
 Copyright (c) 1988,1990,1992,1993,1995,1998,2003,2009,2016,
            Gaussian, Inc.  All Rights Reserved.
  
 This is part of the Gaussian(R) 16 program.  It is based on
 the Gaussian(R) 09 system (copyright 2009, Gaussian, Inc.),
 the Gaussian(R) 03 system (copyright 2003, Gaussian, Inc.),
 the Gaussian(R) 98 system (copyright 1998, Gaussian, Inc.),
 the Gaussian(R) 94 system (copyright 1995, Gaussian, Inc.),
 the Gaussian 92(TM) system (copyright 1992, Gaussian, Inc.),
 the Gaussian 90(TM) system (copyright 1990, Gaussian, Inc.),
 the Gaussian 88(TM) system (copyright 1988, Gaussian, Inc.),
 the Gaussian 86(TM) system (copyright 1986, Carnegie Mellon
 University), and the Gaussian 82(TM) system (copyright 1983,
 Carnegie Mellon University). Gaussian is a federally registered
 trademark of Gaussian, Inc.
  
 This software contains proprietary and confidential information,
 including trade secrets, belonging to Gaussian, Inc.
  
 This software is provided under written license and may be
 used, copied, transmitted, or stored only in accord with that
 written license.
  
 The following legend is applicable only to US Government
 contracts under FAR:
  
                    RESTRICTED RIGHTS LEGEND
  
 Use, reproduction and disclosure by the US Government is
 subject to restrictions as set forth in subparagraphs (a)
 and (c) of the Commercial Computer Software - Restricted
 Rights clause in FAR 52.227-19.
  
 Gaussian, Inc.
 340 Quinnipiac St., Bldg. 40, Wallingford CT 06492
  
  
 ---------------------------------------------------------------
 Warning -- This program may not be used in any manner that
 competes with the business of Gaussian, Inc. or will provide
 assistance to any competitor of Gaussian, Inc.  The licensee
 of this program is prohibited from giving any competitor of
 Gaussian, Inc. access to this program.  By using this program,
 the user acknowledges that Gaussian, Inc. is engaged in the
 business of creating and licensing software in the field of
 computational chemistry and represents and warrants to the
 licensee that it is not a competitor of Gaussian, Inc. and that
 it will not use this program in any manner prohibited above.
 ---------------------------------------------------------------
  

 Cite this work as:
 Gaussian 16, Revision A.03,
 M. J. Frisch, G. W. Trucks, H. B. Schlegel, G. E. Scuseria, 
 M. A. Robb, J. R. Cheeseman, G. Scalmani, V. Barone, 
 G. A. Petersson, H. Nakatsuji, X. Li, M. Caricato, A. V. Marenich, 
 J. Bloino, B. G. Janesko, R. Gomperts, B. Mennucci, H. P. Hratchian, 
 J. V. Ortiz, A. F. Izmaylov, J. L. Sonnenberg, D. Williams-Young, 
 F. Ding, F. Lipparini, F. Egidi, J. Goings, B. Peng, A. Petrone, 
 T. Henderson, D. Ranasinghe, V. G. Zakrzewski, J. Gao, N. Rega, 
 G. Zheng, W. Liang, M. Hada, M. Ehara, K. Toyota, R. Fukuda, 
 J. Hasegawa, M. Ishida, T. Nakajima, Y. Honda, O. Kitao, H. Nakai, 
 T. Vreven, K. Throssell, J. A. Montgomery, Jr., J. E. Peralta, 
 F. Ogliaro, M. J. Bearpark, J. J. Heyd, E. N. Brothers, K. N. Kudin, 
 V. N. Staroverov, T. A. Keith, R. Kobayashi, J. Normand, 
 K. Raghavachari, A. P. Rendell, J. C. Burant, S. S. Iyengar, 
 J. Tomasi, M. Cossi, J. M. Millam, M. Klene, C. Adamo, R. Cammi, 
 J. W. Ochterski, R. L. Martin, K. Morokuma, O. Farkas, 
 J. B. Foresman, and D. J. Fox, Gaussian, Inc., Wallingford CT, 2016.
 
 ******************************************
 Gaussian 16:  ES64L-G16RevA.03 25-Dec-2016
                 6-Oct-2025 
 ******************************************
 %nprocshared=1
 Will use up to    1 processors via shared memory.
 ----------------------------------------------------------------------
 #p opt=(nomicro,ts,noeigen,calcall) external='python ../GauUMA_client.
 py'
 ----------------------------------------------------------------------
 1/5=1,10=4,11=1,18=20,26=1,38=1/1,3;
 2/9=110,12=2,17=6,18=5,40=1/2;
 3/11=9,25=1,30=1,41=9900000,43=2,71=2,140=1/1;
 4/20=17,22=2,24=3,113=1,114=1/2;
 6/7=2,8=2,9=2,10=2,18=1/1;
 7/25=1,44=-1/16;
 1/5=1,10=4,11=1,18=20,26=1/3(3);
 2/9=110/2;
 7/8=1,9=1,25=1,44=-1/16;
 99//99;
 2/9=110/2;
 3/11=9,25=1,30=1,41=9900000,43=2,71=2,140=1/1;
 4/16=2,20=17,22=2,24=3,113=1,114=1/2;
 7/25=1,44=-1/16;
 1/5=1,10=4,11=1,18=20,26=1/3(-4);
 2/9=110/2;
 6/7=2,8=2,9=2,10=2,18=1/1;
 7/8=1,9=1,25=1,44=-1/16;
 99//99;
 Leave Link    1 at Mon Oct  6 14:28:00 2025, MaxMem=           0 cpu:               0.0 elap:               0.0
 (Enter /home/zhouoh/g16/l101.exe)
 ------------------------
 UMA NEB DFT Confirmation
 ------------------------
 Symbolic Z-matrix:
 Charge =  0 Multiplicity = 1
 C                    -1.22312  -1.09719  -1.04938 
 C                     0.06118  -1.66787  -0.57899 
 H                    -2.15421  -1.63684  -0.88306 
 H                     0.81512  -1.84146  -1.34358 
 C                    -0.86117   1.75876   0.75879 
 H                    -0.68921   2.3358   -0.14456 
 H                    -1.8978    1.57373   1.02683 
 C                     0.14053   1.24615   1.45684 
 H                    -0.04482   0.64871   2.34506 
 H                     1.17753   1.38772   1.16023 
 C                    -1.20821   0.10064  -1.61873 
 H                    -0.26377   0.62326  -1.73631 
 H                    -2.10089   0.61773  -1.94186 
 C                     0.3882   -1.83037   0.69698 
 H                    -0.32845  -1.64776   1.49344 
 H                     1.39716  -2.11799   0.98306 
 
 Add virtual bond connecting atoms H12        and H6         Dist= 4.49D+00.
 Add virtual bond connecting atoms H15        and H9         Dist= 4.66D+00.
 ITRead=  0  0  0  0  0  0  0  0  0  0  0  0  0  0  0  0
 MicOpt= -1 -1 -1 -1 -1 -1 -1 -1 -1 -1 -1 -1 -1 -1 -1 -1
 NAtoms=     16 NQM=       16 NQMF=       0 NMMI=      0 NMMIF=      0
                NMic=       0 NMicF=      0.
                    Isotopes and Nuclear Properties:
 (Nuclear quadrupole moments (NQMom) in fm**2, nuclear magnetic moments (NMagM)
  in nuclear magnetons)

  Atom         1           2           3           4           5           6           7           8           9          10
 IAtWgt=          12          12           1           1          12           1           1          12           1           1
 AtmWgt=  12.0000000  12.0000000   1.0078250   1.0078250  12.0000000   1.0078250   1.0078250  12.0000000   1.0078250   1.0078250
 NucSpn=           0           0           1           1           0           1           1           0           1           1
 AtZEff=  -0.0000000  -0.0000000  -0.0000000  -0.0000000  -0.0000000  -0.0000000  -0.0000000  -0.0000000  -0.0000000  -0.0000000
 NQMom=    0.0000000   0.0000000   0.0000000   0.0000000   0.0000000   0.0000000   0.0000000   0.0000000   0.0000000   0.0000000
 NMagM=    0.0000000   0.0000000   2.7928460   2.7928460   0.0000000   2.7928460   2.7928460   0.0000000   2.7928460   2.7928460
 AtZNuc=   6.0000000   6.0000000   1.0000000   1.0000000   6.0000000   1.0000000   1.0000000   6.0000000   1.0000000   1.0000000

  Atom        11          12          13          14          15          16
 IAtWgt=          12           1           1          12           1           1
 AtmWgt=  12.0000000   1.0078250   1.0078250  12.0000000   1.0078250   1.0078250
 NucSpn=           0           1           1           0           1           1
 AtZEff=  -0.0000000  -0.0000000  -0.0000000  -0.0000000  -0.0000000  -0.0000000
 NQMom=    0.0000000   0.0000000   0.0000000   0.0000000   0.0000000   0.0000000
 NMagM=    0.0000000   2.7928460   2.7928460   0.0000000   2.7928460   2.7928460
 AtZNuc=   6.0000000   1.0000000   1.0000000   6.0000000   1.0000000   1.0000000
 Leave Link  101 at Mon Oct  6 14:28:00 2025, MaxMem=   104857600 cpu:               0.1 elap:               0.1
 (Enter /home/zhouoh/g16/l103.exe)

 GradGradGradGradGradGradGradGradGradGradGradGradGradGradGradGradGradGrad
 Berny optimization.
 Initialization pass.
                           ----------------------------
                           !    Initial Parameters    !
                           ! (Angstroms and Degrees)  !
 --------------------------                            --------------------------
 ! Name  Definition              Value          Derivative Info.                !
 --------------------------------------------------------------------------------
 ! R1    R(1,2)                  1.482          calculate D2E/DX2 analytically  !
 ! R2    R(1,3)                  1.0889         calculate D2E/DX2 analytically  !
 ! R3    R(1,11)                 1.3263         calculate D2E/DX2 analytically  !
 ! R4    R(2,4)                  1.0877         calculate D2E/DX2 analytically  !
 ! R5    R(2,14)                 1.3272         calculate D2E/DX2 analytically  !
 ! R6    R(5,6)                  1.0856         calculate D2E/DX2 analytically  !
 ! R7    R(5,7)                  1.0866         calculate D2E/DX2 analytically  !
 ! R8    R(5,8)                  1.3242         calculate D2E/DX2 analytically  !
 ! R9    R(6,12)                 2.3764         calculate D2E/DX2 analytically  !
 ! R10   R(8,9)                  1.0864         calculate D2E/DX2 analytically  !
 ! R11   R(8,10)                 1.0878         calculate D2E/DX2 analytically  !
 ! R12   R(9,15)                 2.4657         calculate D2E/DX2 analytically  !
 ! R13   R(11,12)                1.0858         calculate D2E/DX2 analytically  !
 ! R14   R(11,13)                1.0811         calculate D2E/DX2 analytically  !
 ! R15   R(14,15)                1.0869         calculate D2E/DX2 analytically  !
 ! R16   R(14,16)                1.0875         calculate D2E/DX2 analytically  !
 ! A1    A(2,1,3)              120.11           calculate D2E/DX2 analytically  !
 ! A2    A(2,1,11)             118.3111         calculate D2E/DX2 analytically  !
 ! A3    A(3,1,11)             121.5156         calculate D2E/DX2 analytically  !
 ! A4    A(1,2,4)              116.0408         calculate D2E/DX2 analytically  !
 ! A5    A(1,2,14)             124.4589         calculate D2E/DX2 analytically  !
 ! A6    A(4,2,14)             119.0433         calculate D2E/DX2 analytically  !
 ! A7    A(6,5,7)              116.5441         calculate D2E/DX2 analytically  !
 ! A8    A(6,5,8)              121.6405         calculate D2E/DX2 analytically  !
 ! A9    A(7,5,8)              121.7172         calculate D2E/DX2 analytically  !
 ! A10   A(5,6,12)             101.6927         calculate D2E/DX2 analytically  !
 ! A11   A(5,8,9)              120.9859         calculate D2E/DX2 analytically  !
 ! A12   A(5,8,10)             121.8038         calculate D2E/DX2 analytically  !
 ! A13   A(9,8,10)             117.2018         calculate D2E/DX2 analytically  !
 ! A14   A(8,9,15)             104.4442         calculate D2E/DX2 analytically  !
 ! A15   A(1,11,12)            119.4039         calculate D2E/DX2 analytically  !
 ! A16   A(1,11,13)            123.4354         calculate D2E/DX2 analytically  !
 ! A17   A(12,11,13)           117.1073         calculate D2E/DX2 analytically  !
 ! A18   A(6,12,11)             96.8126         calculate D2E/DX2 analytically  !
 ! A19   A(2,14,15)            121.4315         calculate D2E/DX2 analytically  !
 ! A20   A(2,14,16)            120.9245         calculate D2E/DX2 analytically  !
 ! A21   A(15,14,16)           117.6091         calculate D2E/DX2 analytically  !
 ! A22   A(9,15,14)            109.4962         calculate D2E/DX2 analytically  !
 ! D1    D(3,1,2,4)            121.0328         calculate D2E/DX2 analytically  !
 ! D2    D(3,1,2,14)           -66.8258         calculate D2E/DX2 analytically  !
 ! D3    D(11,1,2,4)           -61.8146         calculate D2E/DX2 analytically  !
 ! D4    D(11,1,2,14)          110.3268         calculate D2E/DX2 analytically  !
 ! D5    D(2,1,11,12)            0.7463         calculate D2E/DX2 analytically  !
 ! D6    D(2,1,11,13)         -176.5179         calculate D2E/DX2 analytically  !
 ! D7    D(3,1,11,12)          177.8568         calculate D2E/DX2 analytically  !
 ! D8    D(3,1,11,13)            0.5927         calculate D2E/DX2 analytically  !
 ! D9    D(1,2,14,15)            6.8084         calculate D2E/DX2 analytically  !
 ! D10   D(1,2,14,16)         -170.9951         calculate D2E/DX2 analytically  !
 ! D11   D(4,2,14,15)          178.7306         calculate D2E/DX2 analytically  !
 ! D12   D(4,2,14,16)            0.927          calculate D2E/DX2 analytically  !
 ! D13   D(7,5,6,12)           -98.0537         calculate D2E/DX2 analytically  !
 ! D14   D(8,5,6,12)            78.4015         calculate D2E/DX2 analytically  !
 ! D15   D(6,5,8,9)           -178.4014         calculate D2E/DX2 analytically  !
 ! D16   D(6,5,8,10)             0.506          calculate D2E/DX2 analytically  !
 ! D17   D(7,5,8,9)             -2.1295         calculate D2E/DX2 analytically  !
 ! D18   D(7,5,8,10)           176.7779         calculate D2E/DX2 analytically  !
 ! D19   D(5,6,12,11)           58.5194         calculate D2E/DX2 analytically  !
 ! D20   D(5,8,9,15)            87.4482         calculate D2E/DX2 analytically  !
 ! D21   D(10,8,9,15)          -91.5078         calculate D2E/DX2 analytically  !
 ! D22   D(8,9,15,14)           39.6885         calculate D2E/DX2 analytically  !
 ! D23   D(1,11,12,6)         -110.5068         calculate D2E/DX2 analytically  !
 ! D24   D(13,11,12,6)          66.9285         calculate D2E/DX2 analytically  !
 ! D25   D(2,14,15,9)          -95.1591         calculate D2E/DX2 analytically  !
 ! D26   D(16,14,15,9)          82.7146         calculate D2E/DX2 analytically  !
 --------------------------------------------------------------------------------
 Trust Radius=3.00D-01 FncErr=1.00D-07 GrdErr=1.00D-07 EigMax=2.50D+02 EigMin=1.00D-04
 Number of steps in this run=     74 maximum allowed number of steps=    100.
 Search for a saddle point of order  1.
 GradGradGradGradGradGradGradGradGradGradGradGradGradGradGradGradGradGrad

 Leave Link  103 at Mon Oct  6 14:28:00 2025, MaxMem=   104857600 cpu:               0.0 elap:               0.0
 (Enter /home/zhouoh/g16/l202.exe)
                          Input orientation:                          
 ---------------------------------------------------------------------
 Center     Atomic      Atomic             Coordinates (Angstroms)
 Number     Number       Type             X           Y           Z
 ---------------------------------------------------------------------
      1          6           0       -1.223124   -1.097195   -1.049379
      2          6           0        0.061182   -1.667871   -0.578993
      3          1           0       -2.154211   -1.636842   -0.883056
      4          1           0        0.815118   -1.841460   -1.343580
      5          6           0       -0.861166    1.758762    0.758792
      6          1           0       -0.689206    2.335804   -0.144563
      7          1           0       -1.897798    1.573728    1.026831
      8          6           0        0.140533    1.246154    1.456841
      9          1           0       -0.044815    0.648713    2.345058
     10          1           0        1.177534    1.387715    1.160235
     11          6           0       -1.208209    0.100637   -1.618733
     12          1           0       -0.263774    0.623264   -1.736306
     13          1           0       -2.100890    0.617726   -1.941858
     14          6           0        0.388195   -1.830373    0.696984
     15          1           0       -0.328452   -1.647757    1.493436
     16          1           0        1.397158   -2.117990    0.983064
 ---------------------------------------------------------------------
                    Distance matrix (angstroms):
                    1          2          3          4          5
     1  C    0.000000
     2  C    1.482017   0.000000
     3  H    1.088947   2.236377   0.000000
     4  H    2.189729   1.087725   3.011788   0.000000
     5  C    3.399556   3.792389   3.987199   4.493494   0.000000
     6  H    3.590159   4.096490   4.298084   4.598931   1.085633
     7  H    3.449589   4.113908   3.744486   4.964098   1.086594
     8  C    3.692151   3.555624   4.364933   4.222651   1.324175
     9  H    3.994847   3.732006   4.482636   4.532824   2.101161
    10  H    4.101259   3.688870   4.942014   4.102195   2.110718
    11  C    1.326344   2.412474   2.110680   2.818031   2.919322
    12  H    2.086192   2.587328   3.067550   2.719026   2.805663
    13  H    2.123192   3.428689   2.491381   3.861169   3.183141
    14  C    2.486701   1.327202   2.999635   2.084775   3.800871
    15  H    2.751266   2.108834   2.996870   3.064952   3.525317
    16  H    3.469686   2.104154   4.040561   2.414231   4.492163
                    6          7          8          9         10
     6  H    0.000000
     7  H    1.847598   0.000000
     8  C    2.107202   2.108792   0.000000
     9  H    3.075668   2.454978   1.086380   0.000000
    10  H    2.467000   3.083838   1.087835   1.855820   0.000000
    11  C    2.727364   3.105566   3.548305   4.167194   3.882139
    12  H    2.376433   3.347886   3.278359   4.087312   3.324410
    13  H    2.859181   3.125428   4.119472   4.754582   4.578638
    14  C    4.384750   4.113693   3.178638   3.008241   3.345706
    15  H    4.322262   3.613659   2.931895   2.465661   3.404865
    16  H    5.045864   4.948478   3.622297   3.404256   3.517043
                   11         12         13         14         15
    11  C    0.000000
    12  H    1.085781   0.000000
    13  H    1.081050   1.848588   0.000000
    14  C    3.411723   3.516575   4.376325   0.000000
    15  H    3.676472   3.948791   4.480535   1.086861   0.000000
    16  H    4.298789   4.203348   5.317485   1.087461   1.859927
                   16
    16  H    0.000000
 Stoichiometry    C6H10
 Framework group  C1[X(C6H10)]
 Deg. of freedom    42
 Full point group                 C1      NOp   1
 Largest Abelian subgroup         C1      NOp   1
 Largest concise Abelian subgroup C1      NOp   1
                         Standard orientation:                         
 ---------------------------------------------------------------------
 Center     Atomic      Atomic             Coordinates (Angstroms)
 Number     Number       Type             X           Y           Z
 ---------------------------------------------------------------------
      1          6           0       -1.263679    0.857093    0.382643
      2          6           0       -1.570338   -0.441885   -0.261554
      3          1           0       -1.640080    1.074013    1.381179
      4          1           0       -2.101594   -0.391234   -1.209366
      5          6           0        2.099717    0.411870    0.167408
      6          1           0        2.175796    1.182077   -0.593901
      7          1           0        2.085925    0.749553    1.200107
      8          6           0        1.958096   -0.866103   -0.149085
      9          1           0        1.857169   -1.625260    0.621444
     10          1           0        1.920072   -1.199663   -1.183820
     11          6           0       -0.479485    1.709875   -0.263106
     12          1           0       -0.095242    1.443573   -1.243085
     13          1           0       -0.158515    2.655200    0.151631
     14          6           0       -1.115487   -1.615204    0.160225
     15          1           0       -0.561973   -1.707127    1.091052
     16          1           0       -1.254495   -2.515004   -0.434424
 ---------------------------------------------------------------------
 Rotational constants (GHZ):           3.9245404           2.4644367           1.6555786
 Leave Link  202 at Mon Oct  6 14:28:00 2025, MaxMem=   104857600 cpu:               0.0 elap:               0.0
 (Enter /home/zhouoh/g16/l301.exe)
 Standard basis: STO-3G (5D, 7F)
 Ernie: Thresh=  0.10000D-02 Tol=  0.10000D-05 Strict=F.
 There are    40 symmetry adapted cartesian basis functions of A   symmetry.
 There are    40 symmetry adapted basis functions of A   symmetry.
    40 basis functions,   120 primitive gaussians,    40 cartesian basis functions
    23 alpha electrons       23 beta electrons
       nuclear repulsion energy       209.6290751703 Hartrees.
 IExCor=    0 DFT=F Ex=HF Corr=None ExCW=0 ScaHFX=  1.000000
 ScaDFX=  1.000000  1.000000  1.000000  1.000000 ScalE2=  1.000000  1.000000
 IRadAn=      5 IRanWt=     -1 IRanGd=            0 ICorTp=0 IEmpDi=  4
 NAtoms=   16 NActive=   16 NUniq=   16 SFac= 1.00D+00 NAtFMM=   60 NAOKFM=F Big=F
 Integral buffers will be    131072 words long.
 Raffenetti 1 integral format.
 Two-electron integral symmetry is turned on.
 Leave Link  301 at Mon Oct  6 14:28:00 2025, MaxMem=   104857600 cpu:               0.0 elap:               0.0
 (Enter /home/zhouoh/g16/l402.exe)
 External calculation of energy, first and second derivatives.
 Running external command "python ../GauUMA_client.py R"
         input file       "/home/zhouoh/scratch/Gau-2817891.EIn"
         output file      "/home/zhouoh/scratch/Gau-2817891.EOu"
         message file     "/home/zhouoh/scratch/Gau-2817891.EMs"
         fchk file        "/home/zhouoh/scratch/Gau-2817891.EFC"
         mat. el file     "/home/zhouoh/scratch/Gau-2817891.EUF"
Sent job to server.
Received result from server:
SCF Done:  E(UMA) =  -234.51643375906207     A.U.
 Recovered energy= -234.516433759     dipole=      0.000000000000      0.000000000000      0.000000000000
 Energy=    -234.516434     NIter=   0.
 Dipole moment=       0.000000       0.000000       0.000000
 Leave Link  402 at Mon Oct  6 14:28:02 2025, MaxMem=   104857600 cpu:               0.0 elap:               2.6
 (Enter /home/zhouoh/g16/l601.exe)
 Leave Link  601 at Mon Oct  6 14:28:02 2025, MaxMem=   104857600 cpu:               0.0 elap:               0.0
 (Enter /home/zhouoh/g16/l716.exe)
 Dipole        = 0.00000000D+00 0.00000000D+00 0.00000000D+00
 ***** Axes restored to original set *****
 -------------------------------------------------------------------
 Center     Atomic                   Forces (Hartrees/Bohr)
 Number     Number              X              Y              Z
 -------------------------------------------------------------------
      1        6           0.001887381    0.000324198   -0.000489807
      2        6           0.001970949    0.000371776    0.001272839
      3        1           0.002607472    0.001763061    0.000626052
      4        1          -0.000195103    0.000574024    0.001057075
      5        6           0.000832432   -0.000543417    0.001071155
      6        1          -0.000461413    0.000661584    0.003346721
      7        1           0.002547503    0.001994382    0.000433688
      8        6          -0.000418558    0.002281182    0.001022685
      9        1           0.001663169    0.001954895   -0.001777971
     10        1          -0.003199832    0.000031572    0.001795666
     11        6          -0.001042298   -0.002218377   -0.002883053
     12        1          -0.002167316   -0.000886691   -0.002477595
     13        1          -0.001496969   -0.001248988   -0.000960348
     14        6          -0.000445842   -0.002484813    0.000221350
     15        1           0.002158885   -0.000773584   -0.001895703
     16        1          -0.004240461   -0.001800805   -0.000362754
 -------------------------------------------------------------------
 Cartesian Forces:  Max     0.004240461 RMS     0.001725485
 FormGI is forming the generalized inverse of G from B-inverse, IUseBI=4.
 Leave Link  716 at Mon Oct  6 14:28:02 2025, MaxMem=   104857600 cpu:               0.0 elap:               0.0
 (Enter /home/zhouoh/g16/l103.exe)

 GradGradGradGradGradGradGradGradGradGradGradGradGradGradGradGradGradGrad
 Berny optimization.
 Red2BG is reusing G-inverse.
 Internal  Forces:  Max     0.007947438 RMS     0.002283012
 Search for a saddle point.
 Step number   1 out of a maximum of   74
 All quantities printed in internal units (Hartrees-Bohrs-Radians)
 Swapping is turned off.
 Second derivative matrix not updated -- analytic derivatives used.
 ITU=  0
     Eigenvalues ---   -0.00188   0.00214   0.00266   0.00413   0.00608
     Eigenvalues ---    0.00754   0.01431   0.01909   0.02163   0.02324
     Eigenvalues ---    0.02500   0.02574   0.02793   0.02960   0.03066
     Eigenvalues ---    0.03784   0.06355   0.07773   0.10054   0.10219
     Eigenvalues ---    0.10254   0.10556   0.10721   0.11017   0.11979
     Eigenvalues ---    0.13905   0.14478   0.15450   0.31845   0.33660
     Eigenvalues ---    0.34806   0.34989   0.35094   0.35162   0.35184
     Eigenvalues ---    0.35356   0.35414   0.35724   0.36527   0.60629
     Eigenvalues ---    0.63924   0.64589
 Eigenvectors required to have negative eigenvalues:
                          D1        D2        D3        D4        A22
   1                   -0.47156  -0.43307  -0.41246  -0.37397   0.25830
                          R12       R9        D23       D24       D19
   1                   -0.19529  -0.18701  -0.18120  -0.16536   0.16136
 RFO step:  Lambda0=1.451994849D-03 Lambda=-5.64711155D-03.
 Linear search not attempted -- option 19 set.
 Maximum step size (   0.300) exceeded in Quadratic search.
    -- Step size scaled by   0.845
 Iteration  1 RMS(Cart)=  0.13947617 RMS(Int)=  0.02213677
 Iteration  2 RMS(Cart)=  0.02865532 RMS(Int)=  0.00204831
 Iteration  3 RMS(Cart)=  0.00061053 RMS(Int)=  0.00197116
 Iteration  4 RMS(Cart)=  0.00000061 RMS(Int)=  0.00197116
 ITry= 1 IFail=0 DXMaxC= 6.10D-01 DCOld= 1.00D+10 DXMaxT= 3.00D-01 DXLimC= 3.00D+00 Rises=F
 Variable       Old X    -DE/DX   Delta X   Delta X   Delta X     New X
                                 (Linear)    (Quad)   (Total)
    R1        2.80061   0.00021   0.00000   0.01048   0.00918   2.80979
    R2        2.05781  -0.00301   0.00000  -0.00413  -0.00413   2.05368
    R3        2.50643  -0.00086   0.00000  -0.00416  -0.00442   2.50200
    R4        2.05550  -0.00097   0.00000  -0.00147  -0.00147   2.05403
    R5        2.50805  -0.00126   0.00000  -0.00429  -0.00387   2.50418
    R6        2.05155  -0.00010   0.00000  -0.00352  -0.00412   2.04743
    R7        2.05337  -0.00266   0.00000  -0.00566  -0.00566   2.04771
    R8        2.50233  -0.00196   0.00000  -0.00473  -0.00369   2.49864
    R9        4.49081   0.00502   0.00000   0.09824   0.09696   4.58777
   R10        2.05296  -0.00167   0.00000  -0.00565  -0.00624   2.04672
   R11        2.05571  -0.00354   0.00000  -0.00793  -0.00793   2.04778
   R12        4.65942   0.00384   0.00000   0.04378   0.04447   4.70389
   R13        2.05183  -0.00065   0.00000  -0.00355  -0.00254   2.04929
   R14        2.04289   0.00093   0.00000   0.00247   0.00247   2.04535
   R15        2.05387  -0.00168   0.00000  -0.00434  -0.00254   2.05133
   R16        2.05500  -0.00355   0.00000  -0.00779  -0.00779   2.04721
    A1        2.09632  -0.00428   0.00000  -0.03883  -0.03925   2.05706
    A2        2.06492   0.00795   0.00000   0.06783   0.06712   2.13204
    A3        2.12085  -0.00371   0.00000  -0.02635  -0.02680   2.09405
    A4        2.02529   0.00128   0.00000   0.01579   0.01386   2.03916
    A5        2.17222  -0.00111   0.00000  -0.00742  -0.00848   2.16374
    A6        2.07770  -0.00000   0.00000   0.00410   0.00222   2.07992
    A7        2.03408  -0.00139   0.00000  -0.00020   0.00034   2.03441
    A8        2.12303   0.00277   0.00000   0.00216   0.00076   2.12378
    A9        2.12437  -0.00137   0.00000  -0.00081  -0.00012   2.12425
   A10        1.77487   0.00201   0.00000  -0.01903  -0.02340   1.75147
   A11        2.11160  -0.00064   0.00000   0.00416   0.00342   2.11503
   A12        2.12588   0.00078   0.00000   0.00152   0.00194   2.12782
   A13        2.04556  -0.00015   0.00000  -0.00578  -0.00546   2.04010
   A14        1.82290   0.00107   0.00000  -0.05197  -0.05082   1.77208
   A15        2.08399  -0.00038   0.00000   0.01626   0.01830   2.10230
   A16        2.15435  -0.00145   0.00000  -0.02488  -0.02598   2.12838
   A17        2.04391   0.00177   0.00000   0.00919   0.00817   2.05208
   A18        1.68970   0.00503   0.00000   0.14322   0.14203   1.83173
   A19        2.11938   0.00171   0.00000   0.00174   0.00528   2.12466
   A20        2.11053  -0.00009   0.00000   0.00336   0.00147   2.11200
   A21        2.05267  -0.00162   0.00000  -0.00433  -0.00621   2.04645
   A22        1.91107   0.00106   0.00000   0.20647   0.20945   2.12052
    D1        2.11242  -0.00044   0.00000  -0.35576  -0.35473   1.75769
    D2       -1.16633   0.00097   0.00000  -0.24860  -0.24712  -1.41345
    D3       -1.07887  -0.00142   0.00000  -0.29681  -0.29616  -1.37503
    D4        1.92557  -0.00000   0.00000  -0.18966  -0.18854   1.73702
    D5        0.01302  -0.00022   0.00000  -0.04206  -0.04063  -0.02761
    D6       -3.08082   0.00101   0.00000  -0.05703  -0.05599  -3.13680
    D7        3.10419  -0.00122   0.00000   0.01744   0.01886   3.12305
    D8        0.01034   0.00001   0.00000   0.00247   0.00351   0.01385
    D9        0.11883  -0.00313   0.00000  -0.09510  -0.09347   0.02536
   D10       -2.98443  -0.00290   0.00000  -0.11913  -0.11875  -3.10318
   D11        3.11944  -0.00159   0.00000   0.01585   0.01732   3.13676
   D12        0.01618  -0.00135   0.00000  -0.00817  -0.00796   0.00822
   D13       -1.71136  -0.00040   0.00000  -0.03712  -0.03382  -1.74518
   D14        1.36836  -0.00039   0.00000  -0.01651  -0.01265   1.35571
   D15       -3.11369   0.00192   0.00000   0.00842   0.00880  -3.10489
   D16        0.00883   0.00103   0.00000   0.00203   0.00361   0.01244
   D17       -0.03717   0.00194   0.00000   0.03012   0.03107  -0.00610
   D18        3.08536   0.00105   0.00000   0.02373   0.02589   3.11124
   D19        1.02136  -0.00181   0.00000   0.04663   0.05229   1.07364
   D20        1.52626  -0.00028   0.00000  -0.02385  -0.01875   1.50751
   D21       -1.59711   0.00057   0.00000  -0.01783  -0.01389  -1.61100
   D22        0.69270   0.00303   0.00000   0.11011   0.11623   0.80892
   D23       -1.92871   0.00459   0.00000  -0.03342  -0.03189  -1.96060
   D24        1.16812   0.00335   0.00000  -0.02034  -0.01814   1.14998
   D25       -1.66084   0.00107   0.00000  -0.02499  -0.02547  -1.68631
   D26        1.44364   0.00087   0.00000  -0.00158  -0.00094   1.44270
         Item               Value     Threshold  Converged?
 Maximum Force            0.007947     0.000450     NO 
 RMS     Force            0.002283     0.000300     NO 
 Maximum Displacement     0.609931     0.001800     NO 
 RMS     Displacement     0.163682     0.001200     NO 
 Predicted change in Energy=-2.207341D-03
 GradGradGradGradGradGradGradGradGradGradGradGradGradGradGradGradGradGrad

 Leave Link  103 at Mon Oct  6 14:28:02 2025, MaxMem=   104857600 cpu:               0.0 elap:               0.0
 (Enter /home/zhouoh/g16/l202.exe)
                          Input orientation:                          
 ---------------------------------------------------------------------
 Center     Atomic      Atomic             Coordinates (Angstroms)
 Number     Number       Type             X           Y           Z
 ---------------------------------------------------------------------
      1          6           0       -1.179538   -1.166238   -1.146208
      2          6           0        0.072874   -1.783662   -0.635280
      3          1           0       -2.086711   -1.764197   -1.123085
      4          1           0        0.770374   -2.164221   -1.376980
      5          6           0       -0.875404    1.875528    0.863086
      6          1           0       -0.746766    2.454404   -0.043679
      7          1           0       -1.895212    1.689520    1.178656
      8          6           0        0.157705    1.381382    1.523982
      9          1           0        0.018275    0.775517    2.410857
     10          1           0        1.177825    1.542201    1.195710
     11          6           0       -1.211826    0.066555   -1.628044
     12          1           0       -0.314950    0.676060   -1.638970
     13          1           0       -2.126351    0.514226   -1.995096
     14          6           0        0.389414   -1.861974    0.649127
     15          1           0       -0.273847   -1.491065    1.424275
     16          1           0        1.332210   -2.291021    0.966423
 ---------------------------------------------------------------------
                    Distance matrix (angstroms):
                    1          2          3          4          5
     1  C    0.000000
     2  C    1.486875   0.000000
     3  H    1.086762   2.214077   0.000000
     4  H    2.202586   1.086946   2.896104   0.000000
     5  C    3.658155   4.066202   4.319692   4.903678   0.000000
     6  H    3.809450   4.356948   4.556003   5.040942   1.083452
     7  H    3.751338   4.384828   4.154858   5.337410   1.083601
     8  C    3.925367   3.832376   4.683913   4.621931   1.322225
     9  H    4.225859   3.978860   4.834239   4.853393   2.098638
    10  H    4.286886   3.954087   5.192907   4.530156   2.106537
    11  C    1.324004   2.461572   2.090947   2.994747   3.096981
    12  H    2.093893   2.684778   3.059433   3.051846   2.830745
    13  H    2.107373   3.459187   2.439915   3.993390   3.404000
    14  C    2.483725   1.325153   3.046554   2.083649   3.951514
    15  H    2.744663   2.108931   3.138490   3.064403   3.465653
    16  H    3.469471   2.099713   4.041363   2.413146   4.716394
                    6          7          8          9         10
     6  H    0.000000
     7  H    1.843388   0.000000
     8  C    2.104045   2.104440   0.000000
     9  H    3.070619   2.452581   1.083080   0.000000
    10  H    2.464194   3.076614   1.083638   1.846333   0.000000
    11  C    2.903156   3.313397   3.679626   4.281179   3.982656
    12  H    2.427741   3.385757   3.274927   4.064730   3.318733
    13  H    3.078242   3.392262   4.284014   4.907149   4.706969
    14  C    4.516858   4.255940   3.367257   3.193399   3.536772
    15  H    4.236185   3.578445   2.906395   2.489191   3.370504
    16  H    5.278400   5.128938   3.895752   3.635447   3.843176
                   11         12         13         14         15
    11  C    0.000000
    12  H    1.084436   0.000000
    13  H    1.082355   1.853157   0.000000
    14  C    3.386547   3.489002   4.355148   0.000000
    15  H    3.552834   3.752544   4.375507   1.085515   0.000000
    16  H    4.331460   4.278409   5.348051   1.083339   1.851750
                   16
    16  H    0.000000
 Stoichiometry    C6H10
 Framework group  C1[X(C6H10)]
 Deg. of freedom    42
 Full point group                 C1      NOp   1
 RotChk:  IX=0 Diff= 3.93D-02
 Largest Abelian subgroup         C1      NOp   1
 Largest concise Abelian subgroup C1      NOp   1
                         Standard orientation:                         
 ---------------------------------------------------------------------
 Center     Atomic      Atomic             Coordinates (Angstroms)
 Number     Number       Type             X           Y           Z
 ---------------------------------------------------------------------
      1          6           0       -1.388576    0.844101    0.329102
      2          6           0       -1.687129   -0.496044   -0.241577
      3          1           0       -1.884698    1.123991    1.254616
      4          1           0       -2.394337   -0.531729   -1.066219
      5          6           0        2.245124    0.447631    0.183705
      6          1           0        2.296262    1.241597   -0.551736
      7          1           0        2.253161    0.749757    1.224304
      8          6           0        2.130785   -0.821047   -0.170782
      9          1           0        2.046486   -1.605287    0.571460
     10          1           0        2.094574   -1.124333   -1.210483
     11          6           0       -0.556870    1.690639   -0.257946
     12          1           0       -0.044542    1.412736   -1.172436
     13          1           0       -0.338629    2.663708    0.162768
     14          6           0       -1.122020   -1.620390    0.173789
     15          1           0       -0.407034   -1.632251    0.990488
     16          1           0       -1.349133   -2.567536   -0.300508
 ---------------------------------------------------------------------
 Rotational constants (GHZ):           3.9921656           2.1564822           1.5066696
 Leave Link  202 at Mon Oct  6 14:28:02 2025, MaxMem=   104857600 cpu:               0.0 elap:               0.0
 (Enter /home/zhouoh/g16/l301.exe)
 Standard basis: STO-3G (5D, 7F)
 Ernie: Thresh=  0.10000D-02 Tol=  0.10000D-05 Strict=F.
 There are    40 symmetry adapted cartesian basis functions of A   symmetry.
 There are    40 symmetry adapted basis functions of A   symmetry.
    40 basis functions,   120 primitive gaussians,    40 cartesian basis functions
    23 alpha electrons       23 beta electrons
       nuclear repulsion energy       205.7288186601 Hartrees.
 IExCor=    0 DFT=F Ex=HF Corr=None ExCW=0 ScaHFX=  1.000000
 ScaDFX=  1.000000  1.000000  1.000000  1.000000 ScalE2=  1.000000  1.000000
 IRadAn=      5 IRanWt=     -1 IRanGd=            0 ICorTp=0 IEmpDi=  4
 NAtoms=   16 NActive=   16 NUniq=   16 SFac= 1.00D+00 NAtFMM=   60 NAOKFM=F Big=F
 Integral buffers will be    131072 words long.
 Raffenetti 1 integral format.
 Two-electron integral symmetry is turned on.
 Leave Link  301 at Mon Oct  6 14:28:02 2025, MaxMem=   104857600 cpu:               0.0 elap:               0.0
 (Enter /home/zhouoh/g16/l402.exe)
 External calculation of energy, first and second derivatives.
 Running external command "python ../GauUMA_client.py R"
         input file       "/home/zhouoh/scratch/Gau-2817891.EIn"
         output file      "/home/zhouoh/scratch/Gau-2817891.EOu"
         message file     "/home/zhouoh/scratch/Gau-2817891.EMs"
         fchk file        "/home/zhouoh/scratch/Gau-2817891.EFC"
         mat. el file     "/home/zhouoh/scratch/Gau-2817891.EUF"
Sent job to server.
Received result from server:
SCF Done:  E(UMA) =  -234.51902299441605     A.U.
 Recovered energy= -234.519022994     dipole=      0.000000000000      0.000000000000      0.000000000000
 Energy=    -234.519023     NIter=   0.
 Dipole moment=       0.000000       0.000000       0.000000
 Leave Link  402 at Mon Oct  6 14:28:05 2025, MaxMem=   104857600 cpu:               0.0 elap:               2.6
 (Enter /home/zhouoh/g16/l716.exe)
 Dipole        = 0.00000000D+00 0.00000000D+00 0.00000000D+00
 ***** Axes restored to original set *****
 -------------------------------------------------------------------
 Center     Atomic                   Forces (Hartrees/Bohr)
 Number     Number              X              Y              Z
 -------------------------------------------------------------------
      1        6           0.002194364   -0.001330650   -0.000590507
      2        6          -0.001386860    0.000874574    0.000516422
      3        1           0.000533639    0.000072896    0.000252774
      4        1          -0.000321255    0.000078309    0.000061359
      5        6           0.000459613   -0.000022587    0.000625174
      6        1          -0.000058579    0.001170313    0.001638074
      7        1           0.000525378    0.000568087    0.000218106
      8        6          -0.000635404    0.001076845    0.000380769
      9        1           0.000713073    0.001046302    0.000482281
     10        1          -0.000544845    0.000079176    0.000344279
     11        6           0.000157844   -0.000067488   -0.000785799
     12        1          -0.001334748   -0.000942922   -0.001923923
     13        1          -0.000170427   -0.000271606   -0.000365244
     14        6          -0.000178032   -0.000928931    0.001020120
     15        1           0.000884710   -0.000898960   -0.001962198
     16        1          -0.000838471   -0.000503359    0.000088313
 -------------------------------------------------------------------
 Cartesian Forces:  Max     0.002194364 RMS     0.000856634
 FormGI is forming the generalized inverse of G from B-inverse, IUseBI=4.
 Leave Link  716 at Mon Oct  6 14:28:05 2025, MaxMem=   104857600 cpu:               0.0 elap:               0.0
 (Enter /home/zhouoh/g16/l103.exe)

 GradGradGradGradGradGradGradGradGradGradGradGradGradGradGradGradGradGrad
 Berny optimization.
 Red2BG is reusing G-inverse.
 Internal  Forces:  Max     0.003056218 RMS     0.000904095
 Search for a saddle point.
 Step number   2 out of a maximum of   74
 All quantities printed in internal units (Hartrees-Bohrs-Radians)
 Swapping is turned off.
 Second derivative matrix not updated -- analytic derivatives used.
 ITU=  0  0
     Eigenvalues ---   -0.00314   0.00064   0.00123   0.00219   0.00353
     Eigenvalues ---    0.00430   0.00814   0.01635   0.02116   0.02215
     Eigenvalues ---    0.02472   0.02589   0.02709   0.02951   0.03058
     Eigenvalues ---    0.03263   0.05897   0.06303   0.09910   0.10280
     Eigenvalues ---    0.10398   0.10644   0.10736   0.11429   0.11572
     Eigenvalues ---    0.13864   0.14404   0.15000   0.31328   0.34286
     Eigenvalues ---    0.35047   0.35167   0.35304   0.35455   0.35900
     Eigenvalues ---    0.36076   0.36106   0.36257   0.36293   0.62054
     Eigenvalues ---    0.64233   0.65463
 Eigenvectors required to have negative eigenvalues:
                          D1        D2        D3        D4        A22
   1                    0.45909   0.43307   0.42474   0.39872  -0.31476
                          D23       D24       D19       A18       A10
   1                    0.19769   0.17920  -0.16641  -0.13679   0.09249
 RFO step:  Lambda0=2.113546172D-05 Lambda=-2.36367611D-03.
 Linear search not attempted -- option 19 set.
 Maximum step size (   0.300) exceeded in Quadratic search.
    -- Step size scaled by   0.675
 Iteration  1 RMS(Cart)=  0.05902188 RMS(Int)=  0.00214497
 Iteration  2 RMS(Cart)=  0.00274232 RMS(Int)=  0.00019066
 Iteration  3 RMS(Cart)=  0.00000180 RMS(Int)=  0.00019066
 Iteration  4 RMS(Cart)=  0.00000000 RMS(Int)=  0.00019066
 ITry= 1 IFail=0 DXMaxC= 1.36D-01 DCOld= 1.00D+10 DXMaxT= 3.00D-01 DXLimC= 3.00D+00 Rises=F
 Variable       Old X    -DE/DX   Delta X   Delta X   Delta X     New X
                                 (Linear)    (Quad)   (Total)
    R1        2.80979  -0.00136   0.00000  -0.00395  -0.00389   2.80589
    R2        2.05368  -0.00048   0.00000  -0.00013  -0.00013   2.05356
    R3        2.50200   0.00074   0.00000   0.00060   0.00054   2.50254
    R4        2.05403  -0.00028   0.00000  -0.00024  -0.00024   2.05379
    R5        2.50418   0.00024   0.00000  -0.00039  -0.00039   2.50379
    R6        2.04743   0.00042   0.00000  -0.00044  -0.00038   2.04705
    R7        2.04771  -0.00053   0.00000  -0.00087  -0.00087   2.04684
    R8        2.49864  -0.00054   0.00000  -0.00058  -0.00064   2.49801
    R9        4.58777   0.00306   0.00000   0.21808   0.21807   4.80584
   R10        2.04672   0.00003   0.00000  -0.00011  -0.00004   2.04668
   R11        2.04778  -0.00061   0.00000  -0.00104  -0.00104   2.04674
   R12        4.70389   0.00231   0.00000   0.19919   0.19926   4.90315
   R13        2.04929  -0.00041   0.00000  -0.00128  -0.00141   2.04788
   R14        2.04535   0.00016   0.00000   0.00011   0.00011   2.04546
   R15        2.05133  -0.00094   0.00000  -0.00260  -0.00266   2.04866
   R16        2.04721  -0.00050   0.00000  -0.00120  -0.00120   2.04601
    A1        2.05706  -0.00149   0.00000  -0.01308  -0.01308   2.04398
    A2        2.13204   0.00233   0.00000   0.02082   0.02080   2.15284
    A3        2.09405  -0.00083   0.00000  -0.00773  -0.00772   2.08633
    A4        2.03916  -0.00047   0.00000  -0.00214  -0.00226   2.03690
    A5        2.16374   0.00063   0.00000   0.00249   0.00247   2.16621
    A6        2.07992  -0.00015   0.00000   0.00027   0.00015   2.08007
    A7        2.03441  -0.00038   0.00000   0.00101   0.00090   2.03532
    A8        2.12378   0.00083   0.00000  -0.00027  -0.00015   2.12363
    A9        2.12425  -0.00045   0.00000  -0.00022  -0.00033   2.12392
   A10        1.75147   0.00086   0.00000   0.01863   0.01831   1.76979
   A11        2.11503  -0.00007   0.00000   0.00328   0.00331   2.11834
   A12        2.12782   0.00008   0.00000  -0.00161  -0.00163   2.12619
   A13        2.04010  -0.00002   0.00000  -0.00160  -0.00162   2.03848
   A14        1.77208   0.00010   0.00000  -0.02559  -0.02572   1.74636
   A15        2.10230   0.00001   0.00000   0.00874   0.00851   2.11081
   A16        2.12838  -0.00028   0.00000  -0.00692  -0.00682   2.12155
   A17        2.05208   0.00025   0.00000  -0.00159  -0.00149   2.05059
   A18        1.83173   0.00240   0.00000   0.02753   0.02682   1.85855
   A19        2.12466   0.00035   0.00000  -0.00282  -0.00288   2.12179
   A20        2.11200   0.00003   0.00000   0.00192   0.00195   2.11395
   A21        2.04645  -0.00039   0.00000   0.00091   0.00093   2.04738
   A22        2.12052   0.00065   0.00000   0.00472   0.00411   2.12463
    D1        1.75769  -0.00037   0.00000  -0.00447  -0.00466   1.75303
    D2       -1.41345   0.00006   0.00000   0.02015   0.01992  -1.39353
    D3       -1.37503  -0.00109   0.00000  -0.00491  -0.00515  -1.38017
    D4        1.73702  -0.00067   0.00000   0.01971   0.01942   1.75645
    D5       -0.02761   0.00019   0.00000   0.00446   0.00416  -0.02345
    D6       -3.13680   0.00072   0.00000  -0.00431  -0.00430  -3.14111
    D7        3.12305  -0.00055   0.00000   0.00403   0.00367   3.12672
    D8        0.01385  -0.00002   0.00000  -0.00473  -0.00478   0.00907
    D9        0.02536  -0.00119   0.00000  -0.02799  -0.02830  -0.00294
   D10       -3.10318  -0.00096   0.00000  -0.02842  -0.02850  -3.13168
   D11        3.13676  -0.00076   0.00000  -0.00287  -0.00319   3.13357
   D12        0.00822  -0.00053   0.00000  -0.00330  -0.00339   0.00483
   D13       -1.74518   0.00001   0.00000   0.00489   0.00485  -1.74033
   D14        1.35571  -0.00010   0.00000   0.01894   0.01880   1.37451
   D15       -3.10489   0.00088   0.00000  -0.00818  -0.00804  -3.11293
   D16        0.01244   0.00041   0.00000  -0.00484  -0.00479   0.00766
   D17       -0.00610   0.00077   0.00000   0.00662   0.00664   0.00055
   D18        3.11124   0.00030   0.00000   0.00996   0.00990   3.12114
   D19        1.07364  -0.00049   0.00000  -0.03563  -0.03616   1.03748
   D20        1.50751  -0.00011   0.00000  -0.00578  -0.00586   1.50164
   D21       -1.61100   0.00033   0.00000  -0.00895  -0.00895  -1.61996
   D22        0.80892   0.00114   0.00000   0.04171   0.04143   0.85035
   D23       -1.96060   0.00195   0.00000   0.04660   0.04681  -1.91379
   D24        1.14998   0.00144   0.00000   0.05488   0.05483   1.20481
   D25       -1.68631   0.00018   0.00000  -0.01564  -0.01560  -1.70191
   D26        1.44270  -0.00005   0.00000  -0.01522  -0.01540   1.42730
         Item               Value     Threshold  Converged?
 Maximum Force            0.003056     0.000450     NO 
 RMS     Force            0.000904     0.000300     NO 
 Maximum Displacement     0.135991     0.001800     NO 
 RMS     Displacement     0.061287     0.001200     NO 
 Predicted change in Energy=-1.163912D-03
 GradGradGradGradGradGradGradGradGradGradGradGradGradGradGradGradGradGrad

 Leave Link  103 at Mon Oct  6 14:28:05 2025, MaxMem=   104857600 cpu:               0.0 elap:               0.0
 (Enter /home/zhouoh/g16/l202.exe)
                          Input orientation:                          
 ---------------------------------------------------------------------
 Center     Atomic      Atomic             Coordinates (Angstroms)
 Number     Number       Type             X           Y           Z
 ---------------------------------------------------------------------
      1          6           0       -1.168047   -1.195411   -1.181913
      2          6           0        0.079958   -1.801949   -0.653457
      3          1           0       -2.065507   -1.807647   -1.156629
      4          1           0        0.782913   -2.189570   -1.386109
      5          6           0       -0.864250    1.926545    0.918216
      6          1           0       -0.742132    2.503342    0.009466
      7          1           0       -1.880601    1.754127    1.250620
      8          6           0        0.173272    1.431790    1.571021
      9          1           0        0.044140    0.833657    2.464651
     10          1           0        1.189498    1.587217    1.230124
     11          6           0       -1.227644    0.030211   -1.679951
     12          1           0       -0.349842    0.665257   -1.703748
     13          1           0       -2.153981    0.443903   -2.057279
     14          6           0        0.376606   -1.888111    0.634979
     15          1           0       -0.292716   -1.507558    1.398178
     16          1           0        1.306409   -2.332787    0.966605
 ---------------------------------------------------------------------
                    Distance matrix (angstroms):
                    1          2          3          4          5
     1  C    0.000000
     2  C    1.484814   0.000000
     3  H    1.086695   2.203688   0.000000
     4  H    2.199157   1.086819   2.883058   0.000000
     5  C    3.774844   4.154919   4.437588   4.996545   0.000000
     6  H    3.909165   4.432926   4.657868   5.128043   1.083252
     7  H    3.889052   4.484972   4.302937   5.440532   1.083139
     8  C    4.034845   3.926077   4.790216   4.714927   1.321888
     9  H    4.345567   4.082928   4.953864   4.951166   2.100247
    10  H    4.372523   4.033038   5.274159   4.612386   2.104830
    11  C    1.324290   2.473929   2.086529   3.009337   3.237068
    12  H    2.098537   2.715685   3.059101   3.087728   2.954685
    13  H    2.103731   3.464831   2.426619   4.001374   3.565839
    14  C    2.483321   1.324949   3.029893   2.083449   4.021386
    15  H    2.742356   2.105887   3.124082   3.061760   3.514267
    16  H    3.468816   2.100135   4.019168   2.414502   4.780796
                    6          7          8          9         10
     6  H    0.000000
     7  H    1.843339   0.000000
     8  C    2.103483   2.103557   0.000000
     9  H    3.071483   2.454744   1.083058   0.000000
    10  H    2.461805   3.074701   1.083090   1.844927   0.000000
    11  C    3.034177   3.462150   3.807337   4.409160   4.090889
    12  H    2.543139   3.501022   3.403724   4.190362   3.439067
    13  H    3.241303   3.568420   4.422284   5.042966   4.826286
    14  C    4.574681   4.328960   3.455325   3.296401   3.618411
    15  H    4.268233   3.630667   2.981071   2.594633   3.435525
    16  H    5.338612   5.190430   3.977608   3.723417   3.930591
                   11         12         13         14         15
    11  C    0.000000
    12  H    1.083691   0.000000
    13  H    1.082413   1.851729   0.000000
    14  C    3.407709   3.537946   4.369258   0.000000
    15  H    3.565628   3.787656   4.383229   1.084106   0.000000
    16  H    4.359982   4.343065   5.369188   1.082703   1.850529
                   16
    16  H    0.000000
 Stoichiometry    C6H10
 Framework group  C1[X(C6H10)]
 Deg. of freedom    42
 Full point group                 C1      NOp   1
 RotChk:  IX=0 Diff= 4.40D-02
 Largest Abelian subgroup         C1      NOp   1
 Largest concise Abelian subgroup C1      NOp   1
                         Standard orientation:                         
 ---------------------------------------------------------------------
 Center     Atomic      Atomic             Coordinates (Angstroms)
 Number     Number       Type             X           Y           Z
 ---------------------------------------------------------------------
      1          6           0       -1.454717    0.805329    0.319803
      2          6           0       -1.694892   -0.545272   -0.248408
      3          1           0       -1.968409    1.051821    1.245151
      4          1           0       -2.403615   -0.610655   -1.069755
      5          6           0        2.304776    0.492049    0.187448
      6          1           0        2.327352    1.295379   -0.538903
      7          1           0        2.325964    0.780834    1.231165
      8          6           0        2.223887   -0.774857   -0.181053
      9          1           0        2.175203   -1.572637    0.549831
     10          1           0        2.183766   -1.064864   -1.223823
     11          6           0       -0.665058    1.704120   -0.247962
     12          1           0       -0.131161    1.477703   -1.163426
     13          1           0       -0.510275    2.680810    0.192194
     14          6           0       -1.099560   -1.648511    0.180466
     15          1           0       -0.380922   -1.626913    0.991872
     16          1           0       -1.304518   -2.608622   -0.276071
 ---------------------------------------------------------------------
 Rotational constants (GHZ):           3.9468989           2.0394607           1.4423367
 Leave Link  202 at Mon Oct  6 14:28:05 2025, MaxMem=   104857600 cpu:               0.0 elap:               0.0
 (Enter /home/zhouoh/g16/l301.exe)
 Standard basis: STO-3G (5D, 7F)
 Ernie: Thresh=  0.10000D-02 Tol=  0.10000D-05 Strict=F.
 There are    40 symmetry adapted cartesian basis functions of A   symmetry.
 There are    40 symmetry adapted basis functions of A   symmetry.
    40 basis functions,   120 primitive gaussians,    40 cartesian basis functions
    23 alpha electrons       23 beta electrons
       nuclear repulsion energy       203.7664320064 Hartrees.
 IExCor=    0 DFT=F Ex=HF Corr=None ExCW=0 ScaHFX=  1.000000
 ScaDFX=  1.000000  1.000000  1.000000  1.000000 ScalE2=  1.000000  1.000000
 IRadAn=      5 IRanWt=     -1 IRanGd=            0 ICorTp=0 IEmpDi=  4
 NAtoms=   16 NActive=   16 NUniq=   16 SFac= 1.00D+00 NAtFMM=   60 NAOKFM=F Big=F
 Integral buffers will be    131072 words long.
 Raffenetti 1 integral format.
 Two-electron integral symmetry is turned on.
 Leave Link  301 at Mon Oct  6 14:28:05 2025, MaxMem=   104857600 cpu:               0.0 elap:               0.0
 (Enter /home/zhouoh/g16/l402.exe)
 External calculation of energy, first and second derivatives.
 Running external command "python ../GauUMA_client.py R"
         input file       "/home/zhouoh/scratch/Gau-2817891.EIn"
         output file      "/home/zhouoh/scratch/Gau-2817891.EOu"
         message file     "/home/zhouoh/scratch/Gau-2817891.EMs"
         fchk file        "/home/zhouoh/scratch/Gau-2817891.EFC"
         mat. el file     "/home/zhouoh/scratch/Gau-2817891.EUF"
Sent job to server.
Received result from server:
SCF Done:  E(UMA) =  -234.52023122261787     A.U.
 Recovered energy= -234.520231223     dipole=      0.000000000000      0.000000000000      0.000000000000
 Energy=    -234.520231     NIter=   0.
 Dipole moment=       0.000000       0.000000       0.000000
 Leave Link  402 at Mon Oct  6 14:28:08 2025, MaxMem=   104857600 cpu:               0.0 elap:               2.6
 (Enter /home/zhouoh/g16/l716.exe)
 Dipole        = 0.00000000D+00 0.00000000D+00 0.00000000D+00
 ***** Axes restored to original set *****
 -------------------------------------------------------------------
 Center     Atomic                   Forces (Hartrees/Bohr)
 Number     Number              X              Y              Z
 -------------------------------------------------------------------
      1        6           0.000710086   -0.000580183   -0.000214400
      2        6          -0.000445852    0.000392275    0.000134474
      3        1           0.000183594    0.000010917    0.000053553
      4        1          -0.000126502   -0.000033939    0.000027789
      5        6           0.000084583    0.000093462    0.000307307
      6        1           0.000018477    0.000766714    0.001031045
      7        1           0.000181390    0.000219348    0.000079374
      8        6          -0.000207702    0.000420141    0.000214668
      9        1           0.000387483    0.000804912    0.000418745
     10        1          -0.000170633    0.000040464    0.000130272
     11        6           0.000103645   -0.000188540   -0.000348114
     12        1          -0.000539935   -0.000602186   -0.001125278
     13        1          -0.000034544   -0.000122347   -0.000193542
     14        6          -0.000042576   -0.000393051    0.000410740
     15        1           0.000183190   -0.000655852   -0.000953247
     16        1          -0.000284705   -0.000172135    0.000026616
 -------------------------------------------------------------------
 Cartesian Forces:  Max     0.001125278 RMS     0.000418285
 FormGI is forming the generalized inverse of G from B-inverse, IUseBI=4.
 Leave Link  716 at Mon Oct  6 14:28:08 2025, MaxMem=   104857600 cpu:               0.0 elap:               0.0
 (Enter /home/zhouoh/g16/l103.exe)

 GradGradGradGradGradGradGradGradGradGradGradGradGradGradGradGradGradGrad
 Berny optimization.
 Red2BG is reusing G-inverse.
 Internal  Forces:  Max     0.001816560 RMS     0.000430347
 Search for a saddle point.
 Step number   3 out of a maximum of   74
 All quantities printed in internal units (Hartrees-Bohrs-Radians)
 Swapping is turned off.
 Second derivative matrix not updated -- analytic derivatives used.
 ITU=  0  0  0
     Eigenvalues ---   -0.00341   0.00012   0.00078   0.00136   0.00207
     Eigenvalues ---    0.00287   0.00551   0.01577   0.02116   0.02176
     Eigenvalues ---    0.02463   0.02591   0.02701   0.02943   0.03037
     Eigenvalues ---    0.03086   0.05591   0.06143   0.09876   0.10295
     Eigenvalues ---    0.10422   0.10654   0.10738   0.11518   0.11597
     Eigenvalues ---    0.13874   0.14434   0.14874   0.31606   0.34459
     Eigenvalues ---    0.35104   0.35306   0.35344   0.35583   0.35963
     Eigenvalues ---    0.36173   0.36232   0.36280   0.36306   0.62195
     Eigenvalues ---    0.64202   0.65614
 Eigenvectors required to have negative eigenvalues:
                          D1        D2        D3        D4        A22
   1                   -0.45689  -0.43318  -0.42797  -0.40426   0.31512
                          D23       D24       D19       A18       D25
   1                   -0.18627  -0.16755   0.15687   0.15176  -0.10314
 RFO step:  Lambda0=1.351993921D-05 Lambda=-1.19532555D-03.
 Linear search not attempted -- option 19 set.
 Maximum step size (   0.300) exceeded in Quadratic search.
    -- Step size scaled by   0.668
 Iteration  1 RMS(Cart)=  0.05301302 RMS(Int)=  0.00181922
 Iteration  2 RMS(Cart)=  0.00253903 RMS(Int)=  0.00010632
 Iteration  3 RMS(Cart)=  0.00000085 RMS(Int)=  0.00010632
 ITry= 1 IFail=0 DXMaxC= 1.28D-01 DCOld= 1.00D+10 DXMaxT= 3.00D-01 DXLimC= 3.00D+00 Rises=F
 Variable       Old X    -DE/DX   Delta X   Delta X   Delta X     New X
                                 (Linear)    (Quad)   (Total)
    R1        2.80589  -0.00045   0.00000  -0.00128  -0.00126   2.80463
    R2        2.05356  -0.00016   0.00000   0.00000   0.00000   2.05356
    R3        2.50254   0.00029   0.00000   0.00031   0.00027   2.50282
    R4        2.05379  -0.00009   0.00000  -0.00009  -0.00009   2.05370
    R5        2.50379   0.00018   0.00000  -0.00021  -0.00025   2.50355
    R6        2.04705   0.00018   0.00000  -0.00031  -0.00025   2.04680
    R7        2.04684  -0.00018   0.00000  -0.00032  -0.00032   2.04651
    R8        2.49801  -0.00014   0.00000   0.00004   0.00003   2.49804
    R9        4.80584   0.00182   0.00000   0.21250   0.21252   5.01836
   R10        2.04668  -0.00002   0.00000  -0.00006   0.00000   2.04669
   R11        2.04674  -0.00020   0.00000  -0.00033  -0.00033   2.04641
   R12        4.90315   0.00140   0.00000   0.20807   0.20809   5.11123
   R13        2.04788  -0.00006   0.00000  -0.00035  -0.00041   2.04747
   R14        2.04546   0.00005   0.00000  -0.00005  -0.00005   2.04542
   R15        2.04866  -0.00024   0.00000  -0.00093  -0.00099   2.04767
   R16        2.04601  -0.00017   0.00000  -0.00045  -0.00045   2.04556
    A1        2.04398  -0.00051   0.00000  -0.00496  -0.00496   2.03902
    A2        2.15284   0.00080   0.00000   0.00817   0.00816   2.16100
    A3        2.08633  -0.00028   0.00000  -0.00321  -0.00320   2.08313
    A4        2.03690  -0.00018   0.00000  -0.00060  -0.00059   2.03631
    A5        2.16621   0.00027   0.00000   0.00023   0.00015   2.16636
    A6        2.08007  -0.00009   0.00000   0.00042   0.00043   2.08050
    A7        2.03532  -0.00014   0.00000   0.00106   0.00102   2.03634
    A8        2.12363   0.00029   0.00000  -0.00090  -0.00086   2.12277
    A9        2.12392  -0.00015   0.00000   0.00006   0.00002   2.12394
   A10        1.76979   0.00045   0.00000   0.01550   0.01547   1.78525
   A11        2.11834  -0.00004   0.00000   0.00175   0.00182   2.12016
   A12        2.12619   0.00004   0.00000  -0.00113  -0.00117   2.12502
   A13        2.03848  -0.00001   0.00000  -0.00054  -0.00058   2.03790
   A14        1.74636  -0.00005   0.00000  -0.02891  -0.02895   1.71741
   A15        2.11081   0.00001   0.00000   0.00407   0.00397   2.11478
   A16        2.12155  -0.00009   0.00000  -0.00293  -0.00289   2.11866
   A17        2.05059   0.00008   0.00000  -0.00101  -0.00097   2.04962
   A18        1.85855   0.00113   0.00000   0.01504   0.01468   1.87323
   A19        2.12179   0.00024   0.00000  -0.00185  -0.00199   2.11979
   A20        2.11395  -0.00005   0.00000   0.00104   0.00111   2.11506
   A21        2.04738  -0.00019   0.00000   0.00082   0.00089   2.04827
   A22        2.12463   0.00021   0.00000  -0.00621  -0.00660   2.11803
    D1        1.75303  -0.00023   0.00000   0.00093   0.00082   1.75385
    D2       -1.39353  -0.00003   0.00000   0.01149   0.01135  -1.38218
    D3       -1.38017  -0.00052   0.00000   0.00171   0.00156  -1.37862
    D4        1.75645  -0.00033   0.00000   0.01227   0.01208   1.76853
    D5       -0.02345   0.00004   0.00000   0.00379   0.00363  -0.01981
    D6       -3.14111   0.00029   0.00000  -0.00283  -0.00282   3.13926
    D7        3.12672  -0.00027   0.00000   0.00460   0.00440   3.13112
    D8        0.00907  -0.00001   0.00000  -0.00202  -0.00206   0.00701
    D9       -0.00294  -0.00054   0.00000  -0.00997  -0.01014  -0.01308
   D10       -3.13168  -0.00043   0.00000  -0.01091  -0.01093   3.14058
   D11        3.13357  -0.00034   0.00000   0.00084   0.00063   3.13420
   D12        0.00483  -0.00023   0.00000  -0.00010  -0.00015   0.00467
   D13       -1.74033   0.00004   0.00000   0.00032   0.00030  -1.74004
   D14        1.37451  -0.00004   0.00000   0.00973   0.00969   1.38420
   D15       -3.11293   0.00042   0.00000  -0.00934  -0.00930  -3.12224
   D16        0.00766   0.00019   0.00000  -0.00426  -0.00426   0.00340
   D17        0.00055   0.00034   0.00000   0.00057   0.00058   0.00113
   D18        3.12114   0.00011   0.00000   0.00564   0.00562   3.12676
   D19        1.03748  -0.00023   0.00000  -0.01796  -0.01816   1.01932
   D20        1.50164  -0.00006   0.00000  -0.00427  -0.00431   1.49733
   D21       -1.61996   0.00015   0.00000  -0.00909  -0.00910  -1.62906
   D22        0.85035   0.00045   0.00000   0.03578   0.03556   0.88592
   D23       -1.91379   0.00092   0.00000   0.03201   0.03213  -1.88166
   D24        1.20481   0.00067   0.00000   0.03834   0.03831   1.24312
   D25       -1.70191  -0.00006   0.00000  -0.02671  -0.02663  -1.72855
   D26        1.42730  -0.00017   0.00000  -0.02580  -0.02587   1.40143
         Item               Value     Threshold  Converged?
 Maximum Force            0.001817     0.000450     NO 
 RMS     Force            0.000430     0.000300     NO 
 Maximum Displacement     0.128431     0.001800     NO 
 RMS     Displacement     0.055448     0.001200     NO 
 Predicted change in Energy=-5.822378D-04
 GradGradGradGradGradGradGradGradGradGradGradGradGradGradGradGradGradGrad

 Leave Link  103 at Mon Oct  6 14:28:08 2025, MaxMem=   104857600 cpu:               0.0 elap:               0.0
 (Enter /home/zhouoh/g16/l202.exe)
                          Input orientation:                          
 ---------------------------------------------------------------------
 Center     Atomic      Atomic             Coordinates (Angstroms)
 Number     Number       Type             X           Y           Z
 ---------------------------------------------------------------------
      1          6           0       -1.165207   -1.227346   -1.215256
      2          6           0        0.081874   -1.821746   -0.672884
      3          1           0       -2.056239   -1.848889   -1.189672
      4          1           0        0.792669   -2.209823   -1.397616
      5          6           0       -0.854522    1.972101    0.970593
      6          1           0       -0.739201    2.543521    0.057724
      7          1           0       -1.867313    1.810927    1.318583
      8          6           0        0.188359    1.479090    1.616169
      9          1           0        0.069159    0.893039    2.519139
     10          1           0        1.200689    1.628195    1.261688
     11          6           0       -1.238878   -0.007623   -1.726111
     12          1           0       -0.371201    0.640497   -1.757569
     13          1           0       -2.169805    0.386202   -2.113202
     14          6           0        0.363848   -1.907226    0.618755
     15          1           0       -0.315289   -1.526138    1.372210
     16          1           0        1.289130   -2.351765    0.962222
 ---------------------------------------------------------------------
                    Distance matrix (angstroms):
                    1          2          3          4          5
     1  C    0.000000
     2  C    1.484146   0.000000
     3  H    1.086696   2.199849   0.000000
     4  H    2.198134   1.086770   2.879200   0.000000
     5  C    3.887278   4.239237   4.550917   5.080368   0.000000
     6  H    4.002674   4.501501   4.752248   5.201819   1.083120
     7  H    4.018009   4.578382   4.440866   5.533504   1.082968
     8  C    4.144141   4.018285   4.897592   4.801683   1.321904
     9  H    4.468265   4.190373   5.078461   5.048978   2.101322
    10  H    4.459465   4.110524   5.357878   4.687084   2.104019
    11  C    1.324434   2.478853   2.084732   3.014096   3.367380
    12  H    2.100806   2.728454   3.059233   3.099755   3.074026
    13  H    2.102157   3.466931   2.421041   4.003456   3.708752
    14  C    2.482709   1.324819   3.021694   2.083555   4.081348
    15  H    2.739821   2.104170   3.114212   3.060544   3.562268
    16  H    3.468357   2.100466   4.009367   2.415668   4.826088
                    6          7          8          9         10
     6  H    0.000000
     7  H    1.843664   0.000000
     8  C    2.102887   2.103441   0.000000
     9  H    3.071823   2.456375   1.083059   0.000000
    10  H    2.459781   3.073965   1.082913   1.844450   0.000000
    11  C    3.152789   3.601696   3.926596   4.532581   4.189788
    12  H    2.655600   3.615379   3.521144   4.306730   3.544333
    13  H    3.378398   3.728068   4.545718   5.169954   4.928758
    14  C    4.619591   4.392323   3.534511   3.397026   3.689562
    15  H    4.297639   3.680715   3.056889   2.704749   3.501460
    16  H    5.375506   5.236232   4.039157   3.800141   3.992190
                   11         12         13         14         15
    11  C    0.000000
    12  H    1.083472   0.000000
    13  H    1.082388   1.850977   0.000000
    14  C    3.416960   3.560632   4.375248   0.000000
    15  H    3.571903   3.806961   4.386841   1.083582   0.000000
    16  H    4.371836   4.371223   5.377632   1.082465   1.850381
                   16
    16  H    0.000000
 Stoichiometry    C6H10
 Framework group  C1[X(C6H10)]
 Deg. of freedom    42
 Full point group                 C1      NOp   1
 RotChk:  IX=0 Diff= 3.94D-02
 Largest Abelian subgroup         C1      NOp   1
 Largest concise Abelian subgroup C1      NOp   1
                         Standard orientation:                         
 ---------------------------------------------------------------------
 Center     Atomic      Atomic             Coordinates (Angstroms)
 Number     Number       Type             X           Y           Z
 ---------------------------------------------------------------------
      1          6           0       -1.518324    0.770391    0.315731
      2          6           0       -1.704132   -0.588100   -0.252307
      3          1           0       -2.044949    0.991662    1.240184
      4          1           0       -2.407860   -0.680693   -1.075268
      5          6           0        2.359764    0.533927    0.191460
      6          1           0        2.352266    1.344127   -0.527337
      7          1           0        2.392295    0.812358    1.237519
      8          6           0        2.311117   -0.731009   -0.189327
      9          1           0        2.300887   -1.538767    0.532088
     10          1           0        2.264914   -1.010154   -1.234623
     11          6           0       -0.766715    1.706650   -0.243398
     12          1           0       -0.221289    1.514816   -1.159708
     13          1           0       -0.660482    2.686318    0.204407
     14          6           0       -1.075922   -1.669122    0.185744
     15          1           0       -0.362039   -1.617571    0.999293
     16          1           0       -1.248468   -2.638513   -0.263968
 ---------------------------------------------------------------------
 Rotational constants (GHZ):           3.9215364           1.9348548           1.3865104
 Leave Link  202 at Mon Oct  6 14:28:08 2025, MaxMem=   104857600 cpu:               0.0 elap:               0.0
 (Enter /home/zhouoh/g16/l301.exe)
 Standard basis: STO-3G (5D, 7F)
 Ernie: Thresh=  0.10000D-02 Tol=  0.10000D-05 Strict=F.
 There are    40 symmetry adapted cartesian basis functions of A   symmetry.
 There are    40 symmetry adapted basis functions of A   symmetry.
    40 basis functions,   120 primitive gaussians,    40 cartesian basis functions
    23 alpha electrons       23 beta electrons
       nuclear repulsion energy       202.0612591981 Hartrees.
 IExCor=    0 DFT=F Ex=HF Corr=None ExCW=0 ScaHFX=  1.000000
 ScaDFX=  1.000000  1.000000  1.000000  1.000000 ScalE2=  1.000000  1.000000
 IRadAn=      5 IRanWt=     -1 IRanGd=            0 ICorTp=0 IEmpDi=  4
 NAtoms=   16 NActive=   16 NUniq=   16 SFac= 1.00D+00 NAtFMM=   60 NAOKFM=F Big=F
 Integral buffers will be    131072 words long.
 Raffenetti 1 integral format.
 Two-electron integral symmetry is turned on.
 Leave Link  301 at Mon Oct  6 14:28:08 2025, MaxMem=   104857600 cpu:               0.0 elap:               0.0
 (Enter /home/zhouoh/g16/l402.exe)
 External calculation of energy, first and second derivatives.
 Running external command "python ../GauUMA_client.py R"
         input file       "/home/zhouoh/scratch/Gau-2817891.EIn"
         output file      "/home/zhouoh/scratch/Gau-2817891.EOu"
         message file     "/home/zhouoh/scratch/Gau-2817891.EMs"
         fchk file        "/home/zhouoh/scratch/Gau-2817891.EFC"
         mat. el file     "/home/zhouoh/scratch/Gau-2817891.EUF"
Sent job to server.
Received result from server:
SCF Done:  E(UMA) =  -234.52083813608868     A.U.
 Recovered energy= -234.520838136     dipole=      0.000000000000      0.000000000000      0.000000000000
 Energy=    -234.520838     NIter=   0.
 Dipole moment=       0.000000       0.000000       0.000000
 Leave Link  402 at Mon Oct  6 14:28:10 2025, MaxMem=   104857600 cpu:               0.0 elap:               2.5
 (Enter /home/zhouoh/g16/l716.exe)
 Dipole        = 0.00000000D+00 0.00000000D+00 0.00000000D+00
 ***** Axes restored to original set *****
 -------------------------------------------------------------------
 Center     Atomic                   Forces (Hartrees/Bohr)
 Number     Number              X              Y              Z
 -------------------------------------------------------------------
      1        6           0.000226730   -0.000261668   -0.000085839
      2        6          -0.000160029    0.000146200   -0.000002188
      3        1           0.000066003    0.000001166    0.000010051
      4        1          -0.000047768   -0.000028556    0.000010356
      5        6           0.000028404    0.000107696    0.000186210
      6        1          -0.000004523    0.000443192    0.000603455
      7        1           0.000064200    0.000084213    0.000025006
      8        6          -0.000072870    0.000184564    0.000113919
      9        1           0.000207875    0.000527849    0.000276855
     10        1          -0.000052544    0.000017136    0.000051737
     11        6           0.000060970   -0.000142143   -0.000190218
     12        1          -0.000205861   -0.000385015   -0.000629415
     13        1          -0.000005662   -0.000048120   -0.000088875
     14        6           0.000006454   -0.000167648    0.000186960
     15        1          -0.000020002   -0.000434159   -0.000476220
     16        1          -0.000091377   -0.000044707    0.000008206
 -------------------------------------------------------------------
 Cartesian Forces:  Max     0.000629415 RMS     0.000223807
 FormGI is forming the generalized inverse of G from B-inverse, IUseBI=4.
 Leave Link  716 at Mon Oct  6 14:28:10 2025, MaxMem=   104857600 cpu:               0.0 elap:               0.0
 (Enter /home/zhouoh/g16/l103.exe)

 GradGradGradGradGradGradGradGradGradGradGradGradGradGradGradGradGradGrad
 Berny optimization.
 Red2BG is reusing G-inverse.
 Internal  Forces:  Max     0.001046258 RMS     0.000220202
 Search for a saddle point.
 Step number   4 out of a maximum of   74
 All quantities printed in internal units (Hartrees-Bohrs-Radians)
 Swapping is turned off.
 Second derivative matrix not updated -- analytic derivatives used.
 ITU=  0  0  0  0
     Eigenvalues ---   -0.00359  -0.00015   0.00045   0.00079   0.00104
     Eigenvalues ---    0.00207   0.00373   0.01560   0.02116   0.02159
     Eigenvalues ---    0.02459   0.02592   0.02697   0.02903   0.03000
     Eigenvalues ---    0.03042   0.05390   0.06139   0.09865   0.10300
     Eigenvalues ---    0.10432   0.10659   0.10737   0.11539   0.11617
     Eigenvalues ---    0.13891   0.14464   0.14831   0.31734   0.34553
     Eigenvalues ---    0.35110   0.35345   0.35379   0.35629   0.35981
     Eigenvalues ---    0.36207   0.36267   0.36301   0.36317   0.62318
     Eigenvalues ---    0.64185   0.65650
 Eigenvectors required to have negative eigenvalues:
                          D1        D2        D3        D4        A22
   1                    0.45581   0.43378   0.43041   0.40838  -0.30763
                          D23       A18       D24       D19       D25
   1                    0.17691  -0.17025   0.15872  -0.14496   0.11541
 Eigenvalue     2 is  -1.53D-04 should be greater than     0.000000 Eigenvector:
                          D13       D14       D21       D20       A10
   1                    0.48849   0.48439  -0.43504  -0.42890  -0.22204
                          A14       R12       R9        D19       A22
   1                    0.21766  -0.15814   0.15446  -0.07909   0.02517
 RFO step:  Lambda0=5.708967602D-06 Lambda=-6.19690471D-04.
 Linear search not attempted -- option 19 set.
 Maximum step size (   0.300) exceeded in Quadratic search.
    -- Step size scaled by   0.548
 Iteration  1 RMS(Cart)=  0.10559958 RMS(Int)=  0.00920734
 Iteration  2 RMS(Cart)=  0.01193412 RMS(Int)=  0.00055325
 Iteration  3 RMS(Cart)=  0.00009175 RMS(Int)=  0.00055115
 Iteration  4 RMS(Cart)=  0.00000005 RMS(Int)=  0.00055115
 ITry= 1 IFail=0 DXMaxC= 4.85D-01 DCOld= 1.00D+10 DXMaxT= 3.00D-01 DXLimC= 3.00D+00 Rises=F
 Variable       Old X    -DE/DX   Delta X   Delta X   Delta X     New X
                                 (Linear)    (Quad)   (Total)
    R1        2.80463  -0.00015   0.00000  -0.00033  -0.00075   2.80388
    R2        2.05356  -0.00005   0.00000  -0.00011  -0.00011   2.05345
    R3        2.50282   0.00012   0.00000  -0.00012  -0.00020   2.50262
    R4        2.05370  -0.00003   0.00000   0.00004   0.00004   2.05374
    R5        2.50355   0.00014   0.00000   0.00011   0.00010   2.50365
    R6        2.04680   0.00008   0.00000  -0.00026  -0.00034   2.04646
    R7        2.04651  -0.00006   0.00000   0.00005   0.00005   2.04656
    R8        2.49804  -0.00005   0.00000   0.00013   0.00052   2.49856
    R9        5.01836   0.00105   0.00000   0.10133   0.10113   5.11948
   R10        2.04669  -0.00003   0.00000   0.00000  -0.00008   2.04661
   R11        2.04641  -0.00006   0.00000  -0.00012  -0.00012   2.04629
   R12        5.11123   0.00082   0.00000   0.23173   0.23178   5.34301
   R13        2.04747   0.00002   0.00000   0.00005   0.00039   2.04786
   R14        2.04542   0.00002   0.00000  -0.00020  -0.00020   2.04521
   R15        2.04767  -0.00003   0.00000  -0.00020   0.00022   2.04789
   R16        2.04556  -0.00006   0.00000  -0.00005  -0.00005   2.04551
    A1        2.03902  -0.00017   0.00000  -0.00165  -0.00149   2.03753
    A2        2.16100   0.00026   0.00000   0.00278   0.00247   2.16348
    A3        2.08313  -0.00009   0.00000  -0.00112  -0.00097   2.08215
    A4        2.03631  -0.00008   0.00000   0.00020   0.00062   2.03693
    A5        2.16636   0.00012   0.00000  -0.00064  -0.00149   2.16487
    A6        2.08050  -0.00005   0.00000   0.00042   0.00084   2.08134
    A7        2.03634  -0.00006   0.00000   0.00192   0.00219   2.03853
    A8        2.12277   0.00010   0.00000  -0.00191  -0.00247   2.12030
    A9        2.12394  -0.00005   0.00000   0.00008   0.00036   2.12430
   A10        1.78525   0.00026   0.00000   0.10604   0.10510   1.89036
   A11        2.12016  -0.00003   0.00000   0.00199   0.00199   2.12215
   A12        2.12502   0.00003   0.00000  -0.00073  -0.00072   2.12430
   A13        2.03790  -0.00000   0.00000  -0.00124  -0.00125   2.03665
   A14        1.71741  -0.00006   0.00000  -0.11438  -0.11454   1.60287
   A15        2.11478  -0.00000   0.00000   0.00160   0.00205   2.11683
   A16        2.11866  -0.00003   0.00000  -0.00074  -0.00097   2.11769
   A17        2.04962   0.00003   0.00000  -0.00081  -0.00103   2.04859
   A18        1.87323   0.00054   0.00000  -0.00872  -0.00793   1.86530
   A19        2.11979   0.00015   0.00000  -0.00126  -0.00127   2.11852
   A20        2.11506  -0.00005   0.00000   0.00028   0.00028   2.11533
   A21        2.04827  -0.00010   0.00000   0.00099   0.00100   2.04928
   A22        2.11803   0.00006   0.00000  -0.01413  -0.01307   2.10496
    D1        1.75385  -0.00011   0.00000   0.00239   0.00293   1.75678
    D2       -1.38218  -0.00004   0.00000   0.00695   0.00735  -1.37483
    D3       -1.37862  -0.00024   0.00000   0.00137   0.00159  -1.37703
    D4        1.76853  -0.00017   0.00000   0.00593   0.00602   1.77455
    D5       -0.01981  -0.00000   0.00000   0.00411   0.00500  -0.01482
    D6        3.13926   0.00013   0.00000   0.00039   0.00107   3.14033
    D7        3.13112  -0.00014   0.00000   0.00307   0.00363   3.13475
    D8        0.00701  -0.00000   0.00000  -0.00065  -0.00030   0.00671
    D9       -0.01308  -0.00024   0.00000  -0.00334  -0.00269  -0.01577
   D10        3.14058  -0.00018   0.00000  -0.00413  -0.00377   3.13681
   D11        3.13420  -0.00016   0.00000   0.00133   0.00184   3.13604
   D12        0.00467  -0.00010   0.00000   0.00054   0.00077   0.00544
   D13       -1.74004   0.00004   0.00000  -0.20394  -0.20319  -1.94323
   D14        1.38420  -0.00002   0.00000  -0.19747  -0.19656   1.18764
   D15       -3.12224   0.00022   0.00000  -0.00528  -0.00518  -3.12741
   D16        0.00340   0.00010   0.00000  -0.00437  -0.00410  -0.00070
   D17        0.00113   0.00015   0.00000   0.00152   0.00180   0.00292
   D18        3.12676   0.00004   0.00000   0.00243   0.00287   3.12963
   D19        1.01932  -0.00008   0.00000   0.03450   0.03658   1.05590
   D20        1.49733  -0.00004   0.00000   0.16611   0.16702   1.66435
   D21       -1.62906   0.00007   0.00000   0.16524   0.16599  -1.46307
   D22        0.88592   0.00017   0.00000   0.03849   0.03960   0.92552
   D23       -1.88166   0.00044   0.00000   0.01308   0.01395  -1.86770
   D24        1.24312   0.00031   0.00000   0.01666   0.01774   1.26086
   D25       -1.72855  -0.00009   0.00000  -0.02267  -0.02234  -1.75088
   D26        1.40143  -0.00015   0.00000  -0.02192  -0.02130   1.38012
         Item               Value     Threshold  Converged?
 Maximum Force            0.001046     0.000450     NO 
 RMS     Force            0.000220     0.000300     YES
 Maximum Displacement     0.484837     0.001800     NO 
 RMS     Displacement     0.107277     0.001200     NO 
 Predicted change in Energy=-2.847677D-04
 GradGradGradGradGradGradGradGradGradGradGradGradGradGradGradGradGradGrad

 Leave Link  103 at Mon Oct  6 14:28:10 2025, MaxMem=   104857600 cpu:               0.0 elap:               0.0
 (Enter /home/zhouoh/g16/l202.exe)
                          Input orientation:                          
 ---------------------------------------------------------------------
 Center     Atomic      Atomic             Coordinates (Angstroms)
 Number     Number       Type             X           Y           Z
 ---------------------------------------------------------------------
      1          6           0       -1.140313   -1.255576   -1.248305
      2          6           0        0.107145   -1.831504   -0.688244
      3          1           0       -2.022334   -1.890033   -1.231527
      4          1           0        0.833980   -2.209819   -1.402179
      5          6           0       -0.875586    2.052585    1.047845
      6          1           0       -0.791502    2.535118    0.082003
      7          1           0       -1.851165    2.067491    1.517842
      8          6           0        0.161649    1.463326    1.618002
      9          1           0        0.076394    0.969040    2.577866
     10          1           0        1.134481    1.438967    1.143057
     11          6           0       -1.227146   -0.038514   -1.763154
     12          1           0       -0.369556    0.623413   -1.790602
     13          1           0       -2.159970    0.338780   -2.161676
     14          6           0        0.368363   -1.915826    0.607882
     15          1           0       -0.329442   -1.545036    1.349489
     16          1           0        1.293078   -2.349398    0.966473
 ---------------------------------------------------------------------
                    Distance matrix (angstroms):
                    1          2          3          4          5
     1  C    0.000000
     2  C    1.483750   0.000000
     3  H    1.086637   2.198468   0.000000
     4  H    2.198201   1.086791   2.879221   0.000000
     5  C    4.035630   4.366453   4.696254   5.205125   0.000000
     6  H    4.032461   4.524183   4.777266   5.230622   1.082940
     7  H    4.381741   4.889167   4.821859   5.833687   1.082993
     8  C    4.159717   4.022144   4.912699   4.802657   1.322181
     9  H    4.590084   4.302495   5.204847   5.149741   2.102689
    10  H    4.260734   3.886523   5.165885   4.458942   2.103797
    11  C    1.324329   2.480036   2.084004   3.015478   3.521080
    12  H    2.102082   2.732957   3.059681   3.102672   3.217978
    13  H    2.101408   3.467123   2.419034   4.004488   3.858471
    14  C    2.481424   1.324873   3.016542   2.084125   4.182017
    15  H    2.736756   2.103575   3.105889   3.060582   3.651320
    16  H    3.467432   2.100652   4.004270   2.416768   4.907869
                    6          7          8          9         10
     6  H    0.000000
     7  H    1.844775   0.000000
     8  C    2.101553   2.103918   0.000000
     9  H    3.071673   2.458807   1.083017   0.000000
    10  H    2.456989   3.074019   1.082852   1.843653   0.000000
    11  C    3.196556   3.948366   3.951770   4.643149   4.025704
    12  H    2.709115   3.902093   3.550523   4.404752   3.396117
    13  H    3.425011   4.077089   4.576077   5.278429   4.794276
    14  C    4.629550   4.649855   3.532951   3.505500   3.482525
    15  H    4.297403   3.923562   3.059986   2.827400   3.330158
    16  H    5.383888   5.449696   4.030072   3.884448   3.795792
                   11         12         13         14         15
    11  C    0.000000
    12  H    1.083679   0.000000
    13  H    1.082281   1.850485   0.000000
    14  C    3.419321   3.570012   4.375633   0.000000
    15  H    3.572677   3.816274   4.384960   1.083697   0.000000
    16  H    4.375223   4.382171   5.379141   1.082437   1.851019
                   16
    16  H    0.000000
 Stoichiometry    C6H10
 Framework group  C1[X(C6H10)]
 Deg. of freedom    42
 Full point group                 C1      NOp   1
 RotChk:  IX=0 Diff= 2.97D-02
 Largest Abelian subgroup         C1      NOp   1
 Largest concise Abelian subgroup C1      NOp   1
                         Standard orientation:                         
 ---------------------------------------------------------------------
 Center     Atomic      Atomic             Coordinates (Angstroms)
 Number     Number       Type             X           Y           Z
 ---------------------------------------------------------------------
      1          6           0       -1.548976    0.768991    0.325041
      2          6           0       -1.724883   -0.589897   -0.244166
      3          1           0       -2.071943    0.981655    1.253512
      4          1           0       -2.431150   -0.688261   -1.064303
      5          6           0        2.476421    0.522055    0.178357
      6          1           0        2.353409    1.350788   -0.507814
      7          1           0        2.744876    0.768286    1.198247
      8          6           0        2.294719   -0.728712   -0.209881
      9          1           0        2.404619   -1.557928    0.478050
     10          1           0        2.015640   -0.974197   -1.226945
     11          6           0       -0.810480    1.715390   -0.234245
     12          1           0       -0.270341    1.536368   -1.156504
     13          1           0       -0.712584    2.693800    0.217929
     14          6           0       -1.087696   -1.665659    0.194029
     15          1           0       -0.372605   -1.606317    1.006138
     16          1           0       -1.254548   -2.637198   -0.253121
 ---------------------------------------------------------------------
 Rotational constants (GHZ):           3.9249097           1.8604518           1.3473610
 Leave Link  202 at Mon Oct  6 14:28:10 2025, MaxMem=   104857600 cpu:               0.0 elap:               0.0
 (Enter /home/zhouoh/g16/l301.exe)
 Standard basis: STO-3G (5D, 7F)
 Ernie: Thresh=  0.10000D-02 Tol=  0.10000D-05 Strict=F.
 There are    40 symmetry adapted cartesian basis functions of A   symmetry.
 There are    40 symmetry adapted basis functions of A   symmetry.
    40 basis functions,   120 primitive gaussians,    40 cartesian basis functions
    23 alpha electrons       23 beta electrons
       nuclear repulsion energy       200.9533616277 Hartrees.
 IExCor=    0 DFT=F Ex=HF Corr=None ExCW=0 ScaHFX=  1.000000
 ScaDFX=  1.000000  1.000000  1.000000  1.000000 ScalE2=  1.000000  1.000000
 IRadAn=      5 IRanWt=     -1 IRanGd=            0 ICorTp=0 IEmpDi=  4
 NAtoms=   16 NActive=   16 NUniq=   16 SFac= 1.00D+00 NAtFMM=   60 NAOKFM=F Big=F
 Integral buffers will be    131072 words long.
 Raffenetti 1 integral format.
 Two-electron integral symmetry is turned on.
 Leave Link  301 at Mon Oct  6 14:28:10 2025, MaxMem=   104857600 cpu:               0.0 elap:               0.0
 (Enter /home/zhouoh/g16/l402.exe)
 External calculation of energy, first and second derivatives.
 Running external command "python ../GauUMA_client.py R"
         input file       "/home/zhouoh/scratch/Gau-2817891.EIn"
         output file      "/home/zhouoh/scratch/Gau-2817891.EOu"
         message file     "/home/zhouoh/scratch/Gau-2817891.EMs"
         fchk file        "/home/zhouoh/scratch/Gau-2817891.EFC"
         mat. el file     "/home/zhouoh/scratch/Gau-2817891.EUF"
Sent job to server.
Received result from server:
SCF Done:  E(UMA) =  -234.5211437361601     A.U.
 Recovered energy= -234.521143736     dipole=      0.000000000000      0.000000000000      0.000000000000
 Energy=    -234.521144     NIter=   0.
 Dipole moment=       0.000000       0.000000       0.000000
 Leave Link  402 at Mon Oct  6 14:28:13 2025, MaxMem=   104857600 cpu:               0.0 elap:               2.5
 (Enter /home/zhouoh/g16/l716.exe)
 Dipole        = 0.00000000D+00 0.00000000D+00 0.00000000D+00
 ***** Axes restored to original set *****
 -------------------------------------------------------------------
 Center     Atomic                   Forces (Hartrees/Bohr)
 Number     Number              X              Y              Z
 -------------------------------------------------------------------
      1        6           0.000078292   -0.000100347   -0.000115797
      2        6          -0.000033693   -0.000002804    0.000087692
      3        1           0.000019249    0.000014759    0.000010898
      4        1          -0.000019864    0.000000025    0.000024789
      5        6           0.000270696    0.000017007    0.000284801
      6        1          -0.000164394    0.000290158    0.000352423
      7        1           0.000088021    0.000042317   -0.000009290
      8        6          -0.000157661    0.000171972   -0.000073325
      9        1           0.000054137    0.000381793    0.000271814
     10        1          -0.000051319   -0.000013555   -0.000006888
     11        6           0.000041965    0.000020242   -0.000216428
     12        1          -0.000132342   -0.000345211   -0.000347403
     13        1          -0.000003066   -0.000008762   -0.000058353
     14        6          -0.000010606   -0.000119723    0.000163045
     15        1           0.000064669   -0.000337594   -0.000389946
     16        1          -0.000044083   -0.000010278    0.000021967
 -------------------------------------------------------------------
 Cartesian Forces:  Max     0.000389946 RMS     0.000167629
 FormGI is forming the generalized inverse of G from B-inverse, IUseBI=4.
 Leave Link  716 at Mon Oct  6 14:28:13 2025, MaxMem=   104857600 cpu:               0.0 elap:               0.0
 (Enter /home/zhouoh/g16/l103.exe)

 GradGradGradGradGradGradGradGradGradGradGradGradGradGradGradGradGradGrad
 Berny optimization.
 Red2BG is reusing G-inverse.
 Internal  Forces:  Max     0.000663687 RMS     0.000149186
 Search for a saddle point.
 Step number   5 out of a maximum of   74
 All quantities printed in internal units (Hartrees-Bohrs-Radians)
 Swapping is turned off.
 Second derivative matrix not updated -- analytic derivatives used.
 ITU=  0  0  0  0  0
     Eigenvalues ---   -0.00360  -0.00027   0.00038   0.00049   0.00068
     Eigenvalues ---    0.00180   0.00276   0.01556   0.02120   0.02158
     Eigenvalues ---    0.02460   0.02597   0.02680   0.02886   0.02985
     Eigenvalues ---    0.03042   0.05243   0.06194   0.09709   0.10297
     Eigenvalues ---    0.10438   0.10621   0.10760   0.11517   0.11633
     Eigenvalues ---    0.13894   0.14493   0.14821   0.31844   0.34576
     Eigenvalues ---    0.35118   0.35350   0.35373   0.35617   0.35990
     Eigenvalues ---    0.36215   0.36276   0.36310   0.36328   0.62429
     Eigenvalues ---    0.64190   0.65587
 Eigenvectors required to have negative eigenvalues:
                          D1        D2        D3        D4        A22
   1                    0.45582   0.43468   0.43232   0.41118  -0.28390
                          A18       D23       D24       D19       D25
   1                   -0.19445   0.16803   0.14926  -0.13368   0.12882
 Eigenvalue     2 is  -2.65D-04 should be greater than     0.000000 Eigenvector:
                          D13       D14       D21       D20       D19
   1                    0.53610   0.53189  -0.35103  -0.34604  -0.21830
                          R12       A10       A14       D22       A18
   1                   -0.20888  -0.18436   0.17934  -0.12361   0.07235
 RFO step:  Lambda0=2.330459419D-06 Lambda=-5.21167882D-04.
 Linear search not attempted -- option 19 set.
 Maximum step size (   0.300) exceeded in Quadratic search.
    -- Step size scaled by   0.554
 Iteration  1 RMS(Cart)=  0.09635197 RMS(Int)=  0.00879809
 Iteration  2 RMS(Cart)=  0.01103399 RMS(Int)=  0.00084523
 Iteration  3 RMS(Cart)=  0.00016245 RMS(Int)=  0.00083978
 Iteration  4 RMS(Cart)=  0.00000010 RMS(Int)=  0.00083978
 ITry= 1 IFail=0 DXMaxC= 4.21D-01 DCOld= 1.00D+10 DXMaxT= 3.00D-01 DXLimC= 3.00D+00 Rises=F
 Variable       Old X    -DE/DX   Delta X   Delta X   Delta X     New X
                                 (Linear)    (Quad)   (Total)
    R1        2.80388   0.00009   0.00000   0.00012  -0.00028   2.80360
    R2        2.05345  -0.00002   0.00000  -0.00006  -0.00006   2.05338
    R3        2.50262   0.00012   0.00000  -0.00007  -0.00016   2.50246
    R4        2.05374  -0.00003   0.00000  -0.00002  -0.00002   2.05372
    R5        2.50365   0.00010   0.00000   0.00010   0.00032   2.50396
    R6        2.04646   0.00010   0.00000  -0.00006  -0.00031   2.04615
    R7        2.04656  -0.00008   0.00000  -0.00011  -0.00011   2.04645
    R8        2.49856  -0.00025   0.00000   0.00001   0.00041   2.49897
    R9        5.11948   0.00066   0.00000   0.12732   0.12684   5.24633
   R10        2.04661   0.00003   0.00000   0.00014  -0.00010   2.04651
   R11        2.04629  -0.00004   0.00000  -0.00016  -0.00016   2.04614
   R12        5.34301   0.00056   0.00000   0.22151   0.22176   5.56477
   R13        2.04786  -0.00009   0.00000   0.00001   0.00031   2.04817
   R14        2.04521   0.00002   0.00000  -0.00017  -0.00017   2.04504
   R15        2.04789  -0.00011   0.00000  -0.00011   0.00054   2.04843
   R16        2.04551  -0.00003   0.00000  -0.00002  -0.00002   2.04549
    A1        2.03753  -0.00009   0.00000  -0.00120  -0.00116   2.03637
    A2        2.16348   0.00018   0.00000   0.00226   0.00219   2.16567
    A3        2.08215  -0.00008   0.00000  -0.00105  -0.00102   2.08113
    A4        2.03693  -0.00006   0.00000   0.00003   0.00073   2.03766
    A5        2.16487   0.00012   0.00000  -0.00029  -0.00168   2.16319
    A6        2.08134  -0.00007   0.00000   0.00024   0.00092   2.08226
    A7        2.03853  -0.00004   0.00000   0.00129   0.00206   2.04059
    A8        2.12030   0.00010   0.00000  -0.00114  -0.00269   2.11762
    A9        2.12430  -0.00005   0.00000  -0.00011   0.00066   2.12496
   A10        1.89036   0.00017   0.00000   0.09967   0.09668   1.98704
   A11        2.12215  -0.00005   0.00000   0.00068   0.00136   2.12351
   A12        2.12430   0.00001   0.00000  -0.00037  -0.00071   2.12359
   A13        2.03665   0.00004   0.00000  -0.00031  -0.00065   2.03600
   A14        1.60287  -0.00006   0.00000  -0.10599  -0.10660   1.49627
   A15        2.11683  -0.00004   0.00000   0.00131   0.00191   2.11874
   A16        2.11769   0.00002   0.00000  -0.00048  -0.00080   2.11690
   A17        2.04859   0.00001   0.00000  -0.00080  -0.00109   2.04750
   A18        1.86530   0.00032   0.00000  -0.03932  -0.03867   1.82662
   A19        2.11852   0.00007   0.00000  -0.00058  -0.00092   2.11761
   A20        2.11533  -0.00000   0.00000   0.00013   0.00030   2.11563
   A21        2.04928  -0.00007   0.00000   0.00045   0.00062   2.04990
   A22        2.10496   0.00005   0.00000  -0.01978  -0.01820   2.08676
    D1        1.75678  -0.00005   0.00000   0.00437   0.00506   1.76184
    D2       -1.37483  -0.00003   0.00000   0.00708   0.00772  -1.36711
    D3       -1.37703  -0.00014   0.00000   0.00359   0.00367  -1.37335
    D4        1.77455  -0.00012   0.00000   0.00629   0.00633   1.78088
    D5       -0.01482  -0.00000   0.00000   0.00262   0.00392  -0.01089
    D6        3.14033   0.00010   0.00000   0.00068   0.00193  -3.14093
    D7        3.13475  -0.00010   0.00000   0.00182   0.00250   3.13725
    D8        0.00671   0.00001   0.00000  -0.00012   0.00050   0.00721
    D9       -0.01577  -0.00013   0.00000  -0.00230  -0.00165  -0.01743
   D10        3.13681  -0.00008   0.00000  -0.00222  -0.00201   3.13480
   D11        3.13604  -0.00011   0.00000   0.00047   0.00107   3.13711
   D12        0.00544  -0.00006   0.00000   0.00055   0.00071   0.00615
   D13       -1.94323  -0.00003   0.00000  -0.23039  -0.22961  -2.17283
   D14        1.18764  -0.00008   0.00000  -0.22605  -0.22534   0.96230
   D15       -3.12741   0.00013   0.00000  -0.00399  -0.00354  -3.13096
   D16       -0.00070   0.00005   0.00000  -0.00373  -0.00329  -0.00399
   D17        0.00292   0.00007   0.00000   0.00057   0.00094   0.00386
   D18        3.12963  -0.00000   0.00000   0.00083   0.00119   3.13083
   D19        1.05590   0.00008   0.00000   0.09509   0.09776   1.15365
   D20        1.66435   0.00003   0.00000   0.14160   0.14244   1.80679
   D21       -1.46307   0.00010   0.00000   0.14136   0.14220  -1.32088
   D22        0.92552   0.00011   0.00000   0.07605   0.07631   1.00183
   D23       -1.86770   0.00031   0.00000   0.00725   0.00914  -1.85856
   D24        1.26086   0.00021   0.00000   0.00912   0.01106   1.27192
   D25       -1.75088  -0.00004   0.00000  -0.02029  -0.02031  -1.77119
   D26        1.38012  -0.00009   0.00000  -0.02037  -0.01997   1.36015
         Item               Value     Threshold  Converged?
 Maximum Force            0.000664     0.000450     NO 
 RMS     Force            0.000149     0.000300     YES
 Maximum Displacement     0.420929     0.001800     NO 
 RMS     Displacement     0.102400     0.001200     NO 
 Predicted change in Energy=-2.702667D-04
 GradGradGradGradGradGradGradGradGradGradGradGradGradGradGradGradGradGrad

 Leave Link  103 at Mon Oct  6 14:28:13 2025, MaxMem=   104857600 cpu:               0.0 elap:               0.0
 (Enter /home/zhouoh/g16/l202.exe)
                          Input orientation:                          
 ---------------------------------------------------------------------
 Center     Atomic      Atomic             Coordinates (Angstroms)
 Number     Number       Type             X           Y           Z
 ---------------------------------------------------------------------
      1          6           0       -1.115163   -1.276175   -1.278016
      2          6           0        0.127546   -1.844569   -0.700366
      3          1           0       -1.994837   -1.913932   -1.265969
      4          1           0        0.865825   -2.221470   -1.403202
      5          6           0       -0.899707    2.118908    1.123434
      6          1           0       -0.886321    2.512518    0.114821
      7          1           0       -1.797227    2.290237    1.704680
      8          6           0        0.131796    1.453796    1.615735
      9          1           0        0.120486    1.049393    2.620297
     10          1           0        1.024719    1.274732    1.030062
     11          6           0       -1.202919   -0.062921   -1.801403
     12          1           0       -0.348693    0.603640   -1.828020
     13          1           0       -2.134146    0.306730   -2.210432
     14          6           0        0.369178   -1.925926    0.599913
     15          1           0       -0.342306   -1.556651    1.329599
     16          1           0        1.289842   -2.355295    0.973642
 ---------------------------------------------------------------------
                    Distance matrix (angstroms):
                    1          2          3          4          5
     1  C    0.000000
     2  C    1.483602   0.000000
     3  H    1.086603   2.197550   0.000000
     4  H    2.198538   1.086780   2.880417   0.000000
     5  C    4.164129   4.482258   4.813767   5.323521   0.000000
     6  H    4.043088   4.547159   4.767478   5.271153   1.082778
     7  H    4.699041   5.156124   5.151586   6.091493   1.082933
     8  C    4.169107   4.030330   4.916135   4.812522   1.322397
     9  H    4.704460   4.404756   5.325312   5.238571   2.103629
    10  H    4.051351   3.678225   4.955507   4.262564   2.103512
    11  C    1.324243   2.481266   2.083282   3.016222   3.661555
    12  H    2.103256   2.737176   3.060043   3.104315   3.363144
    13  H    2.100789   3.467511   2.417180   4.005402   3.990300
    14  C    2.480336   1.325041   3.011682   2.084821   4.271395
    15  H    2.734160   2.103429   3.097657   3.061007   3.723296
    16  H    3.466773   2.100970   3.999971   2.418075   4.983478
                    6          7          8          9         10
     6  H    0.000000
     7  H    1.845754   0.000000
     8  C    2.100047   2.104442   0.000000
     9  H    3.071124   2.460828   1.082965   0.000000
    10  H    2.453946   3.074043   1.082769   1.843167   0.000000
    11  C    3.225684   4.264173   3.969727   4.747639   3.843029
    12  H    2.776237   4.174067   3.579538   4.495148   3.241181
    13  H    3.439385   4.401808   4.592365   5.382459   4.627770
    14  C    4.638035   4.867222   3.537056   3.605041   3.295295
    15  H    4.281328   4.129895   3.060954   2.944749   3.158356
    16  H    5.400820   5.625423   4.032683   3.958633   3.640134
                   11         12         13         14         15
    11  C    0.000000
    12  H    1.083842   0.000000
    13  H    1.082188   1.849930   0.000000
    14  C    3.421782   3.578952   4.376006   0.000000
    15  H    3.574221   3.825893   4.383457   1.083980   0.000000
    16  H    4.378322   4.391970   5.380371   1.082429   1.851606
                   16
    16  H    0.000000
 Stoichiometry    C6H10
 Framework group  C1[X(C6H10)]
 Deg. of freedom    42
 Full point group                 C1      NOp   1
 RotChk:  IX=0 Diff= 2.99D-02
 Largest Abelian subgroup         C1      NOp   1
 Largest concise Abelian subgroup C1      NOp   1
                         Standard orientation:                         
 ---------------------------------------------------------------------
 Center     Atomic      Atomic             Coordinates (Angstroms)
 Number     Number       Type             X           Y           Z
 ---------------------------------------------------------------------
      1          6           0       -1.572762    0.766955    0.335191
      2          6           0       -1.746587   -0.591774   -0.234647
      3          1           0       -2.083414    0.971975    1.272159
      4          1           0       -2.460936   -0.693668   -1.047305
      5          6           0        2.580017    0.505818    0.173310
      6          1           0        2.349978    1.371562   -0.434948
      7          1           0        3.058407    0.689995    1.127231
      8          6           0        2.281781   -0.717441   -0.230950
      9          1           0        2.500555   -1.586396    0.377217
     10          1           0        1.794571   -0.899413   -1.180635
     11          6           0       -0.850074    1.721865   -0.230041
     12          1           0       -0.323080    1.554252   -1.162187
     13          1           0       -0.753520    2.698355    0.226333
     14          6           0       -1.099195   -1.663884    0.198013
     15          1           0       -0.376779   -1.599162    1.003581
     16          1           0       -1.264851   -2.636734   -0.246705
 ---------------------------------------------------------------------
 Rotational constants (GHZ):           3.9427919           1.7949353           1.3125592
 Leave Link  202 at Mon Oct  6 14:28:13 2025, MaxMem=   104857600 cpu:               0.0 elap:               0.0
 (Enter /home/zhouoh/g16/l301.exe)
 Standard basis: STO-3G (5D, 7F)
 Ernie: Thresh=  0.10000D-02 Tol=  0.10000D-05 Strict=F.
 There are    40 symmetry adapted cartesian basis functions of A   symmetry.
 There are    40 symmetry adapted basis functions of A   symmetry.
    40 basis functions,   120 primitive gaussians,    40 cartesian basis functions
    23 alpha electrons       23 beta electrons
       nuclear repulsion energy       200.0808451319 Hartrees.
 IExCor=    0 DFT=F Ex=HF Corr=None ExCW=0 ScaHFX=  1.000000
 ScaDFX=  1.000000  1.000000  1.000000  1.000000 ScalE2=  1.000000  1.000000
 IRadAn=      5 IRanWt=     -1 IRanGd=            0 ICorTp=0 IEmpDi=  4
 NAtoms=   16 NActive=   16 NUniq=   16 SFac= 1.00D+00 NAtFMM=   60 NAOKFM=F Big=F
 Integral buffers will be    131072 words long.
 Raffenetti 1 integral format.
 Two-electron integral symmetry is turned on.
 Leave Link  301 at Mon Oct  6 14:28:13 2025, MaxMem=   104857600 cpu:               0.0 elap:               0.0
 (Enter /home/zhouoh/g16/l402.exe)
 External calculation of energy, first and second derivatives.
 Running external command "python ../GauUMA_client.py R"
         input file       "/home/zhouoh/scratch/Gau-2817891.EIn"
         output file      "/home/zhouoh/scratch/Gau-2817891.EOu"
         message file     "/home/zhouoh/scratch/Gau-2817891.EMs"
         fchk file        "/home/zhouoh/scratch/Gau-2817891.EFC"
         mat. el file     "/home/zhouoh/scratch/Gau-2817891.EUF"
Sent job to server.
Received result from server:
SCF Done:  E(UMA) =  -234.52141521151816     A.U.
 Recovered energy= -234.521415211     dipole=      0.000000000000      0.000000000000      0.000000000000
 Energy=    -234.521415     NIter=   0.
 Dipole moment=       0.000000       0.000000       0.000000
 Leave Link  402 at Mon Oct  6 14:28:15 2025, MaxMem=   104857600 cpu:               0.0 elap:               2.5
 (Enter /home/zhouoh/g16/l716.exe)
 Dipole        = 0.00000000D+00 0.00000000D+00 0.00000000D+00
 ***** Axes restored to original set *****
 -------------------------------------------------------------------
 Center     Atomic                   Forces (Hartrees/Bohr)
 Number     Number              X              Y              Z
 -------------------------------------------------------------------
      1        6           0.000004442   -0.000062748   -0.000103376
      2        6           0.000022005   -0.000057700    0.000269584
      3        1          -0.000008037    0.000023143    0.000021757
      4        1          -0.000002679    0.000025639    0.000038542
      5        6           0.000523789   -0.000092351    0.000271976
      6        1          -0.000376007    0.000223099    0.000158579
      7        1           0.000084360    0.000036098   -0.000018736
      8        6          -0.000220752    0.000138977   -0.000156055
      9        1          -0.000017439    0.000321231    0.000319848
     10        1          -0.000059066   -0.000029572   -0.000038318
     11        6           0.000011597    0.000190018   -0.000217269
     12        1          -0.000021444   -0.000315549   -0.000172374
     13        1          -0.000006752    0.000001558   -0.000063778
     14        6          -0.000095239   -0.000081462    0.000064759
     15        1           0.000187090   -0.000328156   -0.000400703
     16        1          -0.000025868    0.000007774    0.000025563
 -------------------------------------------------------------------
 Cartesian Forces:  Max     0.000523789 RMS     0.000178077
 FormGI is forming the generalized inverse of G from B-inverse, IUseBI=4.
 Leave Link  716 at Mon Oct  6 14:28:15 2025, MaxMem=   104857600 cpu:               0.0 elap:               0.0
 (Enter /home/zhouoh/g16/l103.exe)

 GradGradGradGradGradGradGradGradGradGradGradGradGradGradGradGradGradGrad
 Berny optimization.
 Red2BG is reusing G-inverse.
 Internal  Forces:  Max     0.000417558 RMS     0.000124332
 Search for a saddle point.
 Step number   6 out of a maximum of   74
 All quantities printed in internal units (Hartrees-Bohrs-Radians)
 Swapping is turned off.
 Second derivative matrix not updated -- analytic derivatives used.
 ITU=  0  0  0  0  0  0
     Eigenvalues ---   -0.00357  -0.00016   0.00030   0.00040   0.00053
     Eigenvalues ---    0.00162   0.00257   0.01553   0.02128   0.02161
     Eigenvalues ---    0.02464   0.02605   0.02658   0.02878   0.02979
     Eigenvalues ---    0.03064   0.05142   0.06268   0.09367   0.10294
     Eigenvalues ---    0.10438   0.10585   0.10779   0.11483   0.11648
     Eigenvalues ---    0.13888   0.14513   0.14804   0.31906   0.34581
     Eigenvalues ---    0.35127   0.35323   0.35389   0.35603   0.36006
     Eigenvalues ---    0.36230   0.36279   0.36323   0.36344   0.62567
     Eigenvalues ---    0.64156   0.65511
 Eigenvectors required to have negative eigenvalues:
                          D1        D2        D3        D4        A22
   1                    0.45647   0.43576   0.43423   0.41352  -0.24950
                          A18       D23       D25       D24       D19
   1                   -0.22026   0.15500   0.14172   0.13543  -0.12286
 Eigenvalue     2 is  -1.60D-04 should be greater than     0.000000 Eigenvector:
                          D13       D14       D19       R12       A18
   1                    0.52309   0.51975  -0.37346  -0.26966   0.22178
                          D21       D20       A14       D22       A10
   1                   -0.21712  -0.21445   0.18522  -0.17279  -0.16636
 RFO step:  Lambda0=1.482197572D-07 Lambda=-5.07115203D-04.
 Linear search not attempted -- option 19 set.
 Maximum step size (   0.300) exceeded in Quadratic search.
    -- Step size scaled by   0.494
 Iteration  1 RMS(Cart)=  0.08358844 RMS(Int)=  0.00828147
 Iteration  2 RMS(Cart)=  0.01075193 RMS(Int)=  0.00127439
 Iteration  3 RMS(Cart)=  0.00018780 RMS(Int)=  0.00126837
 Iteration  4 RMS(Cart)=  0.00000018 RMS(Int)=  0.00126837
 ITry= 1 IFail=0 DXMaxC= 2.77D-01 DCOld= 1.00D+10 DXMaxT= 3.00D-01 DXLimC= 3.00D+00 Rises=F
 Variable       Old X    -DE/DX   Delta X   Delta X   Delta X     New X
                                 (Linear)    (Quad)   (Total)
    R1        2.80360   0.00020   0.00000   0.00030  -0.00008   2.80353
    R2        2.05338  -0.00001   0.00000  -0.00001  -0.00001   2.05337
    R3        2.50246   0.00016   0.00000   0.00005  -0.00013   2.50233
    R4        2.05372  -0.00004   0.00000  -0.00002  -0.00002   2.05370
    R5        2.50396  -0.00008   0.00000  -0.00002   0.00038   2.50434
    R6        2.04615   0.00015   0.00000   0.00008  -0.00027   2.04588
    R7        2.04645  -0.00007   0.00000  -0.00001  -0.00001   2.04643
    R8        2.49897  -0.00032   0.00000  -0.00000   0.00044   2.49940
    R9        5.24633   0.00041   0.00000   0.11676   0.11600   5.36232
   R10        2.04651   0.00011   0.00000   0.00022  -0.00012   2.04639
   R11        2.04614  -0.00002   0.00000  -0.00008  -0.00008   2.04606
   R12        5.56477   0.00042   0.00000   0.20801   0.20850   5.77327
   R13        2.04817  -0.00014   0.00000   0.00002   0.00022   2.04838
   R14        2.04504   0.00003   0.00000  -0.00005  -0.00005   2.04499
   R15        2.04843  -0.00025   0.00000  -0.00024   0.00059   2.04901
   R16        2.04549  -0.00002   0.00000  -0.00003  -0.00003   2.04546
    A1        2.03637  -0.00005   0.00000  -0.00079  -0.00074   2.03563
    A2        2.16567   0.00013   0.00000   0.00174   0.00165   2.16731
    A3        2.08113  -0.00008   0.00000  -0.00095  -0.00091   2.08022
    A4        2.03766  -0.00006   0.00000  -0.00041   0.00073   2.03839
    A5        2.16319   0.00016   0.00000   0.00036  -0.00191   2.16129
    A6        2.08226  -0.00010   0.00000   0.00004   0.00116   2.08342
    A7        2.04059  -0.00008   0.00000   0.00050   0.00187   2.04246
    A8        2.11762   0.00016   0.00000  -0.00023  -0.00298   2.11464
    A9        2.12496  -0.00008   0.00000  -0.00025   0.00112   2.12608
   A10        1.98704   0.00004   0.00000   0.09253   0.08698   2.07402
   A11        2.12351  -0.00006   0.00000  -0.00022   0.00140   2.12491
   A12        2.12359  -0.00001   0.00000  -0.00040  -0.00120   2.12239
   A13        2.03600   0.00007   0.00000   0.00062  -0.00020   2.03579
   A14        1.49627  -0.00008   0.00000  -0.10859  -0.10979   1.38648
   A15        2.11874  -0.00004   0.00000   0.00092   0.00137   2.12011
   A16        2.11690   0.00003   0.00000  -0.00038  -0.00062   2.11628
   A17        2.04750   0.00001   0.00000  -0.00053  -0.00074   2.04676
   A18        1.82662   0.00014   0.00000  -0.10333  -0.10293   1.72369
   A19        2.11761  -0.00000   0.00000  -0.00001  -0.00106   2.11655
   A20        2.11563   0.00004   0.00000  -0.00018   0.00035   2.11598
   A21        2.04990  -0.00003   0.00000   0.00019   0.00072   2.05062
   A22        2.08676   0.00008   0.00000   0.01816   0.02018   2.10694
    D1        1.76184   0.00000   0.00000  -0.00256  -0.00172   1.76012
    D2       -1.36711  -0.00000   0.00000  -0.00077  -0.00002  -1.36713
    D3       -1.37335  -0.00005   0.00000  -0.00208  -0.00228  -1.37564
    D4        1.78088  -0.00006   0.00000  -0.00029  -0.00058   1.78029
    D5       -0.01089   0.00000   0.00000   0.00103   0.00275  -0.00815
    D6       -3.14093   0.00006   0.00000  -0.00055   0.00142  -3.13951
    D7        3.13725  -0.00006   0.00000   0.00152   0.00217   3.13941
    D8        0.00721   0.00000   0.00000  -0.00005   0.00085   0.00806
    D9       -0.01743  -0.00006   0.00000  -0.00129  -0.00067  -0.01810
   D10        3.13480  -0.00002   0.00000  -0.00117  -0.00097   3.13383
   D11        3.13711  -0.00006   0.00000   0.00055   0.00107   3.13818
   D12        0.00615  -0.00002   0.00000   0.00067   0.00077   0.00692
   D13       -2.17283  -0.00010   0.00000  -0.24143  -0.24072  -2.41355
   D14        0.96230  -0.00014   0.00000  -0.23880  -0.23838   0.72392
   D15       -3.13096   0.00007   0.00000  -0.00272  -0.00199  -3.13294
   D16       -0.00399   0.00002   0.00000  -0.00275  -0.00218  -0.00617
   D17        0.00386   0.00002   0.00000   0.00004   0.00046   0.00432
   D18        3.13083  -0.00002   0.00000   0.00002   0.00027   3.13110
   D19        1.15365   0.00021   0.00000   0.16939   0.17184   1.32550
   D20        1.80679   0.00007   0.00000   0.10300   0.10371   1.91049
   D21       -1.32088   0.00011   0.00000   0.10304   0.10389  -1.21698
   D22        1.00183   0.00006   0.00000   0.08871   0.08786   1.08968
   D23       -1.85856   0.00022   0.00000  -0.00899  -0.00575  -1.86431
   D24        1.27192   0.00016   0.00000  -0.00747  -0.00448   1.26744
   D25       -1.77119   0.00000   0.00000  -0.00101  -0.00112  -1.77232
   D26        1.36015  -0.00004   0.00000  -0.00113  -0.00083   1.35932
         Item               Value     Threshold  Converged?
 Maximum Force            0.000418     0.000450     YES
 RMS     Force            0.000124     0.000300     YES
 Maximum Displacement     0.276632     0.001800     NO 
 RMS     Displacement     0.089934     0.001200     NO 
 Predicted change in Energy=-2.533910D-04
 GradGradGradGradGradGradGradGradGradGradGradGradGradGradGradGradGradGrad

 Leave Link  103 at Mon Oct  6 14:28:15 2025, MaxMem=   104857600 cpu:               0.0 elap:               0.0
 (Enter /home/zhouoh/g16/l202.exe)
                          Input orientation:                          
 ---------------------------------------------------------------------
 Center     Atomic      Atomic             Coordinates (Angstroms)
 Number     Number       Type             X           Y           Z
 ---------------------------------------------------------------------
      1          6           0       -1.094928   -1.275009   -1.290451
      2          6           0        0.135048   -1.870189   -0.712630
      3          1           0       -1.991111   -1.888966   -1.265823
      4          1           0        0.858584   -2.276992   -1.414114
      5          6           0       -0.943308    2.146735    1.178403
      6          1           0       -1.025987    2.439461    0.139378
      7          1           0       -1.752464    2.436625    1.837158
      8          6           0        0.100158    1.461496    1.615405
      9          1           0        0.188813    1.156986    2.650821
     10          1           0        0.902685    1.165158    0.951755
     11          6           0       -1.154859   -0.066174   -1.827631
     12          1           0       -0.284199    0.578129   -1.869919
     13          1           0       -2.079387    0.322270   -2.234370
     14          6           0        0.379471   -1.941658    0.587913
     15          1           0       -0.319499   -1.542995    1.314684
     16          1           0        1.289056   -2.391862    0.964194
 ---------------------------------------------------------------------
                    Distance matrix (angstroms):
                    1          2          3          4          5
     1  C    0.000000
     2  C    1.483562   0.000000
     3  H    1.086597   2.197027   0.000000
     4  H    2.198970   1.086771   2.879812   0.000000
     5  C    4.222151   4.568867   4.833116   5.434824   0.000000
     6  H    3.980760   4.543898   4.652025   5.311297   1.082634
     7  H    4.898011   5.349090   5.328806   6.293371   1.082925
     8  C    4.166616   4.064615   4.888812   4.871292   1.322628
     9  H    4.805853   4.525427   5.419410   5.363254   2.104595
    10  H    3.869413   3.545812   4.755984   4.177041   2.102987
    11  C    1.324174   2.482248   2.082670   3.018719   3.738711
    12  H    2.104088   2.740318   3.060234   3.108926   3.491019
    13  H    2.100344   3.467894   2.415665   4.007575   4.033158
    14  C    2.479218   1.325241   3.009780   2.085691   4.337440
    15  H    2.731269   2.103253   3.094027   3.061530   3.744572
    16  H    3.466146   2.101337   3.998172   2.419680   5.062431
                    6          7          8          9         10
     6  H    0.000000
     7  H    1.846682   0.000000
     8  C    2.098398   2.105292   0.000000
     9  H    3.070477   2.463347   1.082900   0.000000
    10  H    2.450221   3.074147   1.082727   1.842961   0.000000
    11  C    3.188093   4.477924   3.970307   4.833023   3.670784
    12  H    2.837619   4.399117   3.616013   4.582129   3.116912
    13  H    3.350646   4.599425   4.568262   5.450374   4.444615
    14  C    4.622845   5.027437   3.565840   3.727404   3.171504
    15  H    4.211938   4.261894   3.048526   3.055085   2.993249
    16  H    5.420464   5.772971   4.084841   4.080389   3.577964
                   11         12         13         14         15
    11  C    0.000000
    12  H    1.083957   0.000000
    13  H    1.082163   1.849591   0.000000
    14  C    3.421470   3.581999   4.374544   0.000000
    15  H    3.571129   3.826500   4.378607   1.084291   0.000000
    16  H    4.379022   4.396382   5.379938   1.082412   1.852260
                   16
    16  H    0.000000
 Stoichiometry    C6H10
 Framework group  C1[X(C6H10)]
 Deg. of freedom    42
 Full point group                 C1      NOp   1
 RotChk:  IX=0 Diff= 3.23D-02
 Largest Abelian subgroup         C1      NOp   1
 Largest concise Abelian subgroup C1      NOp   1
                         Standard orientation:                         
 ---------------------------------------------------------------------
 Center     Atomic      Atomic             Coordinates (Angstroms)
 Number     Number       Type             X           Y           Z
 ---------------------------------------------------------------------
      1          6           0       -1.564670    0.776016    0.349922
      2          6           0       -1.783070   -0.579900   -0.211105
      3          1           0       -2.029063    0.986769    1.309409
      4          1           0       -2.536442   -0.672714   -0.988852
      5          6           0        2.643765    0.479030    0.184291
      6          1           0        2.313584    1.383380   -0.310914
      7          1           0        3.279334    0.597730    1.053019
      8          6           0        2.279094   -0.713991   -0.255094
      9          1           0        2.597263   -1.624378    0.237488
     10          1           0        1.635687   -0.828421   -1.118362
     11          6           0       -0.855774    1.722371   -0.246160
     12          1           0       -0.375037    1.551713   -1.202576
     13          1           0       -0.725288    2.696078    0.207651
     14          6           0       -1.129709   -1.659707    0.193120
     15          1           0       -0.369958   -1.601947    0.964565
     16          1           0       -1.327891   -2.631124   -0.241266
 ---------------------------------------------------------------------
 Rotational constants (GHZ):           3.9707422           1.7497699           1.2895426
 Leave Link  202 at Mon Oct  6 14:28:15 2025, MaxMem=   104857600 cpu:               0.0 elap:               0.0
 (Enter /home/zhouoh/g16/l301.exe)
 Standard basis: STO-3G (5D, 7F)
 Ernie: Thresh=  0.10000D-02 Tol=  0.10000D-05 Strict=F.
 There are    40 symmetry adapted cartesian basis functions of A   symmetry.
 There are    40 symmetry adapted basis functions of A   symmetry.
    40 basis functions,   120 primitive gaussians,    40 cartesian basis functions
    23 alpha electrons       23 beta electrons
       nuclear repulsion energy       199.5725577256 Hartrees.
 IExCor=    0 DFT=F Ex=HF Corr=None ExCW=0 ScaHFX=  1.000000
 ScaDFX=  1.000000  1.000000  1.000000  1.000000 ScalE2=  1.000000  1.000000
 IRadAn=      5 IRanWt=     -1 IRanGd=            0 ICorTp=0 IEmpDi=  4
 NAtoms=   16 NActive=   16 NUniq=   16 SFac= 1.00D+00 NAtFMM=   60 NAOKFM=F Big=F
 Integral buffers will be    131072 words long.
 Raffenetti 1 integral format.
 Two-electron integral symmetry is turned on.
 Leave Link  301 at Mon Oct  6 14:28:15 2025, MaxMem=   104857600 cpu:               0.0 elap:               0.0
 (Enter /home/zhouoh/g16/l402.exe)
 External calculation of energy, first and second derivatives.
 Running external command "python ../GauUMA_client.py R"
         input file       "/home/zhouoh/scratch/Gau-2817891.EIn"
         output file      "/home/zhouoh/scratch/Gau-2817891.EOu"
         message file     "/home/zhouoh/scratch/Gau-2817891.EMs"
         fchk file        "/home/zhouoh/scratch/Gau-2817891.EFC"
         mat. el file     "/home/zhouoh/scratch/Gau-2817891.EUF"
Sent job to server.
Received result from server:
SCF Done:  E(UMA) =  -234.52166469933704     A.U.
 Recovered energy= -234.521664699     dipole=      0.000000000000      0.000000000000      0.000000000000
 Energy=    -234.521665     NIter=   0.
 Dipole moment=       0.000000       0.000000       0.000000
 Leave Link  402 at Mon Oct  6 14:28:18 2025, MaxMem=   104857600 cpu:               0.0 elap:               2.5
 (Enter /home/zhouoh/g16/l716.exe)
 Dipole        = 0.00000000D+00 0.00000000D+00 0.00000000D+00
 ***** Axes restored to original set *****
 -------------------------------------------------------------------
 Center     Atomic                   Forces (Hartrees/Bohr)
 Number     Number              X              Y              Z
 -------------------------------------------------------------------
      1        6          -0.000043139   -0.000107467   -0.000130139
      2        6           0.000035945   -0.000056406    0.000495298
      3        1          -0.000015704    0.000023491    0.000033851
      4        1          -0.000000943    0.000042078    0.000060620
      5        6           0.000784743   -0.000209432    0.000221569
      6        1          -0.000594857    0.000191781    0.000056677
      7        1           0.000108085    0.000029949   -0.000023757
      8        6          -0.000308039    0.000100530   -0.000185060
      9        1          -0.000063306    0.000336935    0.000391463
     10        1          -0.000048814   -0.000019615   -0.000065552
     11        6          -0.000018903    0.000353181   -0.000232316
     12        1           0.000074191   -0.000278721   -0.000081637
     13        1          -0.000011632   -0.000005514   -0.000086220
     14        6          -0.000197001   -0.000030610   -0.000044795
     15        1           0.000324785   -0.000386046   -0.000434092
     16        1          -0.000025413    0.000015867    0.000024092
 -------------------------------------------------------------------
 Cartesian Forces:  Max     0.000784743 RMS     0.000231979
 FormGI is forming the generalized inverse of G from B-inverse, IUseBI=4.
 Leave Link  716 at Mon Oct  6 14:28:18 2025, MaxMem=   104857600 cpu:               0.0 elap:               0.0
 (Enter /home/zhouoh/g16/l103.exe)

 GradGradGradGradGradGradGradGradGradGradGradGradGradGradGradGradGradGrad
 Berny optimization.
 Red2BG is reusing G-inverse.
 Internal  Forces:  Max     0.000419315 RMS     0.000148157
 Search for a saddle point.
 Step number   7 out of a maximum of   74
 All quantities printed in internal units (Hartrees-Bohrs-Radians)
 Swapping is turned off.
 Second derivative matrix not updated -- analytic derivatives used.
 ITU=  0  0  0  0  0  0  0
     Eigenvalues ---   -0.00353  -0.00006   0.00025   0.00029   0.00075
     Eigenvalues ---    0.00157   0.00297   0.01545   0.02132   0.02181
     Eigenvalues ---    0.02470   0.02611   0.02640   0.02868   0.02987
     Eigenvalues ---    0.03091   0.05055   0.06386   0.08949   0.10286
     Eigenvalues ---    0.10436   0.10569   0.10788   0.11458   0.11656
     Eigenvalues ---    0.13870   0.14523   0.14803   0.31944   0.34527
     Eigenvalues ---    0.35136   0.35300   0.35405   0.35602   0.36016
     Eigenvalues ---    0.36234   0.36284   0.36339   0.36357   0.62706
     Eigenvalues ---    0.64120   0.65409
 Eigenvectors required to have negative eigenvalues:
                          D1        D2        D3        D4        A22
   1                    0.45718   0.43739   0.43567   0.41588  -0.23116
                          A18       D25       D23       D22       D26
   1                   -0.21556   0.14901   0.14075  -0.13633   0.12878
 Eigenvalue     2 is  -6.42D-05 should be greater than     0.000000 Eigenvector:
                          D13       D14       D19       R12       A18
   1                   -0.52557  -0.52197   0.44987   0.25936  -0.21016
                          D22       D21       D20       A14       R9
   1                    0.18585   0.16698   0.16626  -0.12730   0.09298
 RFO step:  Lambda0=2.192141069D-07 Lambda=-4.95584896D-04.
 Linear search not attempted -- option 19 set.
 Maximum step size (   0.300) exceeded in Quadratic search.
    -- Step size scaled by   0.544
 Iteration  1 RMS(Cart)=  0.08074581 RMS(Int)=  0.01172787
 Iteration  2 RMS(Cart)=  0.01480583 RMS(Int)=  0.00181843
 Iteration  3 RMS(Cart)=  0.00039468 RMS(Int)=  0.00180128
 Iteration  4 RMS(Cart)=  0.00000063 RMS(Int)=  0.00180128
 ITry= 1 IFail=0 DXMaxC= 3.25D-01 DCOld= 1.00D+10 DXMaxT= 3.00D-01 DXLimC= 3.00D+00 Rises=F
 Variable       Old X    -DE/DX   Delta X   Delta X   Delta X     New X
                                 (Linear)    (Quad)   (Total)
    R1        2.80353   0.00027   0.00000   0.00042  -0.00005   2.80347
    R2        2.05337   0.00000   0.00000   0.00004   0.00004   2.05341
    R3        2.50233   0.00025   0.00000   0.00028   0.00008   2.50241
    R4        2.05370  -0.00006   0.00000  -0.00000  -0.00000   2.05370
    R5        2.50434  -0.00025   0.00000  -0.00022   0.00031   2.50465
    R6        2.04588   0.00021   0.00000   0.00023  -0.00023   2.04565
    R7        2.04643  -0.00009   0.00000   0.00001   0.00001   2.04645
    R8        2.49940  -0.00041   0.00000  -0.00009   0.00049   2.49989
    R9        5.36232   0.00027   0.00000   0.12055   0.11953   5.48185
   R10        2.04639   0.00019   0.00000   0.00030  -0.00015   2.04624
   R11        2.04606   0.00001   0.00000   0.00004   0.00004   2.04610
   R12        5.77327   0.00035   0.00000   0.21071   0.21135   5.98462
   R13        2.04838  -0.00015   0.00000  -0.00009   0.00018   2.04856
   R14        2.04499   0.00004   0.00000   0.00009   0.00009   2.04508
   R15        2.04901  -0.00042   0.00000  -0.00061   0.00046   2.04947
   R16        2.04546  -0.00002   0.00000  -0.00006  -0.00006   2.04540
    A1        2.03563  -0.00004   0.00000  -0.00062  -0.00046   2.03517
    A2        2.16731   0.00010   0.00000   0.00128   0.00098   2.16830
    A3        2.08022  -0.00006   0.00000  -0.00067  -0.00052   2.07970
    A4        2.03839  -0.00009   0.00000  -0.00113   0.00044   2.03883
    A5        2.16129   0.00025   0.00000   0.00161  -0.00154   2.15975
    A6        2.08342  -0.00016   0.00000  -0.00049   0.00108   2.08450
    A7        2.04246  -0.00011   0.00000  -0.00024   0.00167   2.04412
    A8        2.11464   0.00027   0.00000   0.00118  -0.00263   2.11201
    A9        2.12608  -0.00015   0.00000  -0.00094   0.00097   2.12705
   A10        2.07402  -0.00011   0.00000   0.05529   0.04691   2.12092
   A11        2.12491  -0.00010   0.00000  -0.00118   0.00115   2.12606
   A12        2.12239  -0.00002   0.00000  -0.00030  -0.00145   2.12094
   A13        2.03579   0.00011   0.00000   0.00149   0.00031   2.03610
   A14        1.38648  -0.00010   0.00000  -0.09976  -0.10269   1.28378
   A15        2.12011  -0.00005   0.00000   0.00053   0.00094   2.12104
   A16        2.11628   0.00003   0.00000  -0.00042  -0.00065   2.11563
   A17        2.04676   0.00001   0.00000  -0.00009  -0.00028   2.04648
   A18        1.72369   0.00005   0.00000  -0.12507  -0.12534   1.59835
   A19        2.11655  -0.00003   0.00000   0.00061  -0.00100   2.11555
   A20        2.11598   0.00005   0.00000  -0.00048   0.00032   2.11630
   A21        2.05062  -0.00002   0.00000  -0.00013   0.00068   2.05130
   A22        2.10694   0.00011   0.00000   0.01811   0.01981   2.12675
    D1        1.76012   0.00003   0.00000  -0.01244  -0.01145   1.74868
    D2       -1.36713   0.00002   0.00000  -0.01089  -0.01020  -1.37733
    D3       -1.37564  -0.00002   0.00000  -0.01026  -0.01081  -1.38645
    D4        1.78029  -0.00003   0.00000  -0.00871  -0.00957   1.77072
    D5       -0.00815   0.00002   0.00000  -0.00036   0.00169  -0.00646
    D6       -3.13951   0.00005   0.00000  -0.00276   0.00001  -3.13950
    D7        3.13941  -0.00003   0.00000   0.00187   0.00234  -3.14143
    D8        0.00806  -0.00000   0.00000  -0.00052   0.00066   0.00872
    D9       -0.01810  -0.00003   0.00000  -0.00041   0.00020  -0.01789
   D10        3.13383   0.00001   0.00000  -0.00068  -0.00021   3.13362
   D11        3.13818  -0.00004   0.00000   0.00118   0.00148   3.13967
   D12        0.00692  -0.00001   0.00000   0.00092   0.00107   0.00799
   D13       -2.41355  -0.00015   0.00000  -0.25621  -0.25473  -2.66828
   D14        0.72392  -0.00018   0.00000  -0.25394  -0.25298   0.47093
   D15       -3.13294   0.00002   0.00000  -0.00297  -0.00151  -3.13445
   D16       -0.00617   0.00001   0.00000  -0.00211  -0.00107  -0.00724
   D17        0.00432  -0.00000   0.00000  -0.00059   0.00033   0.00465
   D18        3.13110  -0.00002   0.00000   0.00027   0.00076   3.13186
   D19        1.32550   0.00032   0.00000   0.23673   0.23838   1.56388
   D20        1.91049   0.00007   0.00000   0.06872   0.06991   1.98040
   D21       -1.21698   0.00009   0.00000   0.06791   0.06951  -1.14748
   D22        1.08968  -0.00003   0.00000   0.10276   0.10160   1.19128
   D23       -1.86431   0.00022   0.00000  -0.01523  -0.01044  -1.87475
   D24        1.26744   0.00019   0.00000  -0.01293  -0.00882   1.25862
   D25       -1.77232   0.00004   0.00000   0.01356   0.01405  -1.75827
   D26        1.35932   0.00000   0.00000   0.01381   0.01445   1.37376
         Item               Value     Threshold  Converged?
 Maximum Force            0.000419     0.000450     YES
 RMS     Force            0.000148     0.000300     YES
 Maximum Displacement     0.325092     0.001800     NO 
 RMS     Displacement     0.091101     0.001200     NO 
 Predicted change in Energy=-2.688182D-04
 GradGradGradGradGradGradGradGradGradGradGradGradGradGradGradGradGradGrad

 Leave Link  103 at Mon Oct  6 14:28:18 2025, MaxMem=   104857600 cpu:               0.0 elap:               0.0
 (Enter /home/zhouoh/g16/l202.exe)
                          Input orientation:                          
 ---------------------------------------------------------------------
 Center     Atomic      Atomic             Coordinates (Angstroms)
 Number     Number       Type             X           Y           Z
 ---------------------------------------------------------------------
      1          6           0       -1.075812   -1.262096   -1.296127
      2          6           0        0.134113   -1.899335   -0.720906
      3          1           0       -1.993759   -1.842661   -1.263594
      4          1           0        0.833456   -2.346233   -1.422525
      5          6           0       -0.998768    2.147466    1.221760
      6          1           0       -1.198018    2.331332    0.173748
      7          1           0       -1.718057    2.529570    1.935457
      8          6           0        0.078301    1.481286    1.604060
      9          1           0        0.287009    1.284361    2.648169
     10          1           0        0.789241    1.094027    0.885073
     11          6           0       -1.094726   -0.055135   -1.840592
     12          1           0       -0.201545    0.556913   -1.893501
     13          1           0       -2.007166    0.363692   -2.244592
     14          6           0        0.385905   -1.962035    0.578852
     15          1           0       -0.291203   -1.524366    1.304239
     16          1           0        1.279102   -2.443770    0.955252
 ---------------------------------------------------------------------
                    Distance matrix (angstroms):
                    1          2          3          4          5
     1  C    0.000000
     2  C    1.483534   0.000000
     3  H    1.086619   2.196716   0.000000
     4  H    2.199234   1.086769   2.876106   0.000000
     5  C    4.239199   4.629683   4.805009   5.526537   0.000000
     6  H    3.884353   4.524768   4.485686   5.343649   1.082513
     7  H    5.023181   5.486528   5.424605   6.446682   1.082933
     8  C    4.155623   4.103313   4.854430   4.937649   1.322885
     9  H    4.888681   4.637883   5.502914   5.481821   2.105425
    10  H    3.713135   3.459563   4.581048   4.142747   2.102395
    11  C    1.324218   2.482905   2.082411   3.023540   3.773414
    12  H    2.104754   2.742407   3.060517   3.117900   3.587516
    13  H    2.100046   3.468139   2.414650   4.011062   4.026699
    14  C    2.478321   1.325406   3.011919   2.086485   4.383908
    15  H    2.728792   2.103023   3.097383   3.061954   3.740294
    16  H    3.465643   2.101645   3.999528   2.421144   5.132169
                    6          7          8          9         10
     6  H    0.000000
     7  H    1.847527   0.000000
     8  C    2.096988   2.106092   0.000000
     9  H    3.069887   2.465521   1.082821   0.000000
    10  H    2.446652   3.074188   1.082750   1.843087   0.000000
    11  C    3.124654   4.618201   3.949963   4.883893   3.507015
    12  H    2.900869   4.566410   3.628458   4.625433   2.998437
    13  H    3.220977   4.716717   4.517777   5.481786   4.260057
    14  C    4.594118   5.142134   3.605847   3.851096   3.097736
    15  H    4.119069   4.343816   3.043085   3.166926   2.863396
    16  H    5.435850   5.888792   4.155591   4.212977   3.572239
                   11         12         13         14         15
    11  C    0.000000
    12  H    1.084054   0.000000
    13  H    1.082210   1.849558   0.000000
    14  C    3.417930   3.578089   4.371227   0.000000
    15  H    3.562899   3.816451   4.370755   1.084535   0.000000
    16  H    4.376914   4.394520   5.377769   1.082380   1.852823
                   16
    16  H    0.000000
 Stoichiometry    C6H10
 Framework group  C1[X(C6H10)]
 Deg. of freedom    42
 Full point group                 C1      NOp   1
 RotChk:  IX=0 Diff= 3.14D-02
 Largest Abelian subgroup         C1      NOp   1
 Largest concise Abelian subgroup C1      NOp   1
                         Standard orientation:                         
 ---------------------------------------------------------------------
 Center     Atomic      Atomic             Coordinates (Angstroms)
 Number     Number       Type             X           Y           Z
 ---------------------------------------------------------------------
      1          6           0       -1.541812    0.791924    0.359026
      2          6           0       -1.821403   -0.560794   -0.182133
      3          1           0       -1.955707    1.019725    1.337565
      4          1           0       -2.619523   -0.640152   -0.915464
      5          6           0        2.680579    0.443540    0.214640
      6          1           0        2.265746    1.379975   -0.135840
      7          1           0        3.432585    0.496975    0.992057
      8          6           0        2.277745   -0.711354   -0.289314
      9          1           0        2.679036   -1.655905    0.056073
     10          1           0        1.518994   -0.758683   -1.060290
     11          6           0       -0.837566    1.716985   -0.274895
     12          1           0       -0.407361    1.531048   -1.252404
     13          1           0       -0.661611    2.688941    0.167281
     14          6           0       -1.169663   -1.652591    0.191915
     15          1           0       -0.367327   -1.606413    0.920161
     16          1           0       -1.412117   -2.621764   -0.224579
 ---------------------------------------------------------------------
 Rotational constants (GHZ):           4.0053986           1.7197232           1.2769801
 Leave Link  202 at Mon Oct  6 14:28:18 2025, MaxMem=   104857600 cpu:               0.0 elap:               0.0
 (Enter /home/zhouoh/g16/l301.exe)
 Standard basis: STO-3G (5D, 7F)
 Ernie: Thresh=  0.10000D-02 Tol=  0.10000D-05 Strict=F.
 There are    40 symmetry adapted cartesian basis functions of A   symmetry.
 There are    40 symmetry adapted basis functions of A   symmetry.
    40 basis functions,   120 primitive gaussians,    40 cartesian basis functions
    23 alpha electrons       23 beta electrons
       nuclear repulsion energy       199.3371304642 Hartrees.
 IExCor=    0 DFT=F Ex=HF Corr=None ExCW=0 ScaHFX=  1.000000
 ScaDFX=  1.000000  1.000000  1.000000  1.000000 ScalE2=  1.000000  1.000000
 IRadAn=      5 IRanWt=     -1 IRanGd=            0 ICorTp=0 IEmpDi=  4
 NAtoms=   16 NActive=   16 NUniq=   16 SFac= 1.00D+00 NAtFMM=   60 NAOKFM=F Big=F
 Integral buffers will be    131072 words long.
 Raffenetti 1 integral format.
 Two-electron integral symmetry is turned on.
 Leave Link  301 at Mon Oct  6 14:28:18 2025, MaxMem=   104857600 cpu:               0.0 elap:               0.0
 (Enter /home/zhouoh/g16/l402.exe)
 External calculation of energy, first and second derivatives.
 Running external command "python ../GauUMA_client.py R"
         input file       "/home/zhouoh/scratch/Gau-2817891.EIn"
         output file      "/home/zhouoh/scratch/Gau-2817891.EOu"
         message file     "/home/zhouoh/scratch/Gau-2817891.EMs"
         fchk file        "/home/zhouoh/scratch/Gau-2817891.EFC"
         mat. el file     "/home/zhouoh/scratch/Gau-2817891.EUF"
Sent job to server.
Received result from server:
SCF Done:  E(UMA) =  -234.52193235458466     A.U.
 Recovered energy= -234.521932355     dipole=      0.000000000000      0.000000000000      0.000000000000
 Energy=    -234.521932     NIter=   0.
 Dipole moment=       0.000000       0.000000       0.000000
 Leave Link  402 at Mon Oct  6 14:28:21 2025, MaxMem=   104857600 cpu:               0.0 elap:               2.5
 (Enter /home/zhouoh/g16/l716.exe)
 Dipole        = 0.00000000D+00 0.00000000D+00 0.00000000D+00
 ***** Axes restored to original set *****
 -------------------------------------------------------------------
 Center     Atomic                   Forces (Hartrees/Bohr)
 Number     Number              X              Y              Z
 -------------------------------------------------------------------
      1        6          -0.000074155   -0.000115963   -0.000201021
      2        6           0.000044207   -0.000041190    0.000714984
      3        1          -0.000015028    0.000024031    0.000028973
      4        1          -0.000009013    0.000038759    0.000079397
      5        6           0.001033162   -0.000311282    0.000150124
      6        1          -0.000762499    0.000146558    0.000012949
      7        1           0.000125438    0.000010804   -0.000032499
      8        6          -0.000421555    0.000088796   -0.000194715
      9        1          -0.000068107    0.000379781    0.000442322
     10        1          -0.000046290   -0.000018060   -0.000083696
     11        6          -0.000026403    0.000460217   -0.000221490
     12        1           0.000095954   -0.000249099   -0.000019990
     13        1          -0.000004073   -0.000012654   -0.000108980
     14        6          -0.000280152    0.000056350   -0.000138100
     15        1           0.000439836   -0.000466406   -0.000450839
     16        1          -0.000031321    0.000009358    0.000022581
 -------------------------------------------------------------------
 Cartesian Forces:  Max     0.001033162 RMS     0.000289751
 FormGI is forming the generalized inverse of G from B-inverse, IUseBI=4.
 Leave Link  716 at Mon Oct  6 14:28:21 2025, MaxMem=   104857600 cpu:               0.0 elap:               0.0
 (Enter /home/zhouoh/g16/l103.exe)

 GradGradGradGradGradGradGradGradGradGradGradGradGradGradGradGradGradGrad
 Berny optimization.
 Red2BG is reusing G-inverse.
 Internal  Forces:  Max     0.000572641 RMS     0.000186557
 Search for a saddle point.
 Step number   8 out of a maximum of   74
 All quantities printed in internal units (Hartrees-Bohrs-Radians)
 Swapping is turned off.
 Second derivative matrix not updated -- analytic derivatives used.
 ITU=  0  0  0  0  0  0  0  0
     Eigenvalues ---   -0.00354  -0.00000   0.00016   0.00034   0.00110
     Eigenvalues ---    0.00174   0.00337   0.01541   0.02132   0.02209
     Eigenvalues ---    0.02475   0.02609   0.02636   0.02853   0.02997
     Eigenvalues ---    0.03116   0.04978   0.06532   0.08525   0.10276
     Eigenvalues ---    0.10430   0.10563   0.10786   0.11452   0.11652
     Eigenvalues ---    0.13856   0.14516   0.14810   0.31964   0.34448
     Eigenvalues ---    0.35135   0.35259   0.35407   0.35636   0.36019
     Eigenvalues ---    0.36235   0.36287   0.36334   0.36372   0.62834
     Eigenvalues ---    0.64082   0.65254
 Eigenvectors required to have negative eigenvalues:
                          D1        D2        D3        D4        A22
   1                    0.45832   0.43968   0.43788   0.41923  -0.22918
                          A18       D22       D25       D19       D26
   1                   -0.19085  -0.15065   0.14948  -0.13550   0.12908
 Eigenvalue     2 is  -2.26D-06 should be greater than     0.000000 Eigenvector:
                          D19       D13       D14       R12       A18
   1                   -0.50405   0.49908   0.49589  -0.25762   0.23734
                          D22       R9        A14       D20       D21
   1                   -0.19381  -0.17928   0.12130  -0.10435  -0.10392
 RFO step:  Lambda0=1.124217450D-07 Lambda=-5.08900030D-04.
 Linear search not attempted -- option 19 set.
 Maximum step size (   0.300) exceeded in Quadratic search.
    -- Step size scaled by   0.584
 Iteration  1 RMS(Cart)=  0.08455114 RMS(Int)=  0.01646852
 Iteration  2 RMS(Cart)=  0.02367637 RMS(Int)=  0.00257560
 Iteration  3 RMS(Cart)=  0.00076514 RMS(Int)=  0.00253035
 Iteration  4 RMS(Cart)=  0.00000303 RMS(Int)=  0.00253035
 Iteration  5 RMS(Cart)=  0.00000002 RMS(Int)=  0.00253035
 ITry= 1 IFail=0 DXMaxC= 3.70D-01 DCOld= 1.00D+10 DXMaxT= 3.00D-01 DXLimC= 3.00D+00 Rises=F
 Variable       Old X    -DE/DX   Delta X   Delta X   Delta X     New X
                                 (Linear)    (Quad)   (Total)
    R1        2.80347   0.00034   0.00000   0.00048  -0.00016   2.80331
    R2        2.05341   0.00000   0.00000   0.00006   0.00006   2.05347
    R3        2.50241   0.00028   0.00000   0.00044   0.00041   2.50282
    R4        2.05370  -0.00007   0.00000   0.00001   0.00001   2.05370
    R5        2.50465  -0.00039   0.00000  -0.00042   0.00031   2.50496
    R6        2.04565   0.00028   0.00000   0.00037  -0.00021   2.04545
    R7        2.04645  -0.00010   0.00000   0.00004   0.00004   2.04649
    R8        2.49989  -0.00053   0.00000  -0.00027   0.00058   2.50047
    R9        5.48185   0.00018   0.00000   0.13791   0.13652   5.61837
   R10        2.04624   0.00026   0.00000   0.00038  -0.00018   2.04605
   R11        2.04610   0.00003   0.00000   0.00011   0.00011   2.04621
   R12        5.98462   0.00030   0.00000   0.19973   0.20035   6.18497
   R13        2.04856  -0.00018   0.00000  -0.00026   0.00036   2.04893
   R14        2.04508   0.00004   0.00000   0.00018   0.00018   2.04526
   R15        2.04947  -0.00057   0.00000  -0.00100   0.00046   2.04993
   R16        2.04540  -0.00002   0.00000  -0.00007  -0.00007   2.04533
    A1        2.03517  -0.00003   0.00000  -0.00043  -0.00023   2.03494
    A2        2.16830   0.00009   0.00000   0.00090   0.00053   2.16882
    A3        2.07970  -0.00006   0.00000  -0.00049  -0.00030   2.07940
    A4        2.03883  -0.00013   0.00000  -0.00193   0.00020   2.03903
    A5        2.15975   0.00035   0.00000   0.00299  -0.00124   2.15851
    A6        2.08450  -0.00022   0.00000  -0.00108   0.00104   2.08554
    A7        2.04412  -0.00015   0.00000  -0.00080   0.00155   2.04567
    A8        2.11201   0.00038   0.00000   0.00259  -0.00212   2.10988
    A9        2.12705  -0.00023   0.00000  -0.00178   0.00058   2.12763
   A10        2.12092  -0.00029   0.00000   0.00203  -0.00871   2.11221
   A11        2.12606  -0.00014   0.00000  -0.00197   0.00077   2.12683
   A12        2.12094  -0.00002   0.00000  -0.00010  -0.00145   2.11948
   A13        2.03610   0.00015   0.00000   0.00209   0.00069   2.03679
   A14        1.28378  -0.00012   0.00000  -0.09060  -0.09673   1.18705
   A15        2.12104  -0.00005   0.00000   0.00043   0.00128   2.12233
   A16        2.11563   0.00004   0.00000  -0.00044  -0.00090   2.11473
   A17        2.04648   0.00001   0.00000   0.00003  -0.00038   2.04611
   A18        1.59835   0.00000   0.00000  -0.14308  -0.14420   1.45415
   A19        2.11555  -0.00004   0.00000   0.00141  -0.00075   2.11480
   A20        2.11630   0.00005   0.00000  -0.00090   0.00017   2.11647
   A21        2.05130  -0.00001   0.00000  -0.00050   0.00058   2.05188
   A22        2.12675   0.00013   0.00000   0.00706   0.00777   2.13452
    D1        1.74868   0.00004   0.00000  -0.01494  -0.01366   1.73502
    D2       -1.37733   0.00001   0.00000  -0.01374  -0.01311  -1.39044
    D3       -1.38645  -0.00002   0.00000  -0.01162  -0.01252  -1.39897
    D4        1.77072  -0.00004   0.00000  -0.01042  -0.01197   1.75875
    D5       -0.00646   0.00005   0.00000  -0.00197   0.00058  -0.00588
    D6       -3.13950   0.00006   0.00000  -0.00474  -0.00095  -3.14045
    D7       -3.14143  -0.00001   0.00000   0.00142   0.00174  -3.13969
    D8        0.00872  -0.00000   0.00000  -0.00134   0.00021   0.00893
    D9       -0.01789  -0.00000   0.00000   0.00009   0.00080  -0.01710
   D10        3.13362   0.00003   0.00000  -0.00041   0.00061   3.13423
   D11        3.13967  -0.00003   0.00000   0.00132   0.00137   3.14103
   D12        0.00799   0.00000   0.00000   0.00082   0.00118   0.00917
   D13       -2.66828  -0.00018   0.00000  -0.25759  -0.25412  -2.92241
   D14        0.47093  -0.00019   0.00000  -0.25583  -0.25308   0.21785
   D15       -3.13445  -0.00002   0.00000  -0.00282  -0.00000  -3.13446
   D16       -0.00724  -0.00001   0.00000  -0.00163   0.00037  -0.00687
   D17        0.00465  -0.00003   0.00000  -0.00098   0.00109   0.00573
   D18        3.13186  -0.00002   0.00000   0.00021   0.00146   3.13332
   D19        1.56388   0.00038   0.00000   0.28877   0.28924   1.85312
   D20        1.98040   0.00005   0.00000   0.03007   0.03266   2.01307
   D21       -1.14748   0.00005   0.00000   0.02895   0.03233  -1.11515
   D22        1.19128  -0.00010   0.00000   0.10920   0.10825   1.29953
   D23       -1.87475   0.00025   0.00000  -0.00735  -0.00061  -1.87536
   D24        1.25862   0.00024   0.00000  -0.00469   0.00086   1.25947
   D25       -1.75827   0.00007   0.00000   0.03252   0.03424  -1.72403
   D26        1.37376   0.00005   0.00000   0.03300   0.03442   1.40818
         Item               Value     Threshold  Converged?
 Maximum Force            0.000573     0.000450     NO 
 RMS     Force            0.000187     0.000300     YES
 Maximum Displacement     0.370454     0.001800     NO 
 RMS     Displacement     0.100810     0.001200     NO 
 Predicted change in Energy=-2.908137D-04
 GradGradGradGradGradGradGradGradGradGradGradGradGradGradGradGradGradGrad

 Leave Link  103 at Mon Oct  6 14:28:21 2025, MaxMem=   104857600 cpu:               0.0 elap:               0.0
 (Enter /home/zhouoh/g16/l202.exe)
                          Input orientation:                          
 ---------------------------------------------------------------------
 Center     Atomic      Atomic             Coordinates (Angstroms)
 Number     Number       Type             X           Y           Z
 ---------------------------------------------------------------------
      1          6           0       -1.056502   -1.233241   -1.293451
      2          6           0        0.125040   -1.922860   -0.719867
      3          1           0       -1.999214   -1.772544   -1.258026
      4          1           0        0.795401   -2.412658   -1.421144
      5          6           0       -1.063699    2.112322    1.255381
      6          1           0       -1.394054    2.175118    0.226538
      7          1           0       -1.698468    2.563853    2.007695
      8          6           0        0.069446    1.505370    1.569113
      9          1           0        0.411587    1.427716    2.593419
     10          1           0        0.694663    1.049789    0.811474
     11          6           0       -1.023306   -0.027738   -1.840978
     12          1           0       -0.104366    0.544772   -1.899038
     13          1           0       -1.917813    0.429184   -2.244044
     14          6           0        0.382850   -1.981784    0.579055
     15          1           0       -0.267548   -1.502370    1.302853
     16          1           0        1.254055   -2.501914    0.955793
 ---------------------------------------------------------------------
                    Distance matrix (angstroms):
                    1          2          3          4          5
     1  C    0.000000
     2  C    1.483447   0.000000
     3  H    1.086650   2.196512   0.000000
     4  H    2.199290   1.086773   2.871624   0.000000
     5  C    4.205875   4.647300   4.720655   5.576332   0.000000
     6  H    3.747161   4.471772   4.260772   5.343806   1.082403
     7  H    5.072239   5.558360   5.436885   6.537735   1.082954
     8  C    4.118498   4.122533   4.797582   4.981927   1.323191
     9  H    4.933938   4.720840   5.557630   5.568887   2.106063
    10  H    3.565041   3.392067   4.416488   4.121077   2.101871
    11  C    1.324433   2.483359   2.082445   3.028498   3.764164
    12  H    2.105855   2.744499   3.061257   3.127996   3.650738
    13  H    2.099795   3.468209   2.413807   4.014320   3.975983
    14  C    2.477565   1.325570   3.015439   2.087258   4.394499
    15  H    2.726844   2.102935   3.103186   3.062458   3.701635
    16  H    3.465156   2.101860   4.002091   2.422429   5.172321
                    6          7          8          9         10
     6  H    0.000000
     7  H    1.848325   0.000000
     8  C    2.095925   2.106717   0.000000
     9  H    3.069378   2.467025   1.082725   0.000000
    10  H    2.443615   3.074151   1.082805   1.843445   0.000000
    11  C    3.043789   4.688760   3.895286   4.882739   3.338859
    12  H    2.973112   4.677650   3.602920   4.607382   2.870603
    13  H    3.070242   4.762584   4.432555   5.461156   4.067723
    14  C    4.534478   5.199587   3.638500   3.960199   3.056416
    15  H    3.993918   4.367894   3.038249   3.272948   2.771429
    16  H    5.423921   5.957003   4.223480   4.339765   3.598381
                   11         12         13         14         15
    11  C    0.000000
    12  H    1.084245   0.000000
    13  H    1.082304   1.849588   0.000000
    14  C    3.413521   3.572367   4.367574   0.000000
    15  H    3.553784   3.803882   4.362883   1.084776   0.000000
    16  H    4.373768   4.390634   5.375039   1.082343   1.853325
                   16
    16  H    0.000000
 Stoichiometry    C6H10
 Framework group  C1[X(C6H10)]
 Deg. of freedom    42
 Full point group                 C1      NOp   1
 RotChk:  IX=0 Diff= 3.23D-02
 Largest Abelian subgroup         C1      NOp   1
 Largest concise Abelian subgroup C1      NOp   1
                         Standard orientation:                         
 ---------------------------------------------------------------------
 Center     Atomic      Atomic             Coordinates (Angstroms)
 Number     Number       Type             X           Y           Z
 ---------------------------------------------------------------------
      1          6           0       -1.500979    0.811849    0.362107
      2          6           0       -1.850660   -0.535876   -0.149727
      3          1           0       -1.861655    1.063490    1.355786
      4          1           0       -2.692116   -0.597262   -0.834753
      5          6           0        2.683166    0.395305    0.268261
      6          1           0        2.198046    1.347051    0.093805
      7          1           0        3.517933    0.384107    0.958063
      8          6           0        2.264099   -0.702362   -0.340299
      9          1           0        2.733470   -1.663514   -0.172457
     10          1           0        1.423753   -0.683882   -1.022900
     11          6           0       -0.796753    1.706736   -0.314182
     12          1           0       -0.418973    1.498528   -1.308928
     13          1           0       -0.569360    2.676567    0.109023
     14          6           0       -1.209396   -1.642958    0.197094
     15          1           0       -0.365783   -1.613116    0.878391
     16          1           0       -1.502178   -2.608139   -0.195550
 ---------------------------------------------------------------------
 Rotational constants (GHZ):           4.0412940           1.7152838           1.2827626
 Leave Link  202 at Mon Oct  6 14:28:21 2025, MaxMem=   104857600 cpu:               0.0 elap:               0.0
 (Enter /home/zhouoh/g16/l301.exe)
 Standard basis: STO-3G (5D, 7F)
 Ernie: Thresh=  0.10000D-02 Tol=  0.10000D-05 Strict=F.
 There are    40 symmetry adapted cartesian basis functions of A   symmetry.
 There are    40 symmetry adapted basis functions of A   symmetry.
    40 basis functions,   120 primitive gaussians,    40 cartesian basis functions
    23 alpha electrons       23 beta electrons
       nuclear repulsion energy       199.5533627069 Hartrees.
 IExCor=    0 DFT=F Ex=HF Corr=None ExCW=0 ScaHFX=  1.000000
 ScaDFX=  1.000000  1.000000  1.000000  1.000000 ScalE2=  1.000000  1.000000
 IRadAn=      5 IRanWt=     -1 IRanGd=            0 ICorTp=0 IEmpDi=  4
 NAtoms=   16 NActive=   16 NUniq=   16 SFac= 1.00D+00 NAtFMM=   60 NAOKFM=F Big=F
 Integral buffers will be    131072 words long.
 Raffenetti 1 integral format.
 Two-electron integral symmetry is turned on.
 Leave Link  301 at Mon Oct  6 14:28:21 2025, MaxMem=   104857600 cpu:               0.0 elap:               0.0
 (Enter /home/zhouoh/g16/l402.exe)
 External calculation of energy, first and second derivatives.
 Running external command "python ../GauUMA_client.py R"
         input file       "/home/zhouoh/scratch/Gau-2817891.EIn"
         output file      "/home/zhouoh/scratch/Gau-2817891.EOu"
         message file     "/home/zhouoh/scratch/Gau-2817891.EMs"
         fchk file        "/home/zhouoh/scratch/Gau-2817891.EFC"
         mat. el file     "/home/zhouoh/scratch/Gau-2817891.EUF"
Sent job to server.
Received result from server:
SCF Done:  E(UMA) =  -234.52222401037693     A.U.
 Recovered energy= -234.522224010     dipole=      0.000000000000      0.000000000000      0.000000000000
 Energy=    -234.522224     NIter=   0.
 Dipole moment=       0.000000       0.000000       0.000000
 Leave Link  402 at Mon Oct  6 14:28:23 2025, MaxMem=   104857600 cpu:               0.0 elap:               2.5
 (Enter /home/zhouoh/g16/l716.exe)
 Dipole        = 0.00000000D+00 0.00000000D+00 0.00000000D+00
 ***** Axes restored to original set *****
 -------------------------------------------------------------------
 Center     Atomic                   Forces (Hartrees/Bohr)
 Number     Number              X              Y              Z
 -------------------------------------------------------------------
      1        6          -0.000084017    0.000007075   -0.000348354
      2        6           0.000077579   -0.000017849    0.000964062
      3        1          -0.000016236    0.000029665    0.000015808
      4        1          -0.000017653    0.000031975    0.000102226
      5        6           0.001286671   -0.000392169    0.000078207
      6        1          -0.000840828    0.000108276    0.000017342
      7        1           0.000126104   -0.000029990   -0.000036115
      8        6          -0.000602755    0.000108891   -0.000187755
      9        1          -0.000021157    0.000461335    0.000468566
     10        1          -0.000072971   -0.000034671   -0.000077019
     11        6           0.000001048    0.000480611   -0.000186487
     12        1           0.000000139   -0.000313789    0.000031533
     13        1           0.000010254   -0.000012472   -0.000148488
     14        6          -0.000356962    0.000161001   -0.000231286
     15        1           0.000557383   -0.000577547   -0.000488629
     16        1          -0.000046598   -0.000010341    0.000026387
 -------------------------------------------------------------------
 Cartesian Forces:  Max     0.001286671 RMS     0.000352550
 FormGI is forming the generalized inverse of G from B-inverse, IUseBI=4.
 Leave Link  716 at Mon Oct  6 14:28:23 2025, MaxMem=   104857600 cpu:               0.0 elap:               0.0
 (Enter /home/zhouoh/g16/l103.exe)

 GradGradGradGradGradGradGradGradGradGradGradGradGradGradGradGradGradGrad
 Berny optimization.
 Red2BG is reusing G-inverse.
 Internal  Forces:  Max     0.000737652 RMS     0.000234561
 Search for a saddle point.
 Step number   9 out of a maximum of   74
 All quantities printed in internal units (Hartrees-Bohrs-Radians)
 Swapping is turned off.
 Second derivative matrix not updated -- analytic derivatives used.
 ITU=  0  0  0  0  0  0  0  0  0
     Eigenvalues ---   -0.00356   0.00008   0.00014   0.00049   0.00163
     Eigenvalues ---    0.00219   0.00404   0.01562   0.02135   0.02245
     Eigenvalues ---    0.02477   0.02608   0.02647   0.02845   0.03006
     Eigenvalues ---    0.03133   0.04913   0.06701   0.08133   0.10258
     Eigenvalues ---    0.10422   0.10555   0.10776   0.11451   0.11644
     Eigenvalues ---    0.13845   0.14505   0.14820   0.31976   0.34352
     Eigenvalues ---    0.35113   0.35192   0.35402   0.35688   0.36022
     Eigenvalues ---    0.36228   0.36293   0.36322   0.36396   0.62914
     Eigenvalues ---    0.64038   0.65033
 Eigenvectors required to have negative eigenvalues:
                          D1        D2        D3        D4        A22
   1                   -0.46067  -0.44318  -0.44128  -0.42379   0.24017
                          A18       D19       D22       D25       R9
   1                    0.15874   0.15424   0.15395  -0.13862  -0.13277
 RFO step:  Lambda0=1.826501784D-07 Lambda=-5.16393246D-04.
 Linear search not attempted -- option 19 set.
 Maximum step size (   0.300) exceeded in Quadratic search.
    -- Step size scaled by   0.552
 Iteration  1 RMS(Cart)=  0.08541454 RMS(Int)=  0.00990877
 Iteration  2 RMS(Cart)=  0.01589900 RMS(Int)=  0.00221879
 Iteration  3 RMS(Cart)=  0.00025264 RMS(Int)=  0.00221204
 Iteration  4 RMS(Cart)=  0.00000156 RMS(Int)=  0.00221204
 Iteration  5 RMS(Cart)=  0.00000001 RMS(Int)=  0.00221204
 ITry= 1 IFail=0 DXMaxC= 3.40D-01 DCOld= 1.00D+10 DXMaxT= 3.00D-01 DXLimC= 3.00D+00 Rises=F
 Variable       Old X    -DE/DX   Delta X   Delta X   Delta X     New X
                                 (Linear)    (Quad)   (Total)
    R1        2.80331   0.00043   0.00000   0.00060  -0.00001   2.80330
    R2        2.05347  -0.00000   0.00000   0.00007   0.00007   2.05354
    R3        2.50282   0.00017   0.00000   0.00040   0.00061   2.50343
    R4        2.05370  -0.00009   0.00000   0.00001   0.00001   2.05371
    R5        2.50496  -0.00054   0.00000  -0.00056   0.00000   2.50497
    R6        2.04545   0.00036   0.00000   0.00046   0.00015   2.04559
    R7        2.04649  -0.00011   0.00000   0.00006   0.00006   2.04655
    R8        2.50047  -0.00071   0.00000  -0.00044   0.00044   2.50091
    R9        5.61837   0.00015   0.00000   0.16389   0.16269   5.78105
   R10        2.04605   0.00032   0.00000   0.00037   0.00007   2.04613
   R11        2.04621   0.00003   0.00000   0.00008   0.00008   2.04629
   R12        6.18497   0.00027   0.00000   0.19032   0.19056   6.37554
   R13        2.04893  -0.00031   0.00000  -0.00055   0.00030   2.04923
   R14        2.04526   0.00004   0.00000   0.00018   0.00018   2.04544
   R15        2.04993  -0.00074   0.00000  -0.00125  -0.00001   2.04992
   R16        2.04533  -0.00002   0.00000  -0.00005  -0.00005   2.04528
    A1        2.03494  -0.00002   0.00000  -0.00031  -0.00035   2.03459
    A2        2.16882   0.00009   0.00000   0.00055   0.00066   2.16948
    A3        2.07940  -0.00007   0.00000  -0.00026  -0.00032   2.07908
    A4        2.03903  -0.00017   0.00000  -0.00242  -0.00035   2.03868
    A5        2.15851   0.00047   0.00000   0.00394  -0.00018   2.15832
    A6        2.08554  -0.00029   0.00000  -0.00153   0.00053   2.08607
    A7        2.04567  -0.00018   0.00000  -0.00085   0.00081   2.04648
    A8        2.10988   0.00049   0.00000   0.00315  -0.00019   2.10969
    A9        2.12763  -0.00031   0.00000  -0.00229  -0.00062   2.12701
   A10        2.11221  -0.00045   0.00000  -0.03175  -0.03934   2.07287
   A11        2.12683  -0.00015   0.00000  -0.00222  -0.00037   2.12646
   A12        2.11948  -0.00002   0.00000  -0.00014  -0.00105   2.11844
   A13        2.03679   0.00017   0.00000   0.00238   0.00142   2.03821
   A14        1.18705  -0.00015   0.00000  -0.08682  -0.09265   1.09440
   A15        2.12233  -0.00010   0.00000   0.00009   0.00164   2.12397
   A16        2.11473   0.00009   0.00000   0.00000  -0.00079   2.11394
   A17        2.04611   0.00002   0.00000  -0.00008  -0.00084   2.04526
   A18        1.45415   0.00002   0.00000  -0.12936  -0.12935   1.32480
   A19        2.11480  -0.00003   0.00000   0.00203  -0.00027   2.11453
   A20        2.11647   0.00005   0.00000  -0.00119  -0.00005   2.11642
   A21        2.05188  -0.00002   0.00000  -0.00083   0.00032   2.05220
   A22        2.13452   0.00013   0.00000   0.00296   0.00329   2.13781
    D1        1.73502   0.00004   0.00000  -0.00992  -0.00861   1.72641
    D2       -1.39044   0.00001   0.00000  -0.00912  -0.00834  -1.39879
    D3       -1.39897  -0.00004   0.00000  -0.00629  -0.00686  -1.40583
    D4        1.75875  -0.00007   0.00000  -0.00548  -0.00660   1.75215
    D5       -0.00588   0.00007   0.00000  -0.00322  -0.00063  -0.00650
    D6       -3.14045   0.00007   0.00000  -0.00570  -0.00238   3.14036
    D7       -3.13969  -0.00001   0.00000   0.00050   0.00116  -3.13853
    D8        0.00893  -0.00001   0.00000  -0.00198  -0.00060   0.00833
    D9       -0.01710   0.00001   0.00000  -0.00010   0.00071  -0.01638
   D10        3.13423   0.00003   0.00000  -0.00046   0.00059   3.13482
   D11        3.14103  -0.00002   0.00000   0.00073   0.00099  -3.14116
   D12        0.00917  -0.00000   0.00000   0.00037   0.00087   0.01004
   D13       -2.92241  -0.00016   0.00000  -0.19583  -0.19188  -3.11428
   D14        0.21785  -0.00015   0.00000  -0.19485  -0.19116   0.02668
   D15       -3.13446  -0.00007   0.00000  -0.00244   0.00002  -3.13444
   D16       -0.00687  -0.00003   0.00000  -0.00110   0.00078  -0.00609
   D17        0.00573  -0.00006   0.00000  -0.00141   0.00076   0.00650
   D18        3.13332  -0.00003   0.00000  -0.00007   0.00153   3.13484
   D19        1.85312   0.00040   0.00000   0.26209   0.26248   2.11560
   D20        2.01307   0.00007   0.00000  -0.00078   0.00230   2.01537
   D21       -1.11515   0.00004   0.00000  -0.00205   0.00159  -1.11356
   D22        1.29953  -0.00015   0.00000   0.08606   0.08515   1.38469
   D23       -1.87536   0.00032   0.00000   0.02053   0.02613  -1.84923
   D24        1.25947   0.00032   0.00000   0.02293   0.02782   1.28730
   D25       -1.72403   0.00011   0.00000   0.03882   0.04065  -1.68338
   D26        1.40818   0.00009   0.00000   0.03917   0.04076   1.44894
         Item               Value     Threshold  Converged?
 Maximum Force            0.000738     0.000450     NO 
 RMS     Force            0.000235     0.000300     YES
 Maximum Displacement     0.339974     0.001800     NO 
 RMS     Displacement     0.094496     0.001200     NO 
 Predicted change in Energy=-2.688315D-04
 GradGradGradGradGradGradGradGradGradGradGradGradGradGradGradGradGradGrad

 Leave Link  103 at Mon Oct  6 14:28:23 2025, MaxMem=   104857600 cpu:               0.0 elap:               0.0
 (Enter /home/zhouoh/g16/l202.exe)
                          Input orientation:                          
 ---------------------------------------------------------------------
 Center     Atomic      Atomic             Coordinates (Angstroms)
 Number     Number       Type             X           Y           Z
 ---------------------------------------------------------------------
      1          6           0       -1.042587   -1.199501   -1.289557
      2          6           0        0.109609   -1.935891   -0.714429
      3          1           0       -2.007097   -1.698548   -1.250121
      4          1           0        0.752555   -2.463568   -1.413903
      5          6           0       -1.117520    2.053823    1.285151
      6          1           0       -1.554898    1.995211    0.296703
      7          1           0       -1.693965    2.553702    2.053716
      8          6           0        0.073112    1.531899    1.533034
      9          1           0        0.522354    1.575862    2.517222
     10          1           0        0.640011    1.028332    0.759983
     11          6           0       -0.959763    0.000459   -1.844728
     12          1           0       -0.018313    0.534768   -1.908909
     13          1           0       -1.835360    0.490921   -2.250154
     14          6           0        0.371759   -1.992002    0.583749
     15          1           0       -0.252612   -1.475828    1.305172
     16          1           0        1.220788   -2.546624    0.961844
 ---------------------------------------------------------------------
                    Distance matrix (angstroms):
                    1          2          3          4          5
     1  C    0.000000
     2  C    1.483441   0.000000
     3  H    1.086685   2.196302   0.000000
     4  H    2.199060   1.086778   2.868408   0.000000
     5  C    4.149560   4.628389   4.615110   5.584702   0.000000
     6  H    3.603452   4.387088   4.030013   5.303888   1.082481
     7  H    5.068362   5.574222   5.393980   6.571366   1.082987
     8  C    4.083178   4.132553   4.744366   5.010972   1.323426
     9  H    4.964196   4.790234   5.595780   5.641253   2.106094
    10  H    3.463378   3.352885   4.299253   4.114829   2.101510
    11  C    1.324756   2.484066   2.082568   3.031349   3.746642
    12  H    2.107231   2.747236   3.062183   3.135170   3.703755
    13  H    2.099705   3.468540   2.413159   4.015673   3.931455
    14  C    2.477440   1.325571   3.017971   2.087581   4.367908
    15  H    2.726359   2.102773   3.107626   3.062575   3.634130
    16  H    3.465027   2.101810   4.003906   2.422873   5.170718
                    6          7          8          9         10
     6  H    0.000000
     7  H    1.848877   0.000000
     8  C    2.096090   2.106598   0.000000
     9  H    3.069453   2.466390   1.082764   0.000000
    10  H    2.442767   3.073750   1.082848   1.844321   0.000000
    11  C    2.986460   4.717623   3.849859   4.868796   3.224952
    12  H    3.059201   4.752505   3.584634   4.578956   2.792845
    13  H    2.971200   4.774763   4.363303   5.428056   3.934107
    14  C    4.437598   5.204944   3.661722   4.060868   3.037341
    15  H    3.842014   4.344528   3.033881   3.373788   2.713821
    16  H    5.364244   5.975057   4.275251   4.461155   3.627446
                   11         12         13         14         15
    11  C    0.000000
    12  H    1.084405   0.000000
    13  H    1.082401   1.849332   0.000000
    14  C    3.411796   3.570723   4.366611   0.000000
    15  H    3.549838   3.798382   4.360451   1.084771   0.000000
    16  H    4.372560   4.389940   5.374352   1.082318   1.853480
                   16
    16  H    0.000000
 Stoichiometry    C6H10
 Framework group  C1[X(C6H10)]
 Deg. of freedom    42
 Full point group                 C1      NOp   1
 RotChk:  IX=2 Diff= 2.25D-02
 Largest Abelian subgroup         C1      NOp   1
 Largest concise Abelian subgroup C1      NOp   1
                         Standard orientation:                         
 ---------------------------------------------------------------------
 Center     Atomic      Atomic             Coordinates (Angstroms)
 Number     Number       Type             X           Y           Z
 ---------------------------------------------------------------------
      1          6           0       -1.464454    0.821180    0.362298
      2          6           0       -1.862680   -0.523598   -0.121008
      3          1           0       -1.777800    1.088838    1.367812
      4          1           0       -2.738355   -0.574361   -0.762650
      5          6           0        2.658887    0.356639    0.329098
      6          1           0        2.108297    1.288583    0.319310
      7          1           0        3.543405    0.309689    0.952223
      8          6           0        2.257997   -0.676675   -0.394093
      9          1           0        2.793044   -1.618000   -0.390928
     10          1           0        1.368765   -0.622961   -1.009675
     11          6           0       -0.772965    1.696701   -0.352043
     12          1           0       -0.441741    1.474425   -1.360418
     13          1           0       -0.510785    2.665938    0.052226
     14          6           0       -1.224207   -1.639385    0.202272
     15          1           0       -0.347736   -1.619455    0.841121
     16          1           0       -1.552560   -2.601869   -0.168161
 ---------------------------------------------------------------------
 Rotational constants (GHZ):           4.0591832           1.7232546           1.2975789
 Leave Link  202 at Mon Oct  6 14:28:23 2025, MaxMem=   104857600 cpu:               0.0 elap:               0.0
 (Enter /home/zhouoh/g16/l301.exe)
 Standard basis: STO-3G (5D, 7F)
 Ernie: Thresh=  0.10000D-02 Tol=  0.10000D-05 Strict=F.
 There are    40 symmetry adapted cartesian basis functions of A   symmetry.
 There are    40 symmetry adapted basis functions of A   symmetry.
    40 basis functions,   120 primitive gaussians,    40 cartesian basis functions
    23 alpha electrons       23 beta electrons
       nuclear repulsion energy       199.9091108085 Hartrees.
 IExCor=    0 DFT=F Ex=HF Corr=None ExCW=0 ScaHFX=  1.000000
 ScaDFX=  1.000000  1.000000  1.000000  1.000000 ScalE2=  1.000000  1.000000
 IRadAn=      5 IRanWt=     -1 IRanGd=            0 ICorTp=0 IEmpDi=  4
 NAtoms=   16 NActive=   16 NUniq=   16 SFac= 1.00D+00 NAtFMM=   60 NAOKFM=F Big=F
 Integral buffers will be    131072 words long.
 Raffenetti 1 integral format.
 Two-electron integral symmetry is turned on.
 Leave Link  301 at Mon Oct  6 14:28:23 2025, MaxMem=   104857600 cpu:               0.0 elap:               0.0
 (Enter /home/zhouoh/g16/l402.exe)
 External calculation of energy, first and second derivatives.
 Running external command "python ../GauUMA_client.py R"
         input file       "/home/zhouoh/scratch/Gau-2817891.EIn"
         output file      "/home/zhouoh/scratch/Gau-2817891.EOu"
         message file     "/home/zhouoh/scratch/Gau-2817891.EMs"
         fchk file        "/home/zhouoh/scratch/Gau-2817891.EFC"
         mat. el file     "/home/zhouoh/scratch/Gau-2817891.EUF"
Sent job to server.
Received result from server:
SCF Done:  E(UMA) =  -234.52249238189526     A.U.
 Recovered energy= -234.522492382     dipole=      0.000000000000      0.000000000000      0.000000000000
 Energy=    -234.522492     NIter=   0.
 Dipole moment=       0.000000       0.000000       0.000000
 Leave Link  402 at Mon Oct  6 14:28:26 2025, MaxMem=   104857600 cpu:               0.0 elap:               2.5
 (Enter /home/zhouoh/g16/l716.exe)
 Dipole        = 0.00000000D+00 0.00000000D+00 0.00000000D+00
 ***** Axes restored to original set *****
 -------------------------------------------------------------------
 Center     Atomic                   Forces (Hartrees/Bohr)
 Number     Number              X              Y              Z
 -------------------------------------------------------------------
      1        6          -0.000056922    0.000184051   -0.000494277
      2        6           0.000108132    0.000029765    0.000981872
      3        1          -0.000025359    0.000043454    0.000009867
      4        1          -0.000015040    0.000039612    0.000107368
      5        6           0.001329034   -0.000338707   -0.000005031
      6        1          -0.000725551    0.000031109    0.000107706
      7        1           0.000103358   -0.000062166   -0.000029627
      8        6          -0.000740546    0.000133905   -0.000115003
      9        1           0.000020785    0.000489564    0.000357762
     10        1          -0.000081115   -0.000047617   -0.000047280
     11        6           0.000026205    0.000382312   -0.000171068
     12        1          -0.000115256   -0.000434158    0.000091949
     13        1           0.000020340   -0.000005264   -0.000148563
     14        6          -0.000357318    0.000195042   -0.000236671
     15        1           0.000571140   -0.000617269   -0.000437342
     16        1          -0.000061887   -0.000023634    0.000028340
 -------------------------------------------------------------------
 Cartesian Forces:  Max     0.001329034 RMS     0.000359471
 FormGI is forming the generalized inverse of G from B-inverse, IUseBI=4.
 Leave Link  716 at Mon Oct  6 14:28:26 2025, MaxMem=   104857600 cpu:               0.0 elap:               0.0
 (Enter /home/zhouoh/g16/l103.exe)

 GradGradGradGradGradGradGradGradGradGradGradGradGradGradGradGradGradGrad
 Berny optimization.
 Red2BG is reusing G-inverse.
 Internal  Forces:  Max     0.000832971 RMS     0.000243768
 Search for a saddle point.
 Step number  10 out of a maximum of   74
 All quantities printed in internal units (Hartrees-Bohrs-Radians)
 Swapping is turned off.
 Second derivative matrix not updated -- analytic derivatives used.
 ITU=  0  0  0  0  0  0  0  0  0  0
     Eigenvalues ---   -0.00356   0.00010   0.00021   0.00067   0.00227
     Eigenvalues ---    0.00279   0.00473   0.01604   0.02139   0.02279
     Eigenvalues ---    0.02480   0.02607   0.02666   0.02849   0.03010
     Eigenvalues ---    0.03147   0.04837   0.06793   0.07872   0.10246
     Eigenvalues ---    0.10421   0.10549   0.10758   0.11455   0.11641
     Eigenvalues ---    0.13836   0.14503   0.14827   0.31984   0.34254
     Eigenvalues ---    0.35053   0.35160   0.35397   0.35737   0.36009
     Eigenvalues ---    0.36223   0.36285   0.36311   0.36404   0.62968
     Eigenvalues ---    0.64026   0.64805
 Eigenvectors required to have negative eigenvalues:
                          D1        D2        D3        D4        A22
   1                   -0.46222  -0.44585  -0.44405  -0.42769   0.25373
                          D19       D22       R9        A18       D25
   1                    0.17186   0.14754  -0.13931   0.13568  -0.12145
 RFO step:  Lambda0=9.186880848D-07 Lambda=-4.63201339D-04.
 Linear search not attempted -- option 19 set.
 Maximum step size (   0.300) exceeded in Quadratic search.
    -- Step size scaled by   0.533
 Iteration  1 RMS(Cart)=  0.07963860 RMS(Int)=  0.00633040
 Iteration  2 RMS(Cart)=  0.00954089 RMS(Int)=  0.00165428
 Iteration  3 RMS(Cart)=  0.00011860 RMS(Int)=  0.00165278
 Iteration  4 RMS(Cart)=  0.00000062 RMS(Int)=  0.00165278
 ITry= 1 IFail=0 DXMaxC= 3.44D-01 DCOld= 1.00D+10 DXMaxT= 3.00D-01 DXLimC= 3.00D+00 Rises=F
 Variable       Old X    -DE/DX   Delta X   Delta X   Delta X     New X
                                 (Linear)    (Quad)   (Total)
    R1        2.80330   0.00046   0.00000   0.00068   0.00020   2.80350
    R2        2.05354   0.00000   0.00000   0.00007   0.00007   2.05361
    R3        2.50343  -0.00008   0.00000   0.00018   0.00050   2.50392
    R4        2.05371  -0.00010   0.00000  -0.00000  -0.00000   2.05371
    R5        2.50497  -0.00051   0.00000  -0.00055  -0.00022   2.50475
    R6        2.04559   0.00032   0.00000   0.00036   0.00034   2.04594
    R7        2.04655  -0.00010   0.00000   0.00004   0.00004   2.04659
    R8        2.50091  -0.00083   0.00000  -0.00055   0.00023   2.50114
    R9        5.78105   0.00016   0.00000   0.17528   0.17441   5.95546
   R10        2.04613   0.00027   0.00000   0.00025   0.00024   2.04637
   R11        2.04629   0.00001   0.00000   0.00011   0.00011   2.04639
   R12        6.37554   0.00026   0.00000   0.19687   0.19681   6.57234
   R13        2.04923  -0.00044   0.00000  -0.00078   0.00006   2.04929
   R14        2.04544   0.00004   0.00000   0.00008   0.00008   2.04552
   R15        2.04992  -0.00074   0.00000  -0.00122  -0.00037   2.04955
   R16        2.04528  -0.00003   0.00000  -0.00003  -0.00003   2.04525
    A1        2.03459   0.00002   0.00000  -0.00001  -0.00023   2.03436
    A2        2.16948   0.00004   0.00000  -0.00010   0.00037   2.16986
    A3        2.07908  -0.00006   0.00000   0.00009  -0.00016   2.07892
    A4        2.03868  -0.00019   0.00000  -0.00231  -0.00055   2.03814
    A5        2.15832   0.00051   0.00000   0.00396   0.00045   2.15878
    A6        2.08607  -0.00032   0.00000  -0.00165   0.00010   2.08616
    A7        2.04648  -0.00016   0.00000  -0.00055   0.00037   2.04686
    A8        2.10969   0.00045   0.00000   0.00269   0.00085   2.11054
    A9        2.12701  -0.00029   0.00000  -0.00214  -0.00122   2.12579
   A10        2.07287  -0.00043   0.00000  -0.03988  -0.04429   2.02858
   A11        2.12646  -0.00012   0.00000  -0.00189  -0.00085   2.12562
   A12        2.11844  -0.00002   0.00000  -0.00022  -0.00072   2.11772
   A13        2.03821   0.00014   0.00000   0.00212   0.00158   2.03979
   A14        1.09440  -0.00016   0.00000  -0.08518  -0.08923   1.00517
   A15        2.12397  -0.00020   0.00000  -0.00084   0.00094   2.12491
   A16        2.11394   0.00014   0.00000   0.00077  -0.00013   2.11382
   A17        2.04526   0.00005   0.00000   0.00007  -0.00081   2.04445
   A18        1.32480   0.00007   0.00000  -0.10316  -0.10165   1.22315
   A19        2.11453  -0.00000   0.00000   0.00231   0.00012   2.11465
   A20        2.11642   0.00004   0.00000  -0.00125  -0.00016   2.11626
   A21        2.05220  -0.00004   0.00000  -0.00106   0.00004   2.05224
   A22        2.13781   0.00010   0.00000  -0.00030   0.00024   2.13806
    D1        1.72641   0.00004   0.00000  -0.00364  -0.00244   1.72397
    D2       -1.39879   0.00001   0.00000  -0.00345  -0.00256  -1.40134
    D3       -1.40583  -0.00006   0.00000  -0.00092  -0.00108  -1.40691
    D4        1.75215  -0.00009   0.00000  -0.00073  -0.00119   1.75096
    D5       -0.00650   0.00009   0.00000  -0.00301  -0.00065  -0.00715
    D6        3.14036   0.00010   0.00000  -0.00440  -0.00197   3.13839
    D7       -3.13853  -0.00001   0.00000  -0.00022   0.00075  -3.13778
    D8        0.00833   0.00000   0.00000  -0.00162  -0.00057   0.00776
    D9       -0.01638  -0.00000   0.00000  -0.00029   0.00056  -0.01583
   D10        3.13482   0.00002   0.00000  -0.00038   0.00042   3.13524
   D11       -3.14116  -0.00003   0.00000  -0.00009   0.00044  -3.14072
   D12        0.01004  -0.00001   0.00000  -0.00019   0.00031   0.01035
   D13       -3.11428  -0.00008   0.00000  -0.13395  -0.13073   3.03818
   D14        0.02668  -0.00006   0.00000  -0.13364  -0.13031  -0.10363
   D15       -3.13444  -0.00008   0.00000  -0.00213  -0.00059  -3.13503
   D16       -0.00609  -0.00004   0.00000  -0.00061   0.00070  -0.00539
   D17        0.00650  -0.00006   0.00000  -0.00181  -0.00016   0.00634
   D18        3.13484  -0.00002   0.00000  -0.00029   0.00114   3.13598
   D19        2.11560   0.00040   0.00000   0.22466   0.22537   2.34097
   D20        2.01537   0.00011   0.00000  -0.01958  -0.01693   1.99844
   D21       -1.11356   0.00007   0.00000  -0.02102  -0.01815  -1.13171
   D22        1.38469  -0.00016   0.00000   0.06169   0.06058   1.44527
   D23       -1.84923   0.00036   0.00000   0.04359   0.04729  -1.80193
   D24        1.28730   0.00035   0.00000   0.04494   0.04857   1.33586
   D25       -1.68338   0.00014   0.00000   0.03778   0.03907  -1.64431
   D26        1.44894   0.00012   0.00000   0.03787   0.03920   1.48815
         Item               Value     Threshold  Converged?
 Maximum Force            0.000833     0.000450     NO 
 RMS     Force            0.000244     0.000300     YES
 Maximum Displacement     0.344233     0.001800     NO 
 RMS     Displacement     0.084811     0.001200     NO 
 Predicted change in Energy=-2.236429D-04
 GradGradGradGradGradGradGradGradGradGradGradGradGradGradGradGradGradGrad

 Leave Link  103 at Mon Oct  6 14:28:26 2025, MaxMem=   104857600 cpu:               0.0 elap:               0.0
 (Enter /home/zhouoh/g16/l202.exe)
                          Input orientation:                          
 ---------------------------------------------------------------------
 Center     Atomic      Atomic             Coordinates (Angstroms)
 Number     Number       Type             X           Y           Z
 ---------------------------------------------------------------------
      1          6           0       -1.034122   -1.169221   -1.289873
      2          6           0        0.091091   -1.942130   -0.708994
      3          1           0       -2.015936   -1.633001   -1.246123
      4          1           0        0.712486   -2.499982   -1.404518
      5          6           0       -1.155109    1.987300    1.317025
      6          1           0       -1.666916    1.813051    0.379023
      7          1           0       -1.699065    2.519041    2.087913
      8          6           0        0.084710    1.563583    1.504342
      9          1           0        0.607657    1.724932    2.438763
     10          1           0        0.619870    1.028040    0.730080
     11          6           0       -0.908523    0.022047   -1.856246
     12          1           0        0.051096    0.522278   -1.926242
     13          1           0       -1.766111    0.539363   -2.266865
     14          6           0        0.353782   -1.995310    0.589081
     15          1           0       -0.249555   -1.449862    1.306558
     16          1           0        1.182718   -2.577114    0.970850
 ---------------------------------------------------------------------
                    Distance matrix (angstroms):
                    1          2          3          4          5
     1  C    0.000000
     2  C    1.483548   0.000000
     3  H    1.086721   2.196277   0.000000
     4  H    2.198797   1.086777   2.867234   0.000000
     5  C    4.095630   4.593276   4.518554   5.570494   0.000000
     6  H    3.475570   4.286695   3.825988   5.238781   1.082663
     7  H    5.045282   5.561420   5.334385   6.572917   1.083008
     8  C    4.065420   4.145952   4.711254   5.036678   1.323546
     9  H    4.997428   4.860304   5.633590   5.712416   2.105819
    10  H    3.412310   3.342521   4.234854   4.124563   2.101246
    11  C    1.325019   2.484634   2.082738   3.031890   3.740679
    12  H    2.108041   2.748927   3.062746   3.137465   3.757659
    13  H    2.099900   3.469001   2.413191   4.015557   3.913325
    14  C    2.477734   1.325456   3.019073   2.087534   4.320629
    15  H    2.726858   2.102574   3.109633   3.062386   3.554465
    16  H    3.465171   2.101601   4.004710   2.422692   5.139956
                    6          7          8          9         10
     6  H    0.000000
     7  H    1.849260   0.000000
     8  C    2.096848   2.106017   0.000000
     9  H    3.069850   2.464684   1.082890   0.000000
    10  H    2.443128   3.073151   1.082906   1.845374   0.000000
    11  C    2.962985   4.734589   3.828368   4.862687   3.168137
    12  H    3.151493   4.812855   3.585297   4.561733   2.763213
    13  H    2.938170   4.784111   4.323952   5.402155   3.861786
    14  C    4.316359   5.180738   3.684538   4.162449   3.038310
    15  H    3.676389   4.296951   3.038372   3.477934   2.688536
    16  H    5.267278   5.960143   4.316898   4.581819   3.656761
                   11         12         13         14         15
    11  C    0.000000
    12  H    1.084436   0.000000
    13  H    1.082441   1.848934   0.000000
    14  C    3.412150   3.571655   4.367486   0.000000
    15  H    3.550223   3.798780   4.361915   1.084574   0.000000
    16  H    4.372802   4.390893   5.375018   1.082302   1.853322
                   16
    16  H    0.000000
 Stoichiometry    C6H10
 Framework group  C1[X(C6H10)]
 Deg. of freedom    42
 Full point group                 C1      NOp   1
 RotChk:  IX=2 Diff= 2.07D-02
 Largest Abelian subgroup         C1      NOp   1
 Largest concise Abelian subgroup C1      NOp   1
                         Standard orientation:                         
 ---------------------------------------------------------------------
 Center     Atomic      Atomic             Coordinates (Angstroms)
 Number     Number       Type             X           Y           Z
 ---------------------------------------------------------------------
      1          6           0       -1.442393    0.819399    0.361923
      2          6           0       -1.862689   -0.526397   -0.099702
      3          1           0       -1.719003    1.093424    1.376497
      4          1           0       -2.762108   -0.576693   -0.707650
      5          6           0        2.623661    0.328867    0.389555
      6          1           0        2.007639    1.209855    0.518146
      7          1           0        3.536104    0.272193    0.970192
      8          6           0        2.267412   -0.634257   -0.445461
      9          1           0        2.869783   -1.523962   -0.580456
     10          1           0        1.350714   -0.572197   -1.018609
     11          6           0       -0.774450    1.689400   -0.381465
     12          1           0       -0.480053    1.462035   -1.400109
     13          1           0       -0.496116    2.660273    0.007913
     14          6           0       -1.216313   -1.642951    0.204168
     15          1           0       -0.316700   -1.623571    0.809661
     16          1           0       -1.561618   -2.605720   -0.149696
 ---------------------------------------------------------------------
 Rotational constants (GHZ):           4.0592956           1.7302349           1.3126392
 Leave Link  202 at Mon Oct  6 14:28:26 2025, MaxMem=   104857600 cpu:               0.0 elap:               0.0
 (Enter /home/zhouoh/g16/l301.exe)
 Standard basis: STO-3G (5D, 7F)
 Ernie: Thresh=  0.10000D-02 Tol=  0.10000D-05 Strict=F.
 There are    40 symmetry adapted cartesian basis functions of A   symmetry.
 There are    40 symmetry adapted basis functions of A   symmetry.
    40 basis functions,   120 primitive gaussians,    40 cartesian basis functions
    23 alpha electrons       23 beta electrons
       nuclear repulsion energy       200.1743105714 Hartrees.
 IExCor=    0 DFT=F Ex=HF Corr=None ExCW=0 ScaHFX=  1.000000
 ScaDFX=  1.000000  1.000000  1.000000  1.000000 ScalE2=  1.000000  1.000000
 IRadAn=      5 IRanWt=     -1 IRanGd=            0 ICorTp=0 IEmpDi=  4
 NAtoms=   16 NActive=   16 NUniq=   16 SFac= 1.00D+00 NAtFMM=   60 NAOKFM=F Big=F
 Integral buffers will be    131072 words long.
 Raffenetti 1 integral format.
 Two-electron integral symmetry is turned on.
 Leave Link  301 at Mon Oct  6 14:28:26 2025, MaxMem=   104857600 cpu:               0.0 elap:               0.0
 (Enter /home/zhouoh/g16/l402.exe)
 External calculation of energy, first and second derivatives.
 Running external command "python ../GauUMA_client.py R"
         input file       "/home/zhouoh/scratch/Gau-2817891.EIn"
         output file      "/home/zhouoh/scratch/Gau-2817891.EOu"
         message file     "/home/zhouoh/scratch/Gau-2817891.EMs"
         fchk file        "/home/zhouoh/scratch/Gau-2817891.EFC"
         mat. el file     "/home/zhouoh/scratch/Gau-2817891.EUF"
Sent job to server.
Received result from server:
SCF Done:  E(UMA) =  -234.52271636215346     A.U.
 Recovered energy= -234.522716362     dipole=      0.000000000000      0.000000000000      0.000000000000
 Energy=    -234.522716     NIter=   0.
 Dipole moment=       0.000000       0.000000       0.000000
 Leave Link  402 at Mon Oct  6 14:28:28 2025, MaxMem=   104857600 cpu:               0.0 elap:               2.5
 (Enter /home/zhouoh/g16/l716.exe)
 Dipole        = 0.00000000D+00 0.00000000D+00 0.00000000D+00
 ***** Axes restored to original set *****
 -------------------------------------------------------------------
 Center     Atomic                   Forces (Hartrees/Bohr)
 Number     Number              X              Y              Z
 -------------------------------------------------------------------
      1        6          -0.000012692    0.000297072   -0.000563476
      2        6           0.000112417    0.000071473    0.000820875
      3        1          -0.000033508    0.000053877    0.000012089
      4        1          -0.000007797    0.000050152    0.000096036
      5        6           0.001193349   -0.000238376   -0.000072993
      6        1          -0.000510124   -0.000018193    0.000196967
      7        1           0.000069726   -0.000071107   -0.000013071
      8        6          -0.000768484    0.000134965   -0.000025085
      9        1           0.000012212    0.000441439    0.000185637
     10        1          -0.000065367   -0.000054878   -0.000017302
     11        6           0.000037481    0.000252262   -0.000162315
     12        1          -0.000176968   -0.000498676    0.000140364
     13        1           0.000016479    0.000002982   -0.000120406
     14        6          -0.000304770    0.000169248   -0.000191713
     15        1           0.000505932   -0.000568360   -0.000312413
     16        1          -0.000067884   -0.000023881    0.000026807
 -------------------------------------------------------------------
 Cartesian Forces:  Max     0.001193349 RMS     0.000322822
 FormGI is forming the generalized inverse of G from B-inverse, IUseBI=4.
 Leave Link  716 at Mon Oct  6 14:28:28 2025, MaxMem=   104857600 cpu:               0.0 elap:               0.0
 (Enter /home/zhouoh/g16/l103.exe)

 GradGradGradGradGradGradGradGradGradGradGradGradGradGradGradGradGradGrad
 Berny optimization.
 Red2BG is reusing G-inverse.
 Internal  Forces:  Max     0.000852256 RMS     0.000224328
 Search for a saddle point.
 Step number  11 out of a maximum of   74
 All quantities printed in internal units (Hartrees-Bohrs-Radians)
 Swapping is turned off.
 Second derivative matrix not updated -- analytic derivatives used.
 ITU=  0  0  0  0  0  0  0  0  0  0  0
     Eigenvalues ---   -0.00357   0.00008   0.00028   0.00086   0.00279
     Eigenvalues ---    0.00312   0.00536   0.01651   0.02142   0.02302
     Eigenvalues ---    0.02484   0.02598   0.02680   0.02862   0.03010
     Eigenvalues ---    0.03159   0.04750   0.06736   0.07792   0.10238
     Eigenvalues ---    0.10416   0.10542   0.10736   0.11459   0.11643
     Eigenvalues ---    0.13821   0.14513   0.14826   0.31996   0.34163
     Eigenvalues ---    0.35004   0.35147   0.35390   0.35784   0.35984
     Eigenvalues ---    0.36211   0.36276   0.36311   0.36392   0.63012
     Eigenvalues ---    0.64045   0.64635
 Eigenvectors required to have negative eigenvalues:
                          D1        D2        D3        D4        A22
   1                   -0.46296  -0.44737  -0.44601  -0.43041   0.26411
                          D19       R9        D22       A18       D25
   1                    0.18256  -0.14343   0.13793   0.12745  -0.10391
 RFO step:  Lambda0=1.105642808D-06 Lambda=-3.79436026D-04.
 Linear search not attempted -- option 19 set.
 Maximum step size (   0.300) exceeded in Quadratic search.
    -- Step size scaled by   0.543
 Iteration  1 RMS(Cart)=  0.07801990 RMS(Int)=  0.00445984
 Iteration  2 RMS(Cart)=  0.00606304 RMS(Int)=  0.00132299
 Iteration  3 RMS(Cart)=  0.00005061 RMS(Int)=  0.00132265
 Iteration  4 RMS(Cart)=  0.00000021 RMS(Int)=  0.00132265
 ITry= 1 IFail=0 DXMaxC= 3.34D-01 DCOld= 1.00D+10 DXMaxT= 3.00D-01 DXLimC= 3.00D+00 Rises=F
 Variable       Old X    -DE/DX   Delta X   Delta X   Delta X     New X
                                 (Linear)    (Quad)   (Total)
    R1        2.80350   0.00041   0.00000   0.00067   0.00030   2.80380
    R2        2.05361   0.00001   0.00000   0.00008   0.00008   2.05369
    R3        2.50392  -0.00029   0.00000  -0.00003   0.00033   2.50426
    R4        2.05371  -0.00009   0.00000  -0.00001  -0.00001   2.05370
    R5        2.50475  -0.00038   0.00000  -0.00044  -0.00026   2.50449
    R6        2.04594   0.00021   0.00000   0.00021   0.00038   2.04631
    R7        2.04659  -0.00008   0.00000   0.00003   0.00003   2.04662
    R8        2.50114  -0.00085   0.00000  -0.00062   0.00007   2.50121
    R9        5.95546   0.00017   0.00000   0.18705   0.18639   6.14185
   R10        2.04637   0.00015   0.00000   0.00008   0.00025   2.04662
   R11        2.04639   0.00001   0.00000   0.00016   0.00016   2.04655
   R12        6.57234   0.00022   0.00000   0.19640   0.19618   6.76852
   R13        2.04929  -0.00048   0.00000  -0.00084  -0.00005   2.04923
   R14        2.04552   0.00003   0.00000  -0.00002  -0.00002   2.04550
   R15        2.04955  -0.00062   0.00000  -0.00102  -0.00045   2.04910
   R16        2.04525  -0.00003   0.00000  -0.00002  -0.00002   2.04523
    A1        2.03436   0.00006   0.00000   0.00031  -0.00000   2.03436
    A2        2.16986  -0.00002   0.00000  -0.00071  -0.00006   2.16980
    A3        2.07892  -0.00004   0.00000   0.00039   0.00006   2.07898
    A4        2.03814  -0.00018   0.00000  -0.00196  -0.00045   2.03768
    A5        2.15878   0.00047   0.00000   0.00356   0.00057   2.15934
    A6        2.08616  -0.00029   0.00000  -0.00159  -0.00011   2.08605
    A7        2.04686  -0.00012   0.00000  -0.00026   0.00019   2.04705
    A8        2.11054   0.00035   0.00000   0.00191   0.00101   2.11155
    A9        2.12579  -0.00023   0.00000  -0.00165  -0.00120   2.12458
   A10        2.02858  -0.00032   0.00000  -0.04244  -0.04501   1.98357
   A11        2.12562  -0.00008   0.00000  -0.00142  -0.00089   2.12473
   A12        2.11772  -0.00002   0.00000  -0.00026  -0.00052   2.11720
   A13        2.03979   0.00010   0.00000   0.00170   0.00142   2.04121
   A14        1.00517  -0.00012   0.00000  -0.08193  -0.08481   0.92036
   A15        2.12491  -0.00025   0.00000  -0.00169   0.00012   2.12503
   A16        2.11382   0.00017   0.00000   0.00131   0.00040   2.11422
   A17        2.04445   0.00008   0.00000   0.00037  -0.00053   2.04393
   A18        1.22315   0.00014   0.00000  -0.08459  -0.08216   1.14099
   A19        2.11465   0.00002   0.00000   0.00237   0.00033   2.11497
   A20        2.11626   0.00002   0.00000  -0.00117  -0.00016   2.11610
   A21        2.05224  -0.00005   0.00000  -0.00119  -0.00017   2.05208
   A22        2.13806   0.00006   0.00000   0.00339   0.00400   2.14206
    D1        1.72397   0.00005   0.00000  -0.00034   0.00073   1.72470
    D2       -1.40134   0.00002   0.00000  -0.00070   0.00021  -1.40113
    D3       -1.40691  -0.00006   0.00000   0.00121   0.00130  -1.40561
    D4        1.75096  -0.00009   0.00000   0.00085   0.00079   1.75175
    D5       -0.00715   0.00010   0.00000  -0.00211   0.00000  -0.00715
    D6        3.13839   0.00012   0.00000  -0.00238  -0.00057   3.13782
    D7       -3.13778  -0.00001   0.00000  -0.00052   0.00059  -3.13718
    D8        0.00776   0.00001   0.00000  -0.00079   0.00002   0.00778
    D9       -0.01583  -0.00001   0.00000  -0.00005   0.00079  -0.01503
   D10        3.13524   0.00002   0.00000  -0.00014   0.00050   3.13574
   D11       -3.14072  -0.00004   0.00000  -0.00041   0.00027  -3.14045
   D12        0.01035  -0.00001   0.00000  -0.00050  -0.00003   0.01032
   D13        3.03818  -0.00000   0.00000  -0.09379  -0.09117   2.94700
   D14       -0.10363   0.00003   0.00000  -0.09356  -0.09068  -0.19431
   D15       -3.13503  -0.00009   0.00000  -0.00246  -0.00146  -3.13649
   D16       -0.00539  -0.00003   0.00000  -0.00074   0.00022  -0.00517
   D17        0.00634  -0.00006   0.00000  -0.00222  -0.00095   0.00539
   D18        3.13598  -0.00000   0.00000  -0.00049   0.00074   3.13672
   D19        2.34097   0.00039   0.00000   0.20233   0.20317   2.54415
   D20        1.99844   0.00014   0.00000  -0.02623  -0.02399   1.97445
   D21       -1.13171   0.00008   0.00000  -0.02787  -0.02559  -1.15730
   D22        1.44527  -0.00016   0.00000   0.04331   0.04212   1.48738
   D23       -1.80193   0.00035   0.00000   0.05541   0.05785  -1.74409
   D24        1.33586   0.00033   0.00000   0.05567   0.05840   1.39426
   D25       -1.64431   0.00015   0.00000   0.04025   0.04120  -1.60311
   D26        1.48815   0.00012   0.00000   0.04034   0.04148   1.52963
         Item               Value     Threshold  Converged?
 Maximum Force            0.000852     0.000450     NO 
 RMS     Force            0.000224     0.000300     YES
 Maximum Displacement     0.334490     0.001800     NO 
 RMS     Displacement     0.079891     0.001200     NO 
 Predicted change in Energy=-1.799491D-04
 GradGradGradGradGradGradGradGradGradGradGradGradGradGradGradGradGradGrad

 Leave Link  103 at Mon Oct  6 14:28:28 2025, MaxMem=   104857600 cpu:               0.0 elap:               0.0
 (Enter /home/zhouoh/g16/l202.exe)
                          Input orientation:                          
 ---------------------------------------------------------------------
 Center     Atomic      Atomic             Coordinates (Angstroms)
 Number     Number       Type             X           Y           Z
 ---------------------------------------------------------------------
      1          6           0       -1.028384   -1.141763   -1.291991
      2          6           0        0.070799   -1.946945   -0.704742
      3          1           0       -2.025387   -1.571430   -1.242698
      4          1           0        0.672058   -2.531619   -1.395909
      5          6           0       -1.182133    1.919855    1.351524
      6          1           0       -1.742741    1.636046    0.469616
      7          1           0       -1.709873    2.472986    2.118644
      8          6           0        0.095917    1.600012    1.478640
      9          1           0        0.666984    1.873524    2.357284
     10          1           0        0.615789    1.042788    0.709159
     11          6           0       -0.862916    0.038866   -1.870676
     12          1           0        0.113101    0.505227   -1.947080
     13          1           0       -1.702585    0.581213   -2.285978
     14          6           0        0.333719   -1.997107    0.593264
     15          1           0       -0.249642   -1.425715    1.306698
     16          1           0        1.143368   -2.602923    0.979021
 ---------------------------------------------------------------------
                    Distance matrix (angstroms):
                    1          2          3          4          5
     1  C    0.000000
     2  C    1.483705   0.000000
     3  H    1.086766   2.196453   0.000000
     4  H    2.198636   1.086770   2.867342   0.000000
     5  C    4.047878   4.555240   4.430591   5.549958   0.000000
     6  H    3.365975   4.184002   3.646891   5.165353   1.082862
     7  H    5.016300   5.538780   5.268346   6.562907   1.083022
     8  C    4.056818   4.165176   4.686540   5.066098   1.323582
     9  H    5.028264   4.932284   5.663607   5.787208   2.105454
    10  H    3.388240   3.351811   4.197582   4.148598   2.101048
    11  C    1.325195   2.484888   2.082967   3.031327   3.744675
    12  H    2.108247   2.749244   3.062971   3.136664   3.815703
    13  H    2.100287   3.469406   2.413815   4.015081   3.910786
    14  C    2.478129   1.325317   3.019494   2.087340   4.267946
    15  H    2.727683   2.102441   3.110294   3.062130   3.473383
    16  H    3.465399   2.101373   4.005125   2.422294   5.099239
                    6          7          8          9         10
     6  H    0.000000
     7  H    1.849552   0.000000
     8  C    2.097640   2.105366   0.000000
     9  H    3.070255   2.462875   1.083025   0.000000
    10  H    2.443768   3.072592   1.082990   1.846364   0.000000
    11  C    2.966824   4.749416   3.817650   4.856152   3.138468
    12  H    3.250126   4.870875   3.596444   4.550448   2.756315
    13  H    2.950861   4.793699   4.294753   5.370736   3.815594
    14  C    4.186500   5.146337   3.712103   4.266687   3.055153
    15  H    3.507768   4.241627   3.050246   3.581747   2.683195
    16  H    5.153444   5.933345   4.360210   4.707986   3.693559
                   11         12         13         14         15
    11  C    0.000000
    12  H    1.084407   0.000000
    13  H    1.082432   1.848605   0.000000
    14  C    3.412935   3.572633   4.368559   0.000000
    15  H    3.552016   3.800947   4.364187   1.084337   0.000000
    16  H    4.373214   4.391369   5.375722   1.082290   1.853016
                   16
    16  H    0.000000
 Stoichiometry    C6H10
 Framework group  C1[X(C6H10)]
 Deg. of freedom    42
 Full point group                 C1      NOp   1
 RotChk:  IX=2 Diff= 2.60D-02
 Largest Abelian subgroup         C1      NOp   1
 Largest concise Abelian subgroup C1      NOp   1
                         Standard orientation:                         
 ---------------------------------------------------------------------
 Center     Atomic      Atomic             Coordinates (Angstroms)
 Number     Number       Type             X           Y           Z
 ---------------------------------------------------------------------
      1          6           0       -1.426929    0.813229    0.363707
      2          6           0       -1.859714   -0.533611   -0.083619
      3          1           0       -1.670364    1.086942    1.386878
      4          1           0       -2.778325   -0.585196   -0.662031
      5          6           0        2.587213    0.298559    0.447932
      6          1           0        1.909945    1.107015    0.693486
      7          1           0        3.515710    0.242857    1.002664
      8          6           0        2.284968   -0.581312   -0.493527
      9          1           0        2.951020   -1.397206   -0.745785
     10          1           0        1.352442   -0.521728   -1.040985
     11          6           0       -0.786091    1.684662   -0.401848
     12          1           0       -0.525594    1.457940   -1.429796
     13          1           0       -0.497136    2.656442   -0.022628
     14          6           0       -1.202193   -1.649163    0.198648
     15          1           0       -0.283711   -1.628991    0.774644
     16          1           0       -1.557513   -2.612258   -0.144203
 ---------------------------------------------------------------------
 Rotational constants (GHZ):           4.0537548           1.7330824           1.3261709
 Leave Link  202 at Mon Oct  6 14:28:28 2025, MaxMem=   104857600 cpu:               0.0 elap:               0.0
 (Enter /home/zhouoh/g16/l301.exe)
 Standard basis: STO-3G (5D, 7F)
 Ernie: Thresh=  0.10000D-02 Tol=  0.10000D-05 Strict=F.
 There are    40 symmetry adapted cartesian basis functions of A   symmetry.
 There are    40 symmetry adapted basis functions of A   symmetry.
    40 basis functions,   120 primitive gaussians,    40 cartesian basis functions
    23 alpha electrons       23 beta electrons
       nuclear repulsion energy       200.3500948411 Hartrees.
 IExCor=    0 DFT=F Ex=HF Corr=None ExCW=0 ScaHFX=  1.000000
 ScaDFX=  1.000000  1.000000  1.000000  1.000000 ScalE2=  1.000000  1.000000
 IRadAn=      5 IRanWt=     -1 IRanGd=            0 ICorTp=0 IEmpDi=  4
 NAtoms=   16 NActive=   16 NUniq=   16 SFac= 1.00D+00 NAtFMM=   60 NAOKFM=F Big=F
 Integral buffers will be    131072 words long.
 Raffenetti 1 integral format.
 Two-electron integral symmetry is turned on.
 Leave Link  301 at Mon Oct  6 14:28:28 2025, MaxMem=   104857600 cpu:               0.0 elap:               0.0
 (Enter /home/zhouoh/g16/l402.exe)
 External calculation of energy, first and second derivatives.
 Running external command "python ../GauUMA_client.py R"
         input file       "/home/zhouoh/scratch/Gau-2817891.EIn"
         output file      "/home/zhouoh/scratch/Gau-2817891.EOu"
         message file     "/home/zhouoh/scratch/Gau-2817891.EMs"
         fchk file        "/home/zhouoh/scratch/Gau-2817891.EFC"
         mat. el file     "/home/zhouoh/scratch/Gau-2817891.EUF"
Sent job to server.
Received result from server:
SCF Done:  E(UMA) =  -234.5228970814136     A.U.
 Recovered energy= -234.522897081     dipole=      0.000000000000      0.000000000000      0.000000000000
 Energy=    -234.522897     NIter=   0.
 Dipole moment=       0.000000       0.000000       0.000000
 Leave Link  402 at Mon Oct  6 14:28:31 2025, MaxMem=   104857600 cpu:               0.0 elap:               2.5
 (Enter /home/zhouoh/g16/l716.exe)
 Dipole        = 0.00000000D+00 0.00000000D+00 0.00000000D+00
 ***** Axes restored to original set *****
 -------------------------------------------------------------------
 Center     Atomic                   Forces (Hartrees/Bohr)
 Number     Number              X              Y              Z
 -------------------------------------------------------------------
      1        6           0.000032418    0.000353725   -0.000569530
      2        6           0.000103069    0.000098451    0.000613023
      3        1          -0.000036773    0.000059926    0.000014953
      4        1           0.000000758    0.000056854    0.000079106
      5        6           0.001000450   -0.000152890   -0.000114771
      6        1          -0.000294261   -0.000024161    0.000240596
      7        1           0.000039394   -0.000070864   -0.000000182
      8        6          -0.000726584    0.000123741    0.000049272
      9        1          -0.000023758    0.000336461    0.000033631
     10        1          -0.000046134   -0.000052248    0.000004756
     11        6           0.000044364    0.000134306   -0.000142871
     12        1          -0.000210558   -0.000508083    0.000171775
     13        1           0.000007949    0.000006905   -0.000086469
     14        6          -0.000241910    0.000126448   -0.000142625
     15        1           0.000420047   -0.000470600   -0.000174271
     16        1          -0.000068472   -0.000017972    0.000023606
 -------------------------------------------------------------------
 Cartesian Forces:  Max     0.001000450 RMS     0.000274793
 FormGI is forming the generalized inverse of G from B-inverse, IUseBI=4.
 Leave Link  716 at Mon Oct  6 14:28:31 2025, MaxMem=   104857600 cpu:               0.0 elap:               0.0
 (Enter /home/zhouoh/g16/l103.exe)

 GradGradGradGradGradGradGradGradGradGradGradGradGradGradGradGradGradGrad
 Berny optimization.
 Red2BG is reusing G-inverse.
 Internal  Forces:  Max     0.000809504 RMS     0.000198470
 Search for a saddle point.
 Step number  12 out of a maximum of   74
 All quantities printed in internal units (Hartrees-Bohrs-Radians)
 Swapping is turned off.
 Second derivative matrix not updated -- analytic derivatives used.
 ITU=  0  0  0  0  0  0  0  0  0  0  0  0
     Eigenvalues ---   -0.00359   0.00004   0.00033   0.00097   0.00293
     Eigenvalues ---    0.00317   0.00588   0.01692   0.02145   0.02314
     Eigenvalues ---    0.02488   0.02586   0.02683   0.02873   0.03001
     Eigenvalues ---    0.03168   0.04634   0.06567   0.07871   0.10233
     Eigenvalues ---    0.10417   0.10539   0.10718   0.11462   0.11646
     Eigenvalues ---    0.13802   0.14531   0.14829   0.32012   0.34067
     Eigenvalues ---    0.34982   0.35141   0.35386   0.35829   0.35960
     Eigenvalues ---    0.36202   0.36279   0.36310   0.36369   0.63029
     Eigenvalues ---    0.64066   0.64548
 Eigenvectors required to have negative eigenvalues:
                          D1        D2        D3        D4        A22
   1                    0.46318   0.44845   0.44728   0.43256  -0.27768
                          D19       R9        A18       D22       A14
   1                   -0.18623   0.14341  -0.12594  -0.12369   0.08948
 RFO step:  Lambda0=7.426025253D-07 Lambda=-2.84978500D-04.
 Linear search not attempted -- option 19 set.
 Maximum step size (   0.300) exceeded in Quadratic search.
    -- Step size scaled by   0.579
 Iteration  1 RMS(Cart)=  0.08039838 RMS(Int)=  0.00374930
 Iteration  2 RMS(Cart)=  0.00510498 RMS(Int)=  0.00120022
 Iteration  3 RMS(Cart)=  0.00003352 RMS(Int)=  0.00120007
 Iteration  4 RMS(Cart)=  0.00000011 RMS(Int)=  0.00120007
 ITry= 1 IFail=0 DXMaxC= 3.36D-01 DCOld= 1.00D+10 DXMaxT= 3.00D-01 DXLimC= 3.00D+00 Rises=F
 Variable       Old X    -DE/DX   Delta X   Delta X   Delta X     New X
                                 (Linear)    (Quad)   (Total)
    R1        2.80380   0.00033   0.00000   0.00061   0.00029   2.80409
    R2        2.05369   0.00001   0.00000   0.00011   0.00011   2.05380
    R3        2.50426  -0.00043   0.00000  -0.00022   0.00021   2.50446
    R4        2.05370  -0.00008   0.00000  -0.00002  -0.00002   2.05367
    R5        2.50449  -0.00023   0.00000  -0.00033  -0.00030   2.50418
    R6        2.04631   0.00009   0.00000   0.00007   0.00044   2.04675
    R7        2.04662  -0.00006   0.00000  -0.00000  -0.00000   2.04661
    R8        2.50121  -0.00081   0.00000  -0.00069  -0.00000   2.50121
    R9        6.14185   0.00016   0.00000   0.21166   0.21117   6.35302
   R10        2.04662   0.00004   0.00000  -0.00007   0.00030   2.04692
   R11        2.04655   0.00000   0.00000   0.00019   0.00019   2.04674
   R12        6.76852   0.00017   0.00000   0.17474   0.17436   6.94288
   R13        2.04923  -0.00048   0.00000  -0.00086  -0.00006   2.04917
   R14        2.04550   0.00003   0.00000  -0.00009  -0.00009   2.04541
   R15        2.04910  -0.00047   0.00000  -0.00080  -0.00045   2.04865
   R16        2.04523  -0.00003   0.00000  -0.00003  -0.00003   2.04521
    A1        2.03436   0.00009   0.00000   0.00057   0.00019   2.03455
    A2        2.16980  -0.00007   0.00000  -0.00114  -0.00034   2.16945
    A3        2.07898  -0.00002   0.00000   0.00056   0.00015   2.07913
    A4        2.03768  -0.00015   0.00000  -0.00160  -0.00018   2.03750
    A5        2.15934   0.00040   0.00000   0.00309   0.00028   2.15962
    A6        2.08605  -0.00024   0.00000  -0.00148  -0.00009   2.08597
    A7        2.04705  -0.00009   0.00000  -0.00008   0.00003   2.04708
    A8        2.11155   0.00024   0.00000   0.00112   0.00092   2.11247
    A9        2.12458  -0.00015   0.00000  -0.00104  -0.00094   2.12364
   A10        1.98357  -0.00019   0.00000  -0.04183  -0.04319   1.94038
   A11        2.12473  -0.00006   0.00000  -0.00086  -0.00064   2.12409
   A12        2.11720  -0.00001   0.00000  -0.00043  -0.00053   2.11667
   A13        2.04121   0.00007   0.00000   0.00131   0.00119   2.04240
   A14        0.92036  -0.00007   0.00000  -0.07806  -0.08017   0.84020
   A15        2.12503  -0.00027   0.00000  -0.00239  -0.00048   2.12456
   A16        2.11422   0.00017   0.00000   0.00165   0.00069   2.11491
   A17        2.04393   0.00010   0.00000   0.00074  -0.00021   2.04371
   A18        1.14099   0.00019   0.00000  -0.07705  -0.07360   1.06739
   A19        2.11497   0.00005   0.00000   0.00239   0.00025   2.11522
   A20        2.11610   0.00001   0.00000  -0.00113  -0.00006   2.11603
   A21        2.05208  -0.00005   0.00000  -0.00126  -0.00018   2.05190
   A22        2.14206   0.00002   0.00000   0.01534   0.01591   2.15797
    D1        1.72470   0.00006   0.00000   0.00117   0.00219   1.72689
    D2       -1.40113   0.00003   0.00000   0.00042   0.00136  -1.39977
    D3       -1.40561  -0.00005   0.00000   0.00179   0.00207  -1.40353
    D4        1.75175  -0.00008   0.00000   0.00104   0.00124   1.75299
    D5       -0.00715   0.00010   0.00000  -0.00122   0.00080  -0.00635
    D6        3.13782   0.00013   0.00000  -0.00054   0.00086   3.13867
    D7       -3.13718  -0.00001   0.00000  -0.00059   0.00068  -3.13650
    D8        0.00778   0.00002   0.00000   0.00009   0.00073   0.00852
    D9       -0.01503  -0.00001   0.00000   0.00022   0.00109  -0.01394
   D10        3.13574   0.00002   0.00000   0.00008   0.00065   3.13639
   D11       -3.14045  -0.00004   0.00000  -0.00056   0.00024  -3.14021
   D12        0.01032  -0.00001   0.00000  -0.00069  -0.00020   0.01012
   D13        2.94700   0.00005   0.00000  -0.05856  -0.05634   2.89066
   D14       -0.19431   0.00009   0.00000  -0.05819  -0.05561  -0.24992
   D15       -3.13649  -0.00009   0.00000  -0.00285  -0.00220  -3.13869
   D16       -0.00517  -0.00003   0.00000  -0.00106  -0.00032  -0.00549
   D17        0.00539  -0.00005   0.00000  -0.00246  -0.00144   0.00395
   D18        3.13672   0.00001   0.00000  -0.00066   0.00044   3.13716
   D19        2.54415   0.00035   0.00000   0.19276   0.19384   2.73798
   D20        1.97445   0.00014   0.00000  -0.03851  -0.03652   1.93793
   D21       -1.15730   0.00009   0.00000  -0.04022  -0.03831  -1.19561
   D22        1.48738  -0.00015   0.00000   0.02896   0.02763   1.51501
   D23       -1.74409   0.00030   0.00000   0.06710   0.06862  -1.67546
   D24        1.39426   0.00028   0.00000   0.06645   0.06858   1.46284
   D25       -1.60311   0.00015   0.00000   0.04395   0.04475  -1.55836
   D26        1.52963   0.00012   0.00000   0.04408   0.04518   1.57481
         Item               Value     Threshold  Converged?
 Maximum Force            0.000810     0.000450     NO 
 RMS     Force            0.000198     0.000300     YES
 Maximum Displacement     0.335976     0.001800     NO 
 RMS     Displacement     0.082328     0.001200     NO 
 Predicted change in Energy=-1.381328D-04
 GradGradGradGradGradGradGradGradGradGradGradGradGradGradGradGradGradGrad

 Leave Link  103 at Mon Oct  6 14:28:31 2025, MaxMem=   104857600 cpu:               0.0 elap:               0.0
 (Enter /home/zhouoh/g16/l202.exe)
                          Input orientation:                          
 ---------------------------------------------------------------------
 Center     Atomic      Atomic             Coordinates (Angstroms)
 Number     Number       Type             X           Y           Z
 ---------------------------------------------------------------------
      1          6           0       -1.024240   -1.112878   -1.293454
      2          6           0        0.046239   -1.951648   -0.699839
      3          1           0       -2.036855   -1.503082   -1.233954
      4          1           0        0.622535   -2.566718   -1.385853
      5          6           0       -1.202406    1.845681    1.390500
      6          1           0       -1.790554    1.458256    0.567655
      7          1           0       -1.726775    2.404606    2.155730
      8          6           0        0.103915    1.641440    1.451162
      9          1           0        0.702046    2.021631    2.270297
     10          1           0        0.621159    1.077991    0.684309
     11          6           0       -0.816023    0.052617   -1.889020
     12          1           0        0.177155    0.479060   -1.976257
     13          1           0       -1.635649    0.622206   -2.307751
     14          6           0        0.312650   -1.995467    0.597522
     15          1           0       -0.245989   -1.394481    1.306048
     16          1           0        1.100863   -2.626198    0.987678
 ---------------------------------------------------------------------
                    Distance matrix (angstroms):
                    1          2          3          4          5
     1  C    0.000000
     2  C    1.483860   0.000000
     3  H    1.086825   2.196764   0.000000
     4  H    2.198649   1.086758   2.868231   0.000000
     5  C    3.998552   4.510913   4.335698   5.523387   0.000000
     6  H    3.265224   4.075266   3.475052   5.083267   1.083093
     7  H    4.976255   5.502254   5.182290   6.540346   1.083022
     8  C    4.048693   4.188127   4.656261   5.101589   1.323582
     9  H    5.050299   5.003871   5.674941   5.867426   2.105217
    10  H    3.379169   3.380104   4.172135   4.191595   2.100820
    11  C    1.325304   2.484899   2.083205   3.030436   3.757609
    12  H    2.108041   2.748586   3.062963   3.134279   3.886631
    13  H    2.100746   3.469705   2.414717   4.014788   3.919394
    14  C    2.478311   1.325156   3.019424   2.087135   4.204596
    15  H    2.728074   2.102240   3.109760   3.061830   3.379425
    16  H    3.465510   2.101181   4.005286   2.421979   5.046287
                    6          7          8          9         10
     6  H    0.000000
     7  H    1.849764   0.000000
     8  C    2.098369   2.104819   0.000000
     9  H    3.070738   2.461497   1.083184   0.000000
    10  H    2.444293   3.072097   1.083089   1.847257   0.000000
    11  C    2.993457   4.766689   3.811491   4.845768   3.120722
    12  H    3.361874   4.940243   3.619903   4.548435   2.763054
    13  H    2.998489   4.807069   4.265483   5.327450   3.775360
    14  C    4.043829   5.093909   3.741572   4.368853   3.090121
    15  H    3.327012   4.165063   3.059462   3.674012   2.692884
    16  H    5.021899   5.888027   4.406978   4.838024   3.747421
                   11         12         13         14         15
    11  C    0.000000
    12  H    1.084374   0.000000
    13  H    1.082384   1.848415   0.000000
    14  C    3.413421   3.572951   4.369061   0.000000
    15  H    3.553519   3.802991   4.365516   1.084099   0.000000
    16  H    4.373316   4.390988   5.375916   1.082276   1.852699
                   16
    16  H    0.000000
 Stoichiometry    C6H10
 Framework group  C1[X(C6H10)]
 Deg. of freedom    42
 Full point group                 C1      NOp   1
 RotChk:  IX=2 Diff= 3.62D-02
 Largest Abelian subgroup         C1      NOp   1
 Largest concise Abelian subgroup C1      NOp   1
                         Standard orientation:                         
 ---------------------------------------------------------------------
 Center     Atomic      Atomic             Coordinates (Angstroms)
 Number     Number       Type             X           Y           Z
 ---------------------------------------------------------------------
      1          6           0       -1.412128    0.802489    0.370776
      2          6           0       -1.854511   -0.543824   -0.069198
      3          1           0       -1.616956    1.067740    1.404641
      4          1           0       -2.793625   -0.596281   -0.613584
      5          6           0        2.546909    0.258545    0.507028
      6          1           0        1.812712    0.976003    0.852425
      7          1           0        3.480260    0.201063    1.053369
      8          6           0        2.306769   -0.512523   -0.541616
      9          1           0        3.032114   -1.235389   -0.894640
     10          1           0        1.369364   -0.452477   -1.080826
     11          6           0       -0.806360    1.682787   -0.413159
     12          1           0       -0.585782    1.464293   -1.452135
     13          1           0       -0.507200    2.653473   -0.039225
     14          6           0       -1.181345   -1.657684    0.180210
     15          1           0       -0.242567   -1.637009    0.722002
     16          1           0       -1.544315   -2.620157   -0.156272
 ---------------------------------------------------------------------
 Rotational constants (GHZ):           4.0450638           1.7353785           1.3406439
 Leave Link  202 at Mon Oct  6 14:28:31 2025, MaxMem=   104857600 cpu:               0.0 elap:               0.0
 (Enter /home/zhouoh/g16/l301.exe)
 Standard basis: STO-3G (5D, 7F)
 Ernie: Thresh=  0.10000D-02 Tol=  0.10000D-05 Strict=F.
 There are    40 symmetry adapted cartesian basis functions of A   symmetry.
 There are    40 symmetry adapted basis functions of A   symmetry.
    40 basis functions,   120 primitive gaussians,    40 cartesian basis functions
    23 alpha electrons       23 beta electrons
       nuclear repulsion energy       200.5149674750 Hartrees.
 IExCor=    0 DFT=F Ex=HF Corr=None ExCW=0 ScaHFX=  1.000000
 ScaDFX=  1.000000  1.000000  1.000000  1.000000 ScalE2=  1.000000  1.000000
 IRadAn=      5 IRanWt=     -1 IRanGd=            0 ICorTp=0 IEmpDi=  4
 NAtoms=   16 NActive=   16 NUniq=   16 SFac= 1.00D+00 NAtFMM=   60 NAOKFM=F Big=F
 Integral buffers will be    131072 words long.
 Raffenetti 1 integral format.
 Two-electron integral symmetry is turned on.
 Leave Link  301 at Mon Oct  6 14:28:31 2025, MaxMem=   104857600 cpu:               0.0 elap:               0.0
 (Enter /home/zhouoh/g16/l402.exe)
 External calculation of energy, first and second derivatives.
 Running external command "python ../GauUMA_client.py R"
         input file       "/home/zhouoh/scratch/Gau-2817891.EIn"
         output file      "/home/zhouoh/scratch/Gau-2817891.EOu"
         message file     "/home/zhouoh/scratch/Gau-2817891.EMs"
         fchk file        "/home/zhouoh/scratch/Gau-2817891.EFC"
         mat. el file     "/home/zhouoh/scratch/Gau-2817891.EUF"
Sent job to server.
Received result from server:
SCF Done:  E(UMA) =  -234.52303537203912     A.U.
 Recovered energy= -234.523035372     dipole=      0.000000000000      0.000000000000      0.000000000000
 Energy=    -234.523035     NIter=   0.
 Dipole moment=       0.000000       0.000000       0.000000
 Leave Link  402 at Mon Oct  6 14:28:33 2025, MaxMem=   104857600 cpu:               0.0 elap:               2.5
 (Enter /home/zhouoh/g16/l716.exe)
 Dipole        = 0.00000000D+00 0.00000000D+00 0.00000000D+00
 ***** Axes restored to original set *****
 -------------------------------------------------------------------
 Center     Atomic                   Forces (Hartrees/Bohr)
 Number     Number              X              Y              Z
 -------------------------------------------------------------------
      1        6           0.000069437    0.000375597   -0.000557975
      2        6           0.000089303    0.000112058    0.000386109
      3        1          -0.000035731    0.000062516    0.000016715
      4        1           0.000007165    0.000061629    0.000058556
      5        6           0.000824794   -0.000086821   -0.000146033
      6        1          -0.000096201    0.000007796    0.000261861
      7        1           0.000012745   -0.000064631    0.000011313
      8        6          -0.000672330    0.000113176    0.000109073
      9        1          -0.000087258    0.000189521   -0.000093908
     10        1          -0.000028894   -0.000042294    0.000016590
     11        6           0.000056026    0.000036938   -0.000110720
     12        1          -0.000236967   -0.000486570    0.000191423
     13        1          -0.000003355    0.000008479   -0.000057587
     14        6          -0.000177457    0.000075441   -0.000078402
     15        1           0.000344404   -0.000351136   -0.000026955
     16        1          -0.000065683   -0.000011700    0.000019939
 -------------------------------------------------------------------
 Cartesian Forces:  Max     0.000824794 RMS     0.000232898
 FormGI is forming the generalized inverse of G from B-inverse, IUseBI=4.
 Leave Link  716 at Mon Oct  6 14:28:33 2025, MaxMem=   104857600 cpu:               0.0 elap:               0.0
 (Enter /home/zhouoh/g16/l103.exe)

 GradGradGradGradGradGradGradGradGradGradGradGradGradGradGradGradGradGrad
 Berny optimization.
 Red2BG is reusing G-inverse.
 Internal  Forces:  Max     0.000770854 RMS     0.000178046
 Search for a saddle point.
 Step number  13 out of a maximum of   74
 All quantities printed in internal units (Hartrees-Bohrs-Radians)
 Swapping is turned off.
 Second derivative matrix not updated -- analytic derivatives used.
 ITU=  0  0  0  0  0  0  0  0  0  0  0  0  0
     Eigenvalues ---   -0.00360   0.00003   0.00041   0.00111   0.00276
     Eigenvalues ---    0.00314   0.00642   0.01730   0.02148   0.02316
     Eigenvalues ---    0.02492   0.02570   0.02684   0.02884   0.02992
     Eigenvalues ---    0.03175   0.04464   0.06386   0.08021   0.10226
     Eigenvalues ---    0.10415   0.10539   0.10704   0.11460   0.11651
     Eigenvalues ---    0.13781   0.14552   0.14832   0.32033   0.33957
     Eigenvalues ---    0.34977   0.35131   0.35377   0.35864   0.35931
     Eigenvalues ---    0.36200   0.36285   0.36309   0.36342   0.63023
     Eigenvalues ---    0.64081   0.64531
 Eigenvectors required to have negative eigenvalues:
                          D1        D2        D3        D4        A22
   1                   -0.46317  -0.44929  -0.44812  -0.43424   0.28859
                          D19       R9        A18       D22       A14
   1                    0.18102  -0.14618   0.13112   0.10969  -0.08598
 RFO step:  Lambda0=2.561484014D-07 Lambda=-1.83267366D-04.
 Linear search not attempted -- option 19 set.
 Maximum step size (   0.300) exceeded in Quadratic search.
    -- Step size scaled by   0.619
 Iteration  1 RMS(Cart)=  0.08078167 RMS(Int)=  0.00742401
 Iteration  2 RMS(Cart)=  0.00910722 RMS(Int)=  0.00106631
 Iteration  3 RMS(Cart)=  0.00005408 RMS(Int)=  0.00106609
 Iteration  4 RMS(Cart)=  0.00000006 RMS(Int)=  0.00106609
 ITry= 1 IFail=0 DXMaxC= 2.87D-01 DCOld= 1.00D+10 DXMaxT= 3.00D-01 DXLimC= 3.00D+00 Rises=F
 Variable       Old X    -DE/DX   Delta X   Delta X   Delta X     New X
                                 (Linear)    (Quad)   (Total)
    R1        2.80409   0.00026   0.00000   0.00052   0.00019   2.80428
    R2        2.05380   0.00001   0.00000   0.00015   0.00015   2.05395
    R3        2.50446  -0.00051   0.00000  -0.00036   0.00003   2.50449
    R4        2.05367  -0.00007   0.00000  -0.00000  -0.00000   2.05367
    R5        2.50418  -0.00007   0.00000  -0.00017  -0.00029   2.50389
    R6        2.04675  -0.00004   0.00000  -0.00008   0.00042   2.04717
    R7        2.04661  -0.00003   0.00000  -0.00002  -0.00002   2.04659
    R8        2.50121  -0.00077   0.00000  -0.00080  -0.00010   2.50111
    R9        6.35302   0.00013   0.00000   0.25851   0.25813   6.61115
   R10        2.04692  -0.00008   0.00000  -0.00023   0.00027   2.04719
   R11        2.04674  -0.00000   0.00000   0.00017   0.00017   2.04691
   R12        6.94288   0.00010   0.00000   0.09822   0.09779   7.04067
   R13        2.04917  -0.00046   0.00000  -0.00083  -0.00006   2.04911
   R14        2.04541   0.00003   0.00000  -0.00012  -0.00012   2.04529
   R15        2.04865  -0.00031   0.00000  -0.00056  -0.00036   2.04829
   R16        2.04521  -0.00003   0.00000  -0.00003  -0.00003   2.04518
    A1        2.03455   0.00011   0.00000   0.00067   0.00029   2.03484
    A2        2.16945  -0.00010   0.00000  -0.00127  -0.00049   2.16896
    A3        2.07913  -0.00001   0.00000   0.00060   0.00020   2.07933
    A4        2.03750  -0.00013   0.00000  -0.00147  -0.00015   2.03736
    A5        2.15962   0.00033   0.00000   0.00288   0.00026   2.15988
    A6        2.08597  -0.00019   0.00000  -0.00141  -0.00011   2.08586
    A7        2.04708  -0.00007   0.00000  -0.00013  -0.00043   2.04665
    A8        2.11247   0.00015   0.00000   0.00035   0.00096   2.11343
    A9        2.12364  -0.00008   0.00000  -0.00022  -0.00053   2.12311
   A10        1.94038  -0.00007   0.00000  -0.04024  -0.04031   1.90007
   A11        2.12409  -0.00005   0.00000  -0.00033  -0.00067   2.12342
   A12        2.11667   0.00000   0.00000  -0.00066  -0.00049   2.11618
   A13        2.04240   0.00005   0.00000   0.00100   0.00117   2.04357
   A14        0.84020  -0.00002   0.00000  -0.05593  -0.05708   0.78312
   A15        2.12456  -0.00026   0.00000  -0.00288  -0.00100   2.12356
   A16        2.11491   0.00015   0.00000   0.00175   0.00081   2.11572
   A17        2.04371   0.00011   0.00000   0.00112   0.00019   2.04390
   A18        1.06739   0.00025   0.00000  -0.07810  -0.07451   0.99289
   A19        2.11522   0.00006   0.00000   0.00237   0.00027   2.11549
   A20        2.11603  -0.00000   0.00000  -0.00121  -0.00016   2.11588
   A21        2.05190  -0.00006   0.00000  -0.00116  -0.00010   2.05180
   A22        2.15797  -0.00002   0.00000   0.04673   0.04679   2.20476
    D1        1.72689   0.00007   0.00000  -0.00187  -0.00099   1.72590
    D2       -1.39977   0.00004   0.00000  -0.00255  -0.00177  -1.40154
    D3       -1.40353  -0.00003   0.00000  -0.00142  -0.00116  -1.40469
    D4        1.75299  -0.00006   0.00000  -0.00211  -0.00193   1.75106
    D5       -0.00635   0.00010   0.00000  -0.00042   0.00133  -0.00501
    D6        3.13867   0.00012   0.00000   0.00030   0.00141   3.14008
    D7       -3.13650  -0.00000   0.00000   0.00004   0.00117  -3.13533
    D8        0.00852   0.00002   0.00000   0.00076   0.00124   0.00976
    D9       -0.01394  -0.00001   0.00000   0.00070   0.00145  -0.01249
   D10        3.13639   0.00003   0.00000   0.00003   0.00059   3.13698
   D11       -3.14021  -0.00004   0.00000  -0.00000   0.00065  -3.13956
   D12        0.01012  -0.00000   0.00000  -0.00068  -0.00021   0.00991
   D13        2.89066   0.00009   0.00000  -0.01249  -0.01066   2.88000
   D14       -0.24992   0.00013   0.00000  -0.01214  -0.00997  -0.25990
   D15       -3.13869  -0.00007   0.00000  -0.00278  -0.00235  -3.14104
   D16       -0.00549  -0.00002   0.00000  -0.00088  -0.00029  -0.00577
   D17        0.00395  -0.00004   0.00000  -0.00242  -0.00163   0.00233
   D18        3.13716   0.00002   0.00000  -0.00052   0.00043   3.13759
   D19        2.73798   0.00030   0.00000   0.16522   0.16625   2.90423
   D20        1.93793   0.00015   0.00000  -0.04187  -0.04009   1.89785
   D21       -1.19561   0.00009   0.00000  -0.04368  -0.04206  -1.23767
   D22        1.51501  -0.00014   0.00000   0.00990   0.00893   1.52394
   D23       -1.67546   0.00024   0.00000   0.06431   0.06534  -1.61012
   D24        1.46284   0.00022   0.00000   0.06362   0.06527   1.52811
   D25       -1.55836   0.00016   0.00000   0.05452   0.05541  -1.50295
   D26        1.57481   0.00012   0.00000   0.05518   0.05624   1.63105
         Item               Value     Threshold  Converged?
 Maximum Force            0.000771     0.000450     NO 
 RMS     Force            0.000178     0.000300     YES
 Maximum Displacement     0.287243     0.001800     NO 
 RMS     Displacement     0.084036     0.001200     NO 
 Predicted change in Energy=-9.053752D-05
 GradGradGradGradGradGradGradGradGradGradGradGradGradGradGradGradGradGrad

 Leave Link  103 at Mon Oct  6 14:28:33 2025, MaxMem=   104857600 cpu:               0.0 elap:               0.0
 (Enter /home/zhouoh/g16/l202.exe)
                          Input orientation:                          
 ---------------------------------------------------------------------
 Center     Atomic      Atomic             Coordinates (Angstroms)
 Number     Number       Type             X           Y           Z
 ---------------------------------------------------------------------
      1          6           0       -1.018663   -1.079758   -1.287504
      2          6           0        0.017158   -1.961263   -0.694068
      3          1           0       -2.048847   -1.416614   -1.206198
      4          1           0        0.550166   -2.617552   -1.376875
      5          6           0       -1.224146    1.775009    1.430930
      6          1           0       -1.824215    1.306253    0.660374
      7          1           0       -1.749158    2.319575    2.205992
      8          6           0        0.096194    1.683958    1.418976
      9          1           0        0.705204    2.148577    2.185026
     10          1           0        0.614529    1.134515    0.642625
     11          6           0       -0.760385    0.062895   -1.907267
     12          1           0        0.252248    0.434837   -2.016979
     13          1           0       -1.555652    0.667440   -2.323789
     14          6           0        0.302611   -1.994374    0.599397
     15          1           0       -0.213216   -1.353323    1.304968
     16          1           0        1.064245   -2.657159    0.989166
 ---------------------------------------------------------------------
                    Distance matrix (angstroms):
                    1          2          3          4          5
     1  C    0.000000
     2  C    1.483962   0.000000
     3  H    1.086905   2.197111   0.000000
     4  H    2.198640   1.086755   2.868144   0.000000
     5  C    3.947379   4.473945   4.221497   5.506954   0.000000
     6  H    3.183739   3.987710   3.308860   5.018397   1.083315
     7  H    4.928854   5.464046   5.068724   6.519129   1.083010
     8  C    4.025676   4.214124   4.594158   5.150326   1.323530
     9  H    5.045030   5.064916   5.638775   5.952071   2.104901
    10  H    3.360911   3.424536   4.125528   4.261517   2.100567
    11  C    1.325319   2.484681   2.083406   3.030455   3.780207
    12  H    2.107450   2.747118   3.062724   3.132980   3.982948
    13  H    2.101177   3.469842   2.415685   4.015257   3.928679
    14  C    2.478443   1.325002   3.020486   2.086931   4.150986
    15  H    2.728459   2.102096   3.111189   3.061585   3.290032
    16  H    3.465534   2.100937   4.006235   2.421568   5.007595
                    6          7          8          9         10
     6  H    0.000000
     7  H    1.849700   0.000000
     8  C    2.099074   2.104454   0.000000
     9  H    3.071162   2.460401   1.083327   0.000000
    10  H    2.444848   3.071726   1.083180   1.848119   0.000000
    11  C    3.044742   4.794703   3.798086   4.821294   3.088803
    12  H    3.498469   5.038983   3.659296   4.560583   2.773859
    13  H    3.063566   4.825548   4.215471   5.256867   3.705059
    14  C    3.926990   5.039947   3.774182   4.454250   3.144696
    15  H    3.175557   4.081806   3.055129   3.725762   2.704293
    16  H    4.915276   5.844979   4.468463   4.965288   3.833944
                   11         12         13         14         15
    11  C    0.000000
    12  H    1.084344   0.000000
    13  H    1.082319   1.848442   0.000000
    14  C    3.412576   3.570578   4.368456   0.000000
    15  H    3.552959   3.801250   4.365030   1.083907   0.000000
    16  H    4.372332   4.388244   5.375173   1.082262   1.852465
                   16
    16  H    0.000000
 Stoichiometry    C6H10
 Framework group  C1[X(C6H10)]
 Deg. of freedom    42
 Full point group                 C1      NOp   1
 RotChk:  IX=2 Diff= 4.55D-02
 Largest Abelian subgroup         C1      NOp   1
 Largest concise Abelian subgroup C1      NOp   1
                         Standard orientation:                         
 ---------------------------------------------------------------------
 Center     Atomic      Atomic             Coordinates (Angstroms)
 Number     Number       Type             X           Y           Z
 ---------------------------------------------------------------------
      1          6           0       -1.384841    0.792527    0.387298
      2          6           0       -1.855531   -0.545507   -0.048887
      3          1           0       -1.529057    1.041066    1.435531
      4          1           0       -2.824960   -0.587097   -0.538291
      5          6           0        2.513842    0.198967    0.559819
      6          1           0        1.742115    0.829379    0.984779
      7          1           0        3.443520    0.114386    1.108869
      8          6           0        2.322985   -0.437571   -0.584788
      9          1           0        3.088023   -1.070638   -1.017845
     10          1           0        1.389136   -0.351295   -1.126785
     11          6           0       -0.822591    1.684288   -0.415888
     12          1           0       -0.664322    1.481807   -1.469337
     13          1           0       -0.498164    2.647820   -0.044717
     14          6           0       -1.171676   -1.664410    0.140923
     15          1           0       -0.203220   -1.655025    0.627606
     16          1           0       -1.556199   -2.620173   -0.190664
 ---------------------------------------------------------------------
 Rotational constants (GHZ):           4.0407857           1.7361768           1.3543087
 Leave Link  202 at Mon Oct  6 14:28:33 2025, MaxMem=   104857600 cpu:               0.0 elap:               0.0
 (Enter /home/zhouoh/g16/l301.exe)
 Standard basis: STO-3G (5D, 7F)
 Ernie: Thresh=  0.10000D-02 Tol=  0.10000D-05 Strict=F.
 There are    40 symmetry adapted cartesian basis functions of A   symmetry.
 There are    40 symmetry adapted basis functions of A   symmetry.
    40 basis functions,   120 primitive gaussians,    40 cartesian basis functions
    23 alpha electrons       23 beta electrons
       nuclear repulsion energy       200.6739893866 Hartrees.
 IExCor=    0 DFT=F Ex=HF Corr=None ExCW=0 ScaHFX=  1.000000
 ScaDFX=  1.000000  1.000000  1.000000  1.000000 ScalE2=  1.000000  1.000000
 IRadAn=      5 IRanWt=     -1 IRanGd=            0 ICorTp=0 IEmpDi=  4
 NAtoms=   16 NActive=   16 NUniq=   16 SFac= 1.00D+00 NAtFMM=   60 NAOKFM=F Big=F
 Integral buffers will be    131072 words long.
 Raffenetti 1 integral format.
 Two-electron integral symmetry is turned on.
 Leave Link  301 at Mon Oct  6 14:28:33 2025, MaxMem=   104857600 cpu:               0.0 elap:               0.0
 (Enter /home/zhouoh/g16/l402.exe)
 External calculation of energy, first and second derivatives.
 Running external command "python ../GauUMA_client.py R"
         input file       "/home/zhouoh/scratch/Gau-2817891.EIn"
         output file      "/home/zhouoh/scratch/Gau-2817891.EOu"
         message file     "/home/zhouoh/scratch/Gau-2817891.EMs"
         fchk file        "/home/zhouoh/scratch/Gau-2817891.EFC"
         mat. el file     "/home/zhouoh/scratch/Gau-2817891.EUF"
Sent job to server.
Received result from server:
SCF Done:  E(UMA) =  -234.52312711383067     A.U.
 Recovered energy= -234.523127114     dipole=      0.000000000000      0.000000000000      0.000000000000
 Energy=    -234.523127     NIter=   0.
 Dipole moment=       0.000000       0.000000       0.000000
 Leave Link  402 at Mon Oct  6 14:28:36 2025, MaxMem=   104857600 cpu:               0.0 elap:               2.5
 (Enter /home/zhouoh/g16/l716.exe)
 Dipole        = 0.00000000D+00 0.00000000D+00 0.00000000D+00
 ***** Axes restored to original set *****
 -------------------------------------------------------------------
 Center     Atomic                   Forces (Hartrees/Bohr)
 Number     Number              X              Y              Z
 -------------------------------------------------------------------
      1        6           0.000081110    0.000343970   -0.000517765
      2        6           0.000079408    0.000098755    0.000177093
      3        1          -0.000028579    0.000058715    0.000009475
      4        1           0.000005561    0.000055374    0.000040210
      5        6           0.000663740   -0.000039070   -0.000163394
      6        1           0.000073729    0.000051939    0.000245101
      7        1          -0.000004284   -0.000058196    0.000017792
      8        6          -0.000633150    0.000119003    0.000161899
      9        1          -0.000127262    0.000027017   -0.000182628
     10        1          -0.000023353   -0.000024550    0.000026062
     11        6           0.000061138    0.000000768   -0.000083981
     12        1          -0.000251643   -0.000432489    0.000199496
     13        1          -0.000012675    0.000010139   -0.000039192
     14        6          -0.000113513    0.000033685    0.000005198
     15        1           0.000288481   -0.000237376    0.000086351
     16        1          -0.000058708   -0.000007682    0.000018284
 -------------------------------------------------------------------
 Cartesian Forces:  Max     0.000663740 RMS     0.000201618
 FormGI is forming the generalized inverse of G from B-inverse, IUseBI=4.
 Leave Link  716 at Mon Oct  6 14:28:36 2025, MaxMem=   104857600 cpu:               0.0 elap:               0.0
 (Enter /home/zhouoh/g16/l103.exe)

 GradGradGradGradGradGradGradGradGradGradGradGradGradGradGradGradGradGrad
 Berny optimization.
 Red2BG is reusing G-inverse.
 Internal  Forces:  Max     0.000734415 RMS     0.000162503
 Search for a saddle point.
 Step number  14 out of a maximum of   74
 All quantities printed in internal units (Hartrees-Bohrs-Radians)
 Swapping is turned off.
 Second derivative matrix not updated -- analytic derivatives used.
 ITU=  0  0  0  0  0  0  0  0  0  0  0  0  0  0
     Eigenvalues ---   -0.00363   0.00005   0.00048   0.00126   0.00242
     Eigenvalues ---    0.00308   0.00694   0.01763   0.02148   0.02317
     Eigenvalues ---    0.02495   0.02556   0.02684   0.02894   0.02987
     Eigenvalues ---    0.03167   0.04305   0.06238   0.08178   0.10218
     Eigenvalues ---    0.10413   0.10546   0.10703   0.11462   0.11653
     Eigenvalues ---    0.13767   0.14566   0.14840   0.32049   0.33867
     Eigenvalues ---    0.34995   0.35124   0.35370   0.35888   0.35913
     Eigenvalues ---    0.36196   0.36296   0.36310   0.36324   0.62999
     Eigenvalues ---    0.64101   0.64598
 Eigenvectors required to have negative eigenvalues:
                          D1        D2        D3        D4        A22
   1                    0.46288   0.45009   0.44852   0.43573  -0.30685
                          D19       R9        A18       D22       A14
   1                   -0.17293   0.14016  -0.13125  -0.08964   0.07741
 RFO step:  Lambda0=2.260772104D-07 Lambda=-1.17653089D-04.
 Linear search not attempted -- option 19 set.
 Maximum step size (   0.300) exceeded in Quadratic search.
    -- Step size scaled by   0.570
 Iteration  1 RMS(Cart)=  0.07749833 RMS(Int)=  0.00990747
 Iteration  2 RMS(Cart)=  0.01231230 RMS(Int)=  0.00080667
 Iteration  3 RMS(Cart)=  0.00005901 RMS(Int)=  0.00080621
 Iteration  4 RMS(Cart)=  0.00000004 RMS(Int)=  0.00080621
 ITry= 1 IFail=0 DXMaxC= 1.92D-01 DCOld= 1.00D+10 DXMaxT= 3.00D-01 DXLimC= 3.00D+00 Rises=F
 Variable       Old X    -DE/DX   Delta X   Delta X   Delta X     New X
                                 (Linear)    (Quad)   (Total)
    R1        2.80428   0.00022   0.00000   0.00039   0.00002   2.80430
    R2        2.05395   0.00001   0.00000   0.00015   0.00015   2.05410
    R3        2.50449  -0.00049   0.00000  -0.00034  -0.00019   2.50430
    R4        2.05367  -0.00006   0.00000   0.00000   0.00000   2.05367
    R5        2.50389   0.00010   0.00000   0.00002  -0.00020   2.50369
    R6        2.04717  -0.00014   0.00000  -0.00020   0.00020   2.04737
    R7        2.04659  -0.00001   0.00000  -0.00006  -0.00006   2.04654
    R8        2.50111  -0.00073   0.00000  -0.00078  -0.00022   2.50089
    R9        6.61115   0.00010   0.00000   0.27693   0.27667   6.88782
   R10        2.04719  -0.00017   0.00000  -0.00035   0.00005   2.04724
   R11        2.04691  -0.00002   0.00000   0.00011   0.00011   2.04702
   R12        7.04067   0.00004   0.00000  -0.00592  -0.00613   7.03454
   R13        2.04911  -0.00041   0.00000  -0.00063  -0.00009   2.04903
   R14        2.04529   0.00003   0.00000  -0.00009  -0.00009   2.04519
   R15        2.04829  -0.00018   0.00000  -0.00029  -0.00015   2.04814
   R16        2.04518  -0.00003   0.00000  -0.00002  -0.00002   2.04516
    A1        2.03484   0.00010   0.00000   0.00054   0.00034   2.03519
    A2        2.16896  -0.00010   0.00000  -0.00098  -0.00056   2.16840
    A3        2.07933  -0.00000   0.00000   0.00043   0.00022   2.07955
    A4        2.03736  -0.00012   0.00000  -0.00129  -0.00013   2.03723
    A5        2.15988   0.00026   0.00000   0.00234   0.00003   2.15992
    A6        2.08586  -0.00015   0.00000  -0.00105   0.00010   2.08596
    A7        2.04665  -0.00004   0.00000  -0.00013  -0.00057   2.04608
    A8        2.11343   0.00006   0.00000  -0.00044   0.00043   2.11385
    A9        2.12311  -0.00002   0.00000   0.00057   0.00014   2.12325
   A10        1.90007   0.00005   0.00000  -0.02621  -0.02565   1.87442
   A11        2.12342  -0.00002   0.00000   0.00033  -0.00032   2.12310
   A12        2.11618  -0.00000   0.00000  -0.00098  -0.00066   2.11552
   A13        2.04357   0.00003   0.00000   0.00066   0.00098   2.04455
   A14        0.78312   0.00005   0.00000  -0.01646  -0.01648   0.76664
   A15        2.12356  -0.00024   0.00000  -0.00270  -0.00137   2.12219
   A16        2.11572   0.00013   0.00000   0.00145   0.00078   2.11649
   A17        2.04390   0.00011   0.00000   0.00126   0.00059   2.04450
   A18        0.99289   0.00028   0.00000  -0.07864  -0.07614   0.91675
   A19        2.11549   0.00007   0.00000   0.00184   0.00003   2.11552
   A20        2.11588  -0.00001   0.00000  -0.00114  -0.00023   2.11564
   A21        2.05180  -0.00006   0.00000  -0.00070   0.00021   2.05201
   A22        2.20476  -0.00004   0.00000   0.07616   0.07573   2.28049
    D1        1.72590   0.00006   0.00000  -0.00114  -0.00053   1.72536
    D2       -1.40154   0.00003   0.00000  -0.00160  -0.00116  -1.40270
    D3       -1.40469  -0.00003   0.00000  -0.00055  -0.00056  -1.40524
    D4        1.75106  -0.00006   0.00000  -0.00102  -0.00118   1.74988
    D5       -0.00501   0.00009   0.00000  -0.00015   0.00113  -0.00388
    D6        3.14008   0.00010   0.00000   0.00020   0.00119   3.14127
    D7       -3.13533   0.00000   0.00000   0.00044   0.00110  -3.13423
    D8        0.00976   0.00001   0.00000   0.00080   0.00116   0.01092
    D9       -0.01249  -0.00001   0.00000   0.00077   0.00121  -0.01128
   D10        3.13698   0.00003   0.00000  -0.00007   0.00041   3.13739
   D11       -3.13956  -0.00004   0.00000   0.00029   0.00057  -3.13899
   D12        0.00991   0.00000   0.00000  -0.00055  -0.00023   0.00968
   D13        2.88000   0.00011   0.00000   0.03768   0.03879   2.91879
   D14       -0.25990   0.00014   0.00000   0.03764   0.03893  -0.22096
   D15       -3.14104  -0.00005   0.00000  -0.00161  -0.00137   3.14077
   D16       -0.00577  -0.00000   0.00000  -0.00011   0.00032  -0.00545
   D17        0.00233  -0.00002   0.00000  -0.00165  -0.00122   0.00110
   D18        3.13759   0.00003   0.00000  -0.00015   0.00048   3.13806
   D19        2.90423   0.00023   0.00000   0.10785   0.10813   3.01236
   D20        1.89785   0.00014   0.00000  -0.03910  -0.03780   1.86005
   D21       -1.23767   0.00009   0.00000  -0.04053  -0.03942  -1.27709
   D22        1.52394  -0.00012   0.00000  -0.01288  -0.01331   1.51063
   D23       -1.61012   0.00018   0.00000   0.04778   0.04891  -1.56121
   D24        1.52811   0.00017   0.00000   0.04744   0.04885   1.57696
   D25       -1.50295   0.00017   0.00000   0.06244   0.06329  -1.43966
   D26        1.63105   0.00013   0.00000   0.06324   0.06406   1.69511
         Item               Value     Threshold  Converged?
 Maximum Force            0.000734     0.000450     NO 
 RMS     Force            0.000163     0.000300     YES
 Maximum Displacement     0.192351     0.001800     NO 
 RMS     Displacement     0.080778     0.001200     NO 
 Predicted change in Energy=-5.484777D-05
 GradGradGradGradGradGradGradGradGradGradGradGradGradGradGradGradGradGrad

 Leave Link  103 at Mon Oct  6 14:28:36 2025, MaxMem=   104857600 cpu:               0.0 elap:               0.0
 (Enter /home/zhouoh/g16/l202.exe)
                          Input orientation:                          
 ---------------------------------------------------------------------
 Center     Atomic      Atomic             Coordinates (Angstroms)
 Number     Number       Type             X           Y           Z
 ---------------------------------------------------------------------
      1          6           0       -1.010311   -1.043856   -1.271281
      2          6           0       -0.012642   -1.973806   -0.686448
      3          1           0       -2.056319   -1.314826   -1.153074
      4          1           0        0.458713   -2.676731   -1.368181
      5          6           0       -1.249973    1.719746    1.464677
      6          1           0       -1.854018    1.210195    0.723535
      7          1           0       -1.772537    2.227699    2.265775
      8          6           0        0.071196    1.719699    1.387650
      9          1           0        0.683463    2.226983    2.123482
     10          1           0        0.586650    1.206497    0.584944
     11          6           0       -0.701077    0.066642   -1.925018
     12          1           0        0.329167    0.371125   -2.071958
     13          1           0       -1.469236    0.710825   -2.332779
     14          6           0        0.309419   -1.994903    0.598537
     15          1           0       -0.145417   -1.308085    1.302872
     16          1           0        1.040994   -2.694187    0.982037
 ---------------------------------------------------------------------
                    Distance matrix (angstroms):
                    1          2          3          4          5
     1  C    0.000000
     2  C    1.483974   0.000000
     3  H    1.086982   2.197409   0.000000
     4  H    2.198568   1.086756   2.868177   0.000000
     5  C    3.896203   4.449792   4.087963   5.502154   0.000000
     6  H    3.126000   3.939109   3.152510   4.983191   1.083423
     7  H    4.877994   5.428213   4.931384   6.499042   1.082981
     8  C    3.984571   4.236849   4.493322   5.203207   1.323413
     9  H    5.009159   5.101657   5.548571   6.024005   2.104635
    10  H    3.325649   3.477055   4.045128   4.348623   2.100128
    11  C    1.325218   2.484236   2.083514   3.030062   3.811046
    12  H    2.106526   2.745027   3.062241   3.130736   4.101249
    13  H    2.101498   3.469771   2.416533   4.015341   3.935310
    14  C    2.478386   1.324898   3.021152   2.086901   4.120742
    15  H    2.728391   2.101953   3.111793   3.061484   3.227071
    16  H    3.465384   2.100700   4.006829   2.421339   4.996426
                    6          7          8          9         10
     6  H    0.000000
     7  H    1.849448   0.000000
     8  C    2.099308   2.104404   0.000000
     9  H    3.071241   2.460118   1.083354   0.000000
    10  H    2.444602   3.071451   1.083239   1.848747   0.000000
    11  C    3.106737   4.835384   3.781901   4.793159   3.042601
    12  H    3.644875   5.165264   3.722108   4.601245   2.797011
    13  H    3.120654   4.851762   4.151186   5.176013   3.603535
    14  C    3.868945   4.994456   3.804959   4.504408   3.213410
    15  H    3.097851   4.009547   3.036706   3.722520   2.715597
    16  H    4.867455   5.812821   4.537336   5.064448   3.947080
                   11         12         13         14         15
    11  C    0.000000
    12  H    1.084299   0.000000
    13  H    1.082269   1.848696   0.000000
    14  C    3.411657   3.567915   4.367744   0.000000
    15  H    3.552169   3.799270   4.364223   1.083827   0.000000
    16  H    4.371265   4.385170   5.374324   1.082253   1.852507
                   16
    16  H    0.000000
 Stoichiometry    C6H10
 Framework group  C1[X(C6H10)]
 Deg. of freedom    42
 Full point group                 C1      NOp   1
 RotChk:  IX=2 Diff= 4.93D-02
 Largest Abelian subgroup         C1      NOp   1
 Largest concise Abelian subgroup C1      NOp   1
                         Standard orientation:                         
 ---------------------------------------------------------------------
 Center     Atomic      Atomic             Coordinates (Angstroms)
 Number     Number       Type             X           Y           Z
 ---------------------------------------------------------------------
      1          6           0       -1.343167    0.783341    0.410540
      2          6           0       -1.861544   -0.538767   -0.020152
      3          1           0       -1.402235    1.006948    1.472633
      4          1           0       -2.866795   -0.558817   -0.432592
      5          6           0        2.493856    0.132854    0.596344
      6          1           0        1.710774    0.709607    1.073778
      7          1           0        3.412276   -0.010978    1.151918
      8          6           0        2.329754   -0.370625   -0.616504
      9          1           0        3.107215   -0.947916   -1.102248
     10          1           0        1.406775   -0.225080   -1.164530
     11          6           0       -0.835344    1.689312   -0.412586
     12          1           0       -0.763789    1.510608   -1.479660
     13          1           0       -0.470750    2.639967   -0.045662
     14          6           0       -1.177266   -1.668217    0.086905
     15          1           0       -0.173830   -1.680276    0.496360
     16          1           0       -1.597371   -2.611449   -0.237282
 ---------------------------------------------------------------------
 Rotational constants (GHZ):           4.0381906           1.7368652           1.3650084
 Leave Link  202 at Mon Oct  6 14:28:36 2025, MaxMem=   104857600 cpu:               0.0 elap:               0.0
 (Enter /home/zhouoh/g16/l301.exe)
 Standard basis: STO-3G (5D, 7F)
 Ernie: Thresh=  0.10000D-02 Tol=  0.10000D-05 Strict=F.
 There are    40 symmetry adapted cartesian basis functions of A   symmetry.
 There are    40 symmetry adapted basis functions of A   symmetry.
    40 basis functions,   120 primitive gaussians,    40 cartesian basis functions
    23 alpha electrons       23 beta electrons
       nuclear repulsion energy       200.8112581147 Hartrees.
 IExCor=    0 DFT=F Ex=HF Corr=None ExCW=0 ScaHFX=  1.000000
 ScaDFX=  1.000000  1.000000  1.000000  1.000000 ScalE2=  1.000000  1.000000
 IRadAn=      5 IRanWt=     -1 IRanGd=            0 ICorTp=0 IEmpDi=  4
 NAtoms=   16 NActive=   16 NUniq=   16 SFac= 1.00D+00 NAtFMM=   60 NAOKFM=F Big=F
 Integral buffers will be    131072 words long.
 Raffenetti 1 integral format.
 Two-electron integral symmetry is turned on.
 Leave Link  301 at Mon Oct  6 14:28:36 2025, MaxMem=   104857600 cpu:               0.0 elap:               0.0
 (Enter /home/zhouoh/g16/l402.exe)
 External calculation of energy, first and second derivatives.
 Running external command "python ../GauUMA_client.py R"
         input file       "/home/zhouoh/scratch/Gau-2817891.EIn"
         output file      "/home/zhouoh/scratch/Gau-2817891.EOu"
         message file     "/home/zhouoh/scratch/Gau-2817891.EMs"
         fchk file        "/home/zhouoh/scratch/Gau-2817891.EFC"
         mat. el file     "/home/zhouoh/scratch/Gau-2817891.EUF"
Sent job to server.
Received result from server:
SCF Done:  E(UMA) =  -234.52318227981738     A.U.
 Recovered energy= -234.523182280     dipole=      0.000000000000      0.000000000000      0.000000000000
 Energy=    -234.523182     NIter=   0.
 Dipole moment=       0.000000       0.000000       0.000000
 Leave Link  402 at Mon Oct  6 14:28:39 2025, MaxMem=   104857600 cpu:               0.0 elap:               2.5
 (Enter /home/zhouoh/g16/l716.exe)
 Dipole        = 0.00000000D+00 0.00000000D+00 0.00000000D+00
 ***** Axes restored to original set *****
 -------------------------------------------------------------------
 Center     Atomic                   Forces (Hartrees/Bohr)
 Number     Number              X              Y              Z
 -------------------------------------------------------------------
      1        6           0.000041647    0.000236001   -0.000454877
      2        6           0.000064593    0.000060070    0.000059954
      3        1          -0.000019930    0.000047003   -0.000000819
      4        1           0.000000867    0.000044570    0.000032528
      5        6           0.000538768   -0.000007238   -0.000163295
      6        1           0.000144532    0.000065021    0.000199112
      7        1          -0.000010172   -0.000046242    0.000018222
      8        6          -0.000572169    0.000111926    0.000185611
      9        1          -0.000126513   -0.000058205   -0.000199174
     10        1          -0.000017986   -0.000016481    0.000030404
     11        6           0.000057539    0.000064203   -0.000102596
     12        1          -0.000231494   -0.000342947    0.000191849
     13        1          -0.000018561    0.000012162   -0.000037753
     14        6          -0.000064423    0.000021572    0.000090355
     15        1           0.000264025   -0.000188486    0.000133450
     16        1          -0.000050724   -0.000002927    0.000017029
 -------------------------------------------------------------------
 Cartesian Forces:  Max     0.000572169 RMS     0.000174834
 FormGI is forming the generalized inverse of G from B-inverse, IUseBI=4.
 Leave Link  716 at Mon Oct  6 14:28:39 2025, MaxMem=   104857600 cpu:               0.0 elap:               0.0
 (Enter /home/zhouoh/g16/l103.exe)

 GradGradGradGradGradGradGradGradGradGradGradGradGradGradGradGradGradGrad
 Berny optimization.
 Red2BG is reusing G-inverse.
 Internal  Forces:  Max     0.000657711 RMS     0.000144091
 Search for a saddle point.
 Step number  15 out of a maximum of   74
 All quantities printed in internal units (Hartrees-Bohrs-Radians)
 Swapping is turned off.
 Second derivative matrix not updated -- analytic derivatives used.
 ITU=  0  0  0  0  0  0  0  0  0  0  0  0  0  0  0
     Eigenvalues ---   -0.00366   0.00017   0.00049   0.00141   0.00215
     Eigenvalues ---    0.00303   0.00777   0.01795   0.02148   0.02329
     Eigenvalues ---    0.02498   0.02548   0.02689   0.02913   0.02984
     Eigenvalues ---    0.03144   0.04280   0.06143   0.08252   0.10209
     Eigenvalues ---    0.10413   0.10552   0.10719   0.11461   0.11660
     Eigenvalues ---    0.13778   0.14576   0.14854   0.32050   0.33819
     Eigenvalues ---    0.35027   0.35125   0.35362   0.35897   0.35912
     Eigenvalues ---    0.36199   0.36298   0.36310   0.36322   0.62971
     Eigenvalues ---    0.64147   0.64721
 Eigenvectors required to have negative eigenvalues:
                          D1        D2        D3        D4        A22
   1                    0.46270   0.45116   0.44931   0.43777  -0.31636
                          D19       R9        A18       D14       D13
   1                   -0.16642   0.13074  -0.12927  -0.07585  -0.07209
 RFO step:  Lambda0=4.039796356D-07 Lambda=-6.88863991D-05.
 Linear search not attempted -- option 19 set.
 Maximum step size (   0.300) exceeded in Quadratic search.
    -- Step size scaled by   0.847
 Iteration  1 RMS(Cart)=  0.07837774 RMS(Int)=  0.01046874
 Iteration  2 RMS(Cart)=  0.01347833 RMS(Int)=  0.00083792
 Iteration  3 RMS(Cart)=  0.00006539 RMS(Int)=  0.00083737
 Iteration  4 RMS(Cart)=  0.00000004 RMS(Int)=  0.00083737
 ITry= 1 IFail=0 DXMaxC= 2.01D-01 DCOld= 1.00D+10 DXMaxT= 3.00D-01 DXLimC= 3.00D+00 Rises=F
 Variable       Old X    -DE/DX   Delta X   Delta X   Delta X     New X
                                 (Linear)    (Quad)   (Total)
    R1        2.80430   0.00023   0.00000   0.00059   0.00025   2.80456
    R2        2.05410   0.00001   0.00000   0.00014   0.00014   2.05424
    R3        2.50430  -0.00034   0.00000  -0.00031  -0.00015   2.50415
    R4        2.05367  -0.00005   0.00000  -0.00001  -0.00001   2.05366
    R5        2.50369   0.00022   0.00000   0.00020  -0.00005   2.50364
    R6        2.04737  -0.00016   0.00000  -0.00036   0.00006   2.04744
    R7        2.04654  -0.00000   0.00000  -0.00006  -0.00006   2.04647
    R8        2.50089  -0.00066   0.00000  -0.00103  -0.00048   2.50040
    R9        6.88782   0.00008   0.00000   0.27989   0.27966   7.16747
   R10        2.04724  -0.00019   0.00000  -0.00060  -0.00018   2.04707
   R11        2.04702  -0.00002   0.00000   0.00011   0.00011   2.04713
   R12        7.03454   0.00002   0.00000   0.01353   0.01332   7.04787
   R13        2.04903  -0.00034   0.00000  -0.00074  -0.00020   2.04882
   R14        2.04519   0.00003   0.00000  -0.00008  -0.00008   2.04511
   R15        2.04814  -0.00012   0.00000  -0.00029  -0.00021   2.04793
   R16        2.04516  -0.00003   0.00000  -0.00001  -0.00001   2.04515
    A1        2.03519   0.00008   0.00000   0.00057   0.00033   2.03551
    A2        2.16840  -0.00007   0.00000  -0.00104  -0.00053   2.16786
    A3        2.07955  -0.00001   0.00000   0.00046   0.00020   2.07975
    A4        2.03723  -0.00011   0.00000  -0.00183  -0.00063   2.03660
    A5        2.15992   0.00024   0.00000   0.00353   0.00112   2.16104
    A6        2.08596  -0.00013   0.00000  -0.00169  -0.00049   2.08548
    A7        2.04608  -0.00002   0.00000  -0.00030  -0.00077   2.04532
    A8        2.11385   0.00002   0.00000  -0.00071   0.00022   2.11407
    A9        2.12325   0.00001   0.00000   0.00101   0.00055   2.12380
   A10        1.87442   0.00012   0.00000  -0.01963  -0.01890   1.85552
   A11        2.12310   0.00001   0.00000   0.00061  -0.00006   2.12304
   A12        2.11552  -0.00001   0.00000  -0.00112  -0.00079   2.11473
   A13        2.04455   0.00000   0.00000   0.00052   0.00085   2.04540
   A14        0.76664   0.00010   0.00000  -0.01439  -0.01435   0.75229
   A15        2.12219  -0.00020   0.00000  -0.00329  -0.00191   2.12028
   A16        2.11649   0.00011   0.00000   0.00151   0.00082   2.11732
   A17        2.04450   0.00009   0.00000   0.00177   0.00109   2.04559
   A18        0.91675   0.00029   0.00000  -0.07141  -0.06855   0.84819
   A19        2.11552   0.00006   0.00000   0.00293   0.00093   2.11644
   A20        2.11564  -0.00001   0.00000  -0.00165  -0.00065   2.11499
   A21        2.05201  -0.00005   0.00000  -0.00128  -0.00027   2.05174
   A22        2.28049  -0.00006   0.00000   0.07297   0.07229   2.35278
    D1        1.72536   0.00005   0.00000   0.00432   0.00491   1.73028
    D2       -1.40270   0.00002   0.00000   0.00372   0.00418  -1.39852
    D3       -1.40524  -0.00003   0.00000   0.00547   0.00547  -1.39978
    D4        1.74988  -0.00006   0.00000   0.00487   0.00473   1.75461
    D5       -0.00388   0.00009   0.00000  -0.00114   0.00016  -0.00373
    D6        3.14127   0.00010   0.00000  -0.00049   0.00046  -3.14146
    D7       -3.13423   0.00001   0.00000   0.00004   0.00072  -3.13351
    D8        0.01092   0.00001   0.00000   0.00069   0.00102   0.01195
    D9       -0.01128  -0.00000   0.00000   0.00010   0.00052  -0.01077
   D10        3.13739   0.00004   0.00000  -0.00020   0.00025   3.13764
   D11       -3.13899  -0.00003   0.00000  -0.00052  -0.00024  -3.13923
   D12        0.00968   0.00001   0.00000  -0.00082  -0.00051   0.00917
   D13        2.91879   0.00010   0.00000   0.04431   0.04535   2.96414
   D14       -0.22096   0.00012   0.00000   0.04396   0.04515  -0.17581
   D15        3.14077  -0.00003   0.00000  -0.00113  -0.00089   3.13988
   D16       -0.00545   0.00001   0.00000   0.00010   0.00054  -0.00491
   D17        0.00110  -0.00001   0.00000  -0.00150  -0.00110   0.00000
   D18        3.13806   0.00002   0.00000  -0.00026   0.00033   3.13840
   D19        3.01236   0.00015   0.00000   0.11659   0.11665   3.12901
   D20        1.86005   0.00012   0.00000  -0.04154  -0.04027   1.81978
   D21       -1.27709   0.00009   0.00000  -0.04272  -0.04165  -1.31874
   D22        1.51063  -0.00010   0.00000  -0.02770  -0.02816   1.48247
   D23       -1.56121   0.00017   0.00000   0.05919   0.06020  -1.50101
   D24        1.57696   0.00016   0.00000   0.05857   0.05991   1.63687
   D25       -1.43966   0.00016   0.00000   0.07717   0.07797  -1.36169
   D26        1.69511   0.00012   0.00000   0.07745   0.07823   1.77333
         Item               Value     Threshold  Converged?
 Maximum Force            0.000658     0.000450     NO 
 RMS     Force            0.000144     0.000300     YES
 Maximum Displacement     0.200515     0.001800     NO 
 RMS     Displacement     0.082030     0.001200     NO 
 Predicted change in Energy=-3.791725D-05
 GradGradGradGradGradGradGradGradGradGradGradGradGradGradGradGradGradGrad

 Leave Link  103 at Mon Oct  6 14:28:39 2025, MaxMem=   104857600 cpu:               0.0 elap:               0.0
 (Enter /home/zhouoh/g16/l202.exe)
                          Input orientation:                          
 ---------------------------------------------------------------------
 Center     Atomic      Atomic             Coordinates (Angstroms)
 Number     Number       Type             X           Y           Z
 ---------------------------------------------------------------------
      1          6           0       -0.999423   -1.006479   -1.256938
      2          6           0       -0.043046   -1.982336   -0.677613
      3          1           0       -2.056095   -1.208719   -1.101267
      4          1           0        0.366250   -2.726230   -1.355941
      5          6           0       -1.270278    1.664628    1.502530
      6          1           0       -1.874449    1.114641    0.790933
      7          1           0       -1.785929    2.133154    2.331602
      8          6           0        0.041661    1.757826    1.358048
      9          1           0        0.653496    2.306826    2.063535
     10          1           0        0.549257    1.283274    0.526979
     11          6           0       -0.642308    0.066012   -1.948480
     12          1           0        0.400254    0.299700   -2.132661
     13          1           0       -1.380588    0.747704   -2.350289
     14          6           0        0.314041   -1.996424    0.598150
     15          1           0       -0.078052   -1.269698    1.299987
     16          1           0        1.013282   -2.730863    0.976197
 ---------------------------------------------------------------------
                    Distance matrix (angstroms):
                    1          2          3          4          5
     1  C    0.000000
     2  C    1.484107   0.000000
     3  H    1.087056   2.197802   0.000000
     4  H    2.198273   1.086751   2.869748   0.000000
     5  C    3.850043   4.422609   3.956436   5.488962   0.000000
     6  H    3.075483   3.886121   3.001902   4.937822   1.083457
     7  H    4.832546   5.387975   4.798509   6.468651   1.082947
     8  C    3.945046   4.259097   4.387391   5.251461   1.323157
     9  H    4.973497   5.137701   5.451322   6.091549   2.104293
    10  H    3.289945   3.530733   3.955891   4.433396   2.099485
    11  C    1.325141   2.483938   2.083626   3.027359   3.854787
    12  H    2.105253   2.742511   3.061495   3.124212   4.227093
    13  H    2.101871   3.469868   2.417427   4.013525   3.961961
    14  C    2.479219   1.324870   3.020934   2.086580   4.090387
    15  H    2.730581   2.102375   3.111655   3.061510   3.173751
    16  H    3.465743   2.100288   4.006727   2.420236   4.981166
                    6          7          8          9         10
     6  H    0.000000
     7  H    1.849017   0.000000
     8  C    2.099235   2.104463   0.000000
     9  H    3.071047   2.460248   1.083261   0.000000
    10  H    2.443863   3.071165   1.083296   1.849197   0.000000
    11  C    3.181537   4.888767   3.776662   4.774581   3.004905
    12  H    3.792862   5.298168   3.799970   4.658406   2.839595
    13  H    3.200909   4.899375   4.098159   5.103940   3.505683
    14  C    3.808593   4.946528   3.840055   4.558568   3.288892
    15  H    3.028408   3.944677   3.030446   3.729570   2.740206
    16  H    4.812611   5.773333   4.608491   5.166243   4.065761
                   11         12         13         14         15
    11  C    0.000000
    12  H    1.084190   0.000000
    13  H    1.082226   1.849180   0.000000
    14  C    3.413732   3.568885   4.369817   0.000000
    15  H    3.557393   3.804584   4.369329   1.083717   0.000000
    16  H    4.372325   4.384645   5.375552   1.082247   1.852256
                   16
    16  H    0.000000
 Stoichiometry    C6H10
 Framework group  C1[X(C6H10)]
 Deg. of freedom    42
 Full point group                 C1      NOp   1
 RotChk:  IX=0 Diff= 5.90D-02
 Largest Abelian subgroup         C1      NOp   1
 Largest concise Abelian subgroup C1      NOp   1
                         Standard orientation:                         
 ---------------------------------------------------------------------
 Center     Atomic      Atomic             Coordinates (Angstroms)
 Number     Number       Type             X           Y           Z
 ---------------------------------------------------------------------
      1          6           0       -1.303867    0.768100    0.435301
      2          6           0       -1.861777   -0.538151    0.005165
      3          1           0       -1.275937    0.957319    1.505398
      4          1           0       -2.895674   -0.540891   -0.329615
      5          6           0        2.475891    0.061000    0.625749
      6          1           0        1.680468    0.574251    1.152772
      7          1           0        3.382021   -0.148808    1.180441
      8          6           0        2.340453   -0.290300   -0.642710
      9          1           0        3.130828   -0.802281   -1.178096
     10          1           0        1.429063   -0.078810   -1.188760
     11          6           0       -0.860312    1.699128   -0.396831
     12          1           0       -0.877526    1.553147   -1.471010
     13          1           0       -0.462042    2.636657   -0.031272
     14          6           0       -1.179273   -1.673547    0.023761
     15          1           0       -0.147618   -1.704263    0.354194
     16          1           0       -1.630266   -2.603704   -0.296664
 ---------------------------------------------------------------------
 Rotational constants (GHZ):           4.0280610           1.7363547           1.3725874
 Leave Link  202 at Mon Oct  6 14:28:39 2025, MaxMem=   104857600 cpu:               0.0 elap:               0.0
 (Enter /home/zhouoh/g16/l301.exe)
 Standard basis: STO-3G (5D, 7F)
 Ernie: Thresh=  0.10000D-02 Tol=  0.10000D-05 Strict=F.
 There are    40 symmetry adapted cartesian basis functions of A   symmetry.
 There are    40 symmetry adapted basis functions of A   symmetry.
    40 basis functions,   120 primitive gaussians,    40 cartesian basis functions
    23 alpha electrons       23 beta electrons
       nuclear repulsion energy       200.8798996316 Hartrees.
 IExCor=    0 DFT=F Ex=HF Corr=None ExCW=0 ScaHFX=  1.000000
 ScaDFX=  1.000000  1.000000  1.000000  1.000000 ScalE2=  1.000000  1.000000
 IRadAn=      5 IRanWt=     -1 IRanGd=            0 ICorTp=0 IEmpDi=  4
 NAtoms=   16 NActive=   16 NUniq=   16 SFac= 1.00D+00 NAtFMM=   60 NAOKFM=F Big=F
 Integral buffers will be    131072 words long.
 Raffenetti 1 integral format.
 Two-electron integral symmetry is turned on.
 Leave Link  301 at Mon Oct  6 14:28:39 2025, MaxMem=   104857600 cpu:               0.0 elap:               0.0
 (Enter /home/zhouoh/g16/l402.exe)
 External calculation of energy, first and second derivatives.
 Running external command "python ../GauUMA_client.py R"
         input file       "/home/zhouoh/scratch/Gau-2817891.EIn"
         output file      "/home/zhouoh/scratch/Gau-2817891.EOu"
         message file     "/home/zhouoh/scratch/Gau-2817891.EMs"
         fchk file        "/home/zhouoh/scratch/Gau-2817891.EFC"
         mat. el file     "/home/zhouoh/scratch/Gau-2817891.EUF"
Sent job to server.
Received result from server:
SCF Done:  E(UMA) =  -234.52322169003904     A.U.
 Recovered energy= -234.523221690     dipole=      0.000000000000      0.000000000000      0.000000000000
 Energy=    -234.523222     NIter=   0.
 Dipole moment=       0.000000       0.000000       0.000000
 Leave Link  402 at Mon Oct  6 14:28:41 2025, MaxMem=   104857600 cpu:               0.0 elap:               2.5
 (Enter /home/zhouoh/g16/l716.exe)
 Dipole        = 0.00000000D+00 0.00000000D+00 0.00000000D+00
 ***** Axes restored to original set *****
 -------------------------------------------------------------------
 Center     Atomic                   Forces (Hartrees/Bohr)
 Number     Number              X              Y              Z
 -------------------------------------------------------------------
      1        6           0.000003356    0.000116745   -0.000310098
      2        6           0.000032697    0.000033123   -0.000033299
      3        1          -0.000006134    0.000029467   -0.000005446
      4        1          -0.000002297    0.000031192    0.000017705
      5        6           0.000307298    0.000007616   -0.000118941
      6        1           0.000148760    0.000063281    0.000116570
      7        1          -0.000009727   -0.000022740    0.000015362
      8        6          -0.000373225    0.000070063    0.000143833
      9        1          -0.000088818   -0.000083850   -0.000151234
     10        1          -0.000004177   -0.000006791    0.000029753
     11        6           0.000051018    0.000054753   -0.000080780
     12        1          -0.000167349   -0.000198060    0.000150811
     13        1          -0.000018903    0.000006524   -0.000028432
     14        6          -0.000021172    0.000002876    0.000102140
     15        1           0.000182019   -0.000106066    0.000141249
     16        1          -0.000033345    0.000001866    0.000010806
 -------------------------------------------------------------------
 Cartesian Forces:  Max     0.000373225 RMS     0.000116181
 FormGI is forming the generalized inverse of G from B-inverse, IUseBI=4.
 Leave Link  716 at Mon Oct  6 14:28:41 2025, MaxMem=   104857600 cpu:               0.0 elap:               0.0
 (Enter /home/zhouoh/g16/l103.exe)

 GradGradGradGradGradGradGradGradGradGradGradGradGradGradGradGradGradGrad
 Berny optimization.
 Red2BG is reusing G-inverse.
 Internal  Forces:  Max     0.000426648 RMS     0.000100487
 Search for a saddle point.
 Step number  16 out of a maximum of   74
 All quantities printed in internal units (Hartrees-Bohrs-Radians)
 Swapping is turned off.
 Second derivative matrix not updated -- analytic derivatives used.
 ITU=  0  0  0  0  0  0  0  0  0  0  0  0  0  0  0  0
     Eigenvalues ---   -0.00368   0.00027   0.00048   0.00146   0.00194
     Eigenvalues ---    0.00288   0.00855   0.01836   0.02144   0.02343
     Eigenvalues ---    0.02500   0.02540   0.02696   0.02923   0.02984
     Eigenvalues ---    0.03116   0.04298   0.06101   0.08288   0.10204
     Eigenvalues ---    0.10418   0.10553   0.10737   0.11458   0.11672
     Eigenvalues ---    0.13793   0.14589   0.14863   0.32031   0.33778
     Eigenvalues ---    0.35057   0.35146   0.35357   0.35907   0.35936
     Eigenvalues ---    0.36199   0.36301   0.36313   0.36329   0.62910
     Eigenvalues ---    0.64188   0.64904
 Eigenvectors required to have negative eigenvalues:
                          D1        D2        D3        D4        A22
   1                   -0.46216  -0.45205  -0.44968  -0.43957   0.31868
                          D19       A18       R9        D14       D13
   1                    0.15891   0.13146  -0.12304   0.08374   0.08005
 RFO step:  Lambda0=3.171616917D-07 Lambda=-1.87423855D-05.
 Linear search not attempted -- option 19 set.
 Iteration  1 RMS(Cart)=  0.04202120 RMS(Int)=  0.00066793
 Iteration  2 RMS(Cart)=  0.00100061 RMS(Int)=  0.00022647
 Iteration  3 RMS(Cart)=  0.00000062 RMS(Int)=  0.00022647
 ITry= 1 IFail=0 DXMaxC= 1.01D-01 DCOld= 1.00D+10 DXMaxT= 3.00D-01 DXLimC= 3.00D+00 Rises=F
 Variable       Old X    -DE/DX   Delta X   Delta X   Delta X     New X
                                 (Linear)    (Quad)   (Total)
    R1        2.80456   0.00016   0.00000   0.00045   0.00038   2.80494
    R2        2.05424  -0.00000   0.00000   0.00003   0.00003   2.05427
    R3        2.50415  -0.00019   0.00000  -0.00019  -0.00013   2.50402
    R4        2.05366  -0.00003   0.00000  -0.00001  -0.00001   2.05365
    R5        2.50364   0.00024   0.00000   0.00028   0.00020   2.50385
    R6        2.04744  -0.00013   0.00000  -0.00039  -0.00026   2.04717
    R7        2.04647   0.00001   0.00000  -0.00002  -0.00002   2.04645
    R8        2.50040  -0.00043   0.00000  -0.00075  -0.00062   2.49979
    R9        7.16747   0.00004   0.00000   0.14366   0.14362   7.31109
   R10        2.04707  -0.00016   0.00000  -0.00054  -0.00041   2.04666
   R11        2.04713  -0.00002   0.00000   0.00004   0.00004   2.04717
   R12        7.04787   0.00001   0.00000   0.03604   0.03596   7.08382
   R13        2.04882  -0.00022   0.00000  -0.00058  -0.00044   2.04838
   R14        2.04511   0.00003   0.00000  -0.00004  -0.00004   2.04507
   R15        2.04793  -0.00004   0.00000  -0.00010  -0.00011   2.04781
   R16        2.04515  -0.00002   0.00000   0.00000   0.00000   2.04515
    A1        2.03551   0.00005   0.00000   0.00044   0.00037   2.03588
    A2        2.16786  -0.00004   0.00000  -0.00081  -0.00066   2.16721
    A3        2.07975  -0.00001   0.00000   0.00036   0.00028   2.08003
    A4        2.03660  -0.00009   0.00000  -0.00164  -0.00132   2.03528
    A5        2.16104   0.00017   0.00000   0.00327   0.00265   2.16368
    A6        2.08548  -0.00009   0.00000  -0.00163  -0.00132   2.08416
    A7        2.04532  -0.00001   0.00000  -0.00013  -0.00026   2.04505
    A8        2.11407  -0.00001   0.00000  -0.00067  -0.00040   2.11367
    A9        2.12380   0.00002   0.00000   0.00080   0.00066   2.12446
   A10        1.85552   0.00013   0.00000  -0.00756  -0.00729   1.84823
   A11        2.12304   0.00002   0.00000   0.00052   0.00037   2.12341
   A12        2.11473  -0.00001   0.00000  -0.00054  -0.00047   2.11426
   A13        2.04540  -0.00001   0.00000   0.00003   0.00010   2.04551
   A14        0.75229   0.00009   0.00000  -0.01099  -0.01106   0.74124
   A15        2.12028  -0.00013   0.00000  -0.00235  -0.00200   2.11828
   A16        2.11732   0.00006   0.00000   0.00093   0.00075   2.11807
   A17        2.04559   0.00006   0.00000   0.00142   0.00125   2.04683
   A18        0.84819   0.00025   0.00000  -0.02948  -0.02863   0.81956
   A19        2.11644   0.00006   0.00000   0.00292   0.00234   2.11878
   A20        2.11499  -0.00002   0.00000  -0.00148  -0.00119   2.11380
   A21        2.05174  -0.00004   0.00000  -0.00145  -0.00115   2.05058
   A22        2.35278  -0.00007   0.00000   0.03002   0.02976   2.38254
    D1        1.73028   0.00003   0.00000   0.00622   0.00637   1.73664
    D2       -1.39852   0.00001   0.00000   0.00580   0.00592  -1.39261
    D3       -1.39978  -0.00003   0.00000   0.00741   0.00742  -1.39235
    D4        1.75461  -0.00005   0.00000   0.00699   0.00697   1.76158
    D5       -0.00373   0.00006   0.00000  -0.00175  -0.00142  -0.00515
    D6       -3.14146   0.00006   0.00000  -0.00116  -0.00096   3.14077
    D7       -3.13351   0.00001   0.00000  -0.00053  -0.00034  -3.13385
    D8        0.01195   0.00001   0.00000   0.00006   0.00012   0.01207
    D9       -0.01077  -0.00001   0.00000  -0.00068  -0.00058  -0.01135
   D10        3.13764   0.00002   0.00000  -0.00027  -0.00015   3.13749
   D11       -3.13923  -0.00003   0.00000  -0.00112  -0.00104  -3.14027
   D12        0.00917   0.00000   0.00000  -0.00070  -0.00061   0.00856
   D13        2.96414   0.00006   0.00000   0.01972   0.01999   2.98413
   D14       -0.17581   0.00006   0.00000   0.01940   0.01971  -0.15611
   D15        3.13988  -0.00001   0.00000  -0.00033  -0.00026   3.13962
   D16       -0.00491   0.00001   0.00000   0.00008   0.00019  -0.00472
   D17        0.00000  -0.00001   0.00000  -0.00067  -0.00056  -0.00056
   D18        3.13840   0.00001   0.00000  -0.00025  -0.00010   3.13829
   D19        3.12901   0.00005   0.00000   0.07243   0.07246  -3.08171
   D20        1.81978   0.00008   0.00000  -0.02059  -0.02028   1.79950
   D21       -1.31874   0.00006   0.00000  -0.02099  -0.02072  -1.33946
   D22        1.48247  -0.00007   0.00000  -0.02287  -0.02303   1.45944
   D23       -1.50101   0.00011   0.00000   0.03927   0.03943  -1.46157
   D24        1.63687   0.00011   0.00000   0.03870   0.03899   1.67586
   D25       -1.36169   0.00010   0.00000   0.05021   0.05042  -1.31126
   D26        1.77333   0.00007   0.00000   0.04980   0.05001   1.82334
         Item               Value     Threshold  Converged?
 Maximum Force            0.000427     0.000450     YES
 RMS     Force            0.000100     0.000300     YES
 Maximum Displacement     0.100949     0.001800     NO 
 RMS     Displacement     0.042205     0.001200     NO 
 Predicted change in Energy=-9.581610D-06
 GradGradGradGradGradGradGradGradGradGradGradGradGradGradGradGradGradGrad

 Leave Link  103 at Mon Oct  6 14:28:41 2025, MaxMem=   104857600 cpu:               0.0 elap:               0.0
 (Enter /home/zhouoh/g16/l202.exe)
                          Input orientation:                          
 ---------------------------------------------------------------------
 Center     Atomic      Atomic             Coordinates (Angstroms)
 Number     Number       Type             X           Y           Z
 ---------------------------------------------------------------------
      1          6           0       -0.993426   -0.987558   -1.252325
      2          6           0       -0.058436   -1.984390   -0.673279
      3          1           0       -2.053440   -1.155298   -1.079245
      4          1           0        0.322412   -2.744960   -1.349670
      5          6           0       -1.277058    1.637401    1.525709
      6          1           0       -1.878440    1.061538    0.832673
      7          1           0       -1.787986    2.088610    2.367203
      8          6           0        0.025489    1.780535    1.344704
      9          1           0        0.634987    2.355676    2.030787
     10          1           0        0.527513    1.322425    0.501093
     11          6           0       -0.613506    0.063522   -1.964157
     12          1           0        0.433360    0.260826   -2.164418
     13          1           0       -1.335579    0.762288   -2.366028
     14          6           0        0.313533   -1.999229    0.598329
     15          1           0       -0.047454   -1.257276    1.300828
     16          1           0        0.996104   -2.751095    0.972569
 ---------------------------------------------------------------------
                    Distance matrix (angstroms):
                    1          2          3          4          5
     1  C    0.000000
     2  C    1.484310   0.000000
     3  H    1.087071   2.198237   0.000000
     4  H    2.197582   1.086745   2.871380   0.000000
     5  C    3.832536   4.408851   3.897144   5.480073   0.000000
     6  H    3.054384   3.854606   2.932647   4.908747   1.083318
     7  H    4.816131   5.368911   4.740402   6.452312   1.082935
     8  C    3.930024   4.272466   4.337810   5.275218   1.322830
     9  H    4.960622   5.160328   5.406190   6.127127   2.104029
    10  H    3.274714   3.557740   3.911253   4.473366   2.098935
    11  C    1.325072   2.483630   2.083748   3.023427   3.885430
    12  H    2.103829   2.739773   3.060586   3.116228   4.293895
    13  H    2.102229   3.469977   2.418320   4.010325   3.989344
    14  C    2.481237   1.324978   3.021429   2.085879   4.076162
    15  H    2.736092   2.103786   3.114342   3.061885   3.153039
    16  H    3.466763   2.099692   4.007023   2.417994   4.973141
                    6          7          8          9         10
     6  H    0.000000
     7  H    1.848740   0.000000
     8  C    2.098589   2.104544   0.000000
     9  H    3.070437   2.460751   1.083044   0.000000
    10  H    2.442666   3.070984   1.083316   1.849087   0.000000
    11  C    3.227747   4.923522   3.782197   4.772032   2.994030
    12  H    3.868865   5.367566   3.845753   4.693485   2.870680
    13  H    3.258210   4.936322   4.081527   5.074840   3.464858
    14  C    3.771996   4.925010   3.863504   4.595701   3.329958
    15  H    2.991417   3.919383   3.039004   3.748599   2.761344
    16  H    4.776897   5.754903   4.649328   5.227748   4.127400
                   11         12         13         14         15
    11  C    0.000000
    12  H    1.083956   0.000000
    13  H    1.082203   1.849663   0.000000
    14  C    3.417701   3.571411   4.374123   0.000000
    15  H    3.567219   3.813627   4.379924   1.083656   0.000000
    16  H    4.374618   4.385093   5.378368   1.082249   1.851557
                   16
    16  H    0.000000
 Stoichiometry    C6H10
 Framework group  C1[X(C6H10)]
 Deg. of freedom    42
 Full point group                 C1      NOp   1
 RotChk:  IX=0 Diff= 3.45D-02
 Largest Abelian subgroup         C1      NOp   1
 Largest concise Abelian subgroup C1      NOp   1
                         Standard orientation:                         
 ---------------------------------------------------------------------
 Center     Atomic      Atomic             Coordinates (Angstroms)
 Number     Number       Type             X           Y           Z
 ---------------------------------------------------------------------
      1          6           0       -1.287265    0.758105    0.448313
      2          6           0       -1.859131   -0.541184    0.014731
      3          1           0       -1.217351    0.926695    1.519953
      4          1           0       -2.903839   -0.537627   -0.284581
      5          6           0        2.469082    0.021616    0.637468
      6          1           0        1.663927    0.491726    1.189103
      7          1           0        3.370299   -0.219705    1.187304
      8          6           0        2.350173   -0.242151   -0.653333
      9          1           0        3.149931   -0.710173   -1.213982
     10          1           0        1.443029    0.000595   -1.193461
     11          6           0       -0.880101    1.706468   -0.382735
     12          1           0       -0.940271    1.578880   -1.457473
     13          1           0       -0.470196    2.638540   -0.016152
     14          6           0       -1.178713   -1.677816   -0.011080
     15          1           0       -0.136148   -1.718458    0.281692
     16          1           0       -1.643646   -2.600708   -0.332593
 ---------------------------------------------------------------------
 Rotational constants (GHZ):           4.0173942           1.7333871           1.3732278
 Leave Link  202 at Mon Oct  6 14:28:41 2025, MaxMem=   104857600 cpu:               0.0 elap:               0.0
 (Enter /home/zhouoh/g16/l301.exe)
 Standard basis: STO-3G (5D, 7F)
 Ernie: Thresh=  0.10000D-02 Tol=  0.10000D-05 Strict=F.
 There are    40 symmetry adapted cartesian basis functions of A   symmetry.
 There are    40 symmetry adapted basis functions of A   symmetry.
    40 basis functions,   120 primitive gaussians,    40 cartesian basis functions
    23 alpha electrons       23 beta electrons
       nuclear repulsion energy       200.8332208281 Hartrees.
 IExCor=    0 DFT=F Ex=HF Corr=None ExCW=0 ScaHFX=  1.000000
 ScaDFX=  1.000000  1.000000  1.000000  1.000000 ScalE2=  1.000000  1.000000
 IRadAn=      5 IRanWt=     -1 IRanGd=            0 ICorTp=0 IEmpDi=  4
 NAtoms=   16 NActive=   16 NUniq=   16 SFac= 1.00D+00 NAtFMM=   60 NAOKFM=F Big=F
 Integral buffers will be    131072 words long.
 Raffenetti 1 integral format.
 Two-electron integral symmetry is turned on.
 Leave Link  301 at Mon Oct  6 14:28:41 2025, MaxMem=   104857600 cpu:               0.0 elap:               0.0
 (Enter /home/zhouoh/g16/l402.exe)
 External calculation of energy, first and second derivatives.
 Running external command "python ../GauUMA_client.py R"
         input file       "/home/zhouoh/scratch/Gau-2817891.EIn"
         output file      "/home/zhouoh/scratch/Gau-2817891.EOu"
         message file     "/home/zhouoh/scratch/Gau-2817891.EMs"
         fchk file        "/home/zhouoh/scratch/Gau-2817891.EFC"
         mat. el file     "/home/zhouoh/scratch/Gau-2817891.EUF"
Sent job to server.
Received result from server:
SCF Done:  E(UMA) =  -234.5232323070546     A.U.
 Recovered energy= -234.523232307     dipole=      0.000000000000      0.000000000000      0.000000000000
 Energy=    -234.523232     NIter=   0.
 Dipole moment=       0.000000       0.000000       0.000000
 Leave Link  402 at Mon Oct  6 14:28:44 2025, MaxMem=   104857600 cpu:               0.0 elap:               2.5
 (Enter /home/zhouoh/g16/l716.exe)
 Dipole        = 0.00000000D+00 0.00000000D+00 0.00000000D+00
 ***** Axes restored to original set *****
 -------------------------------------------------------------------
 Center     Atomic                   Forces (Hartrees/Bohr)
 Number     Number              X              Y              Z
 -------------------------------------------------------------------
      1        6           0.000001095    0.000022220   -0.000065457
      2        6           0.000003948    0.000009162   -0.000023808
      3        1           0.000000537    0.000007354   -0.000001214
      4        1          -0.000000719    0.000006954    0.000002672
      5        6           0.000044319    0.000000181   -0.000024476
      6        1           0.000040237    0.000017597    0.000026209
      7        1          -0.000002518   -0.000004095    0.000004211
      8        6          -0.000063373    0.000013598    0.000029621
      9        1          -0.000023779   -0.000023601   -0.000035824
     10        1           0.000000892   -0.000000001    0.000007462
     11        6           0.000011520    0.000003451   -0.000013667
     12        1          -0.000035551   -0.000038581    0.000033177
     13        1          -0.000003989    0.000001517   -0.000006033
     14        6          -0.000004784   -0.000006147    0.000021429
     15        1           0.000039439   -0.000011140    0.000043775
     16        1          -0.000007274    0.000001532    0.000001923
 -------------------------------------------------------------------
 Cartesian Forces:  Max     0.000065457 RMS     0.000023599
 FormGI is forming the generalized inverse of G from B-inverse, IUseBI=4.
 Leave Link  716 at Mon Oct  6 14:28:44 2025, MaxMem=   104857600 cpu:               0.0 elap:               0.0
 (Enter /home/zhouoh/g16/l103.exe)

 GradGradGradGradGradGradGradGradGradGradGradGradGradGradGradGradGradGrad
 Berny optimization.
 Red2BG is reusing G-inverse.
 Internal  Forces:  Max     0.000078237 RMS     0.000021485
 Search for a saddle point.
 Step number  17 out of a maximum of   74
 All quantities printed in internal units (Hartrees-Bohrs-Radians)
 Swapping is turned off.
 Second derivative matrix not updated -- analytic derivatives used.
 ITU=  0  0  0  0  0  0  0  0  0  0  0  0  0  0  0  0  0
     Eigenvalues ---   -0.00371   0.00025   0.00047   0.00142   0.00185
     Eigenvalues ---    0.00276   0.00899   0.01860   0.02138   0.02349
     Eigenvalues ---    0.02499   0.02537   0.02698   0.02923   0.02984
     Eigenvalues ---    0.03103   0.04291   0.06106   0.08308   0.10207
     Eigenvalues ---    0.10428   0.10547   0.10749   0.11458   0.11683
     Eigenvalues ---    0.13799   0.14585   0.14868   0.31998   0.33763
     Eigenvalues ---    0.35067   0.35186   0.35349   0.35923   0.35965
     Eigenvalues ---    0.36204   0.36304   0.36319   0.36353   0.62857
     Eigenvalues ---    0.64200   0.65056
 Eigenvectors required to have negative eigenvalues:
                          D1        D2        D3        D4        A22
   1                    0.46123   0.45225   0.44936   0.44039  -0.31560
                          D19       A18       R9        D14       D13
   1                   -0.15541  -0.13402   0.12001  -0.08624  -0.08262
 RFO step:  Lambda0=2.273778845D-08 Lambda=-1.17659011D-06.
 Linear search not attempted -- option 19 set.
 Iteration  1 RMS(Cart)=  0.01249583 RMS(Int)=  0.00005934
 Iteration  2 RMS(Cart)=  0.00008935 RMS(Int)=  0.00001926
 Iteration  3 RMS(Cart)=  0.00000001 RMS(Int)=  0.00001926
 ITry= 1 IFail=0 DXMaxC= 3.06D-02 DCOld= 1.00D+10 DXMaxT= 3.00D-01 DXLimC= 3.00D+00 Rises=F
 Variable       Old X    -DE/DX   Delta X   Delta X   Delta X     New X
                                 (Linear)    (Quad)   (Total)
    R1        2.80494   0.00003   0.00000   0.00007   0.00007   2.80501
    R2        2.05427  -0.00000   0.00000  -0.00000  -0.00000   2.05427
    R3        2.50402  -0.00005   0.00000  -0.00004  -0.00004   2.50398
    R4        2.05365  -0.00001   0.00000  -0.00000  -0.00000   2.05365
    R5        2.50385   0.00006   0.00000   0.00008   0.00007   2.50392
    R6        2.04717  -0.00003   0.00000  -0.00010  -0.00009   2.04709
    R7        2.04645   0.00000   0.00000  -0.00001  -0.00001   2.04645
    R8        2.49979  -0.00008   0.00000  -0.00014  -0.00013   2.49966
    R9        7.31109   0.00001   0.00000   0.04257   0.04256   7.35366
   R10        2.04666  -0.00004   0.00000  -0.00014  -0.00013   2.04653
   R11        2.04717  -0.00001   0.00000   0.00001   0.00001   2.04718
   R12        7.08382  -0.00000   0.00000   0.00863   0.00863   7.09245
   R13        2.04838  -0.00004   0.00000  -0.00012  -0.00011   2.04827
   R14        2.04507   0.00001   0.00000  -0.00001  -0.00001   2.04506
   R15        2.04781   0.00001   0.00000   0.00002   0.00002   2.04784
   R16        2.04515  -0.00000   0.00000   0.00000   0.00000   2.04515
    A1        2.03588   0.00001   0.00000   0.00012   0.00011   2.03599
    A2        2.16721  -0.00001   0.00000  -0.00019  -0.00018   2.16703
    A3        2.08003  -0.00000   0.00000   0.00007   0.00006   2.08009
    A4        2.03528  -0.00002   0.00000  -0.00036  -0.00034   2.03494
    A5        2.16368   0.00003   0.00000   0.00072   0.00067   2.16435
    A6        2.08416  -0.00002   0.00000  -0.00036  -0.00033   2.08383
    A7        2.04505   0.00000   0.00000  -0.00004  -0.00005   2.04500
    A8        2.11367  -0.00001   0.00000  -0.00016  -0.00014   2.11353
    A9        2.12446   0.00001   0.00000   0.00020   0.00019   2.12465
   A10        1.84823   0.00003   0.00000  -0.00152  -0.00150   1.84673
   A11        2.12341   0.00001   0.00000   0.00008   0.00006   2.12348
   A12        2.11426   0.00000   0.00000  -0.00010  -0.00009   2.11417
   A13        2.04551  -0.00001   0.00000   0.00002   0.00003   2.04554
   A14        0.74124   0.00002   0.00000  -0.00295  -0.00295   0.73829
   A15        2.11828  -0.00002   0.00000  -0.00051  -0.00048   2.11779
   A16        2.11807   0.00001   0.00000   0.00019   0.00017   2.11824
   A17        2.04683   0.00001   0.00000   0.00033   0.00031   2.04714
   A18        0.81956   0.00006   0.00000  -0.00826  -0.00819   0.81137
   A19        2.11878   0.00002   0.00000   0.00071   0.00066   2.11944
   A20        2.11380  -0.00001   0.00000  -0.00036  -0.00033   2.11346
   A21        2.05058  -0.00001   0.00000  -0.00035  -0.00032   2.05026
   A22        2.38254  -0.00002   0.00000   0.00900   0.00898   2.39152
    D1        1.73664   0.00000   0.00000   0.00223   0.00225   1.73889
    D2       -1.39261   0.00000   0.00000   0.00210   0.00211  -1.39049
    D3       -1.39235  -0.00001   0.00000   0.00252   0.00252  -1.38983
    D4        1.76158  -0.00001   0.00000   0.00239   0.00239   1.76397
    D5       -0.00515   0.00001   0.00000  -0.00045  -0.00042  -0.00557
    D6        3.14077   0.00001   0.00000  -0.00028  -0.00026   3.14051
    D7       -3.13385  -0.00000   0.00000  -0.00016  -0.00014  -3.13400
    D8        0.01207  -0.00000   0.00000   0.00001   0.00002   0.01209
    D9       -0.01135  -0.00000   0.00000  -0.00027  -0.00026  -0.01160
   D10        3.13749   0.00000   0.00000  -0.00003  -0.00002   3.13747
   D11       -3.14027  -0.00001   0.00000  -0.00040  -0.00040  -3.14067
   D12        0.00856   0.00000   0.00000  -0.00016  -0.00016   0.00840
   D13        2.98413   0.00001   0.00000   0.00649   0.00651   2.99064
   D14       -0.15611   0.00001   0.00000   0.00642   0.00644  -0.14967
   D15        3.13962  -0.00000   0.00000  -0.00004  -0.00003   3.13959
   D16       -0.00472   0.00000   0.00000   0.00007   0.00008  -0.00464
   D17       -0.00056  -0.00000   0.00000  -0.00011  -0.00010  -0.00066
   D18        3.13829   0.00000   0.00000  -0.00000   0.00001   3.13830
   D19       -3.08171   0.00001   0.00000   0.02105   0.02106  -3.06066
   D20        1.79950   0.00001   0.00000  -0.00644  -0.00641   1.79308
   D21       -1.33946   0.00001   0.00000  -0.00654  -0.00652  -1.34598
   D22        1.45944  -0.00002   0.00000  -0.00733  -0.00734   1.45210
   D23       -1.46157   0.00002   0.00000   0.01213   0.01215  -1.44943
   D24        1.67586   0.00002   0.00000   0.01197   0.01199   1.68785
   D25       -1.31126   0.00002   0.00000   0.01500   0.01501  -1.29625
   D26        1.82334   0.00001   0.00000   0.01476   0.01478   1.83812
         Item               Value     Threshold  Converged?
 Maximum Force            0.000078     0.000450     YES
 RMS     Force            0.000021     0.000300     YES
 Maximum Displacement     0.030552     0.001800     NO 
 RMS     Displacement     0.012512     0.001200     NO 
 Predicted change in Energy=-5.769166D-07
 GradGradGradGradGradGradGradGradGradGradGradGradGradGradGradGradGradGrad

 Leave Link  103 at Mon Oct  6 14:28:44 2025, MaxMem=   104857600 cpu:               0.0 elap:               0.0
 (Enter /home/zhouoh/g16/l202.exe)
                          Input orientation:                          
 ---------------------------------------------------------------------
 Center     Atomic      Atomic             Coordinates (Angstroms)
 Number     Number       Type             X           Y           Z
 ---------------------------------------------------------------------
      1          6           0       -0.991532   -0.981875   -1.251084
      2          6           0       -0.062996   -1.984695   -0.671901
      3          1           0       -2.052258   -1.139131   -1.072604
      4          1           0        0.309387   -2.750165   -1.347472
      5          6           0       -1.278711    1.629164    1.532696
      6          1           0       -1.878988    1.046218    0.844715
      7          1           0       -1.788036    2.074794    2.378121
      8          6           0        0.020553    1.786951    1.341076
      9          1           0        0.629061    2.369235    2.021889
     10          1           0        0.520770    1.334203    0.493501
     11          6           0       -0.605115    0.062400   -1.969366
     12          1           0        0.442714    0.248795   -2.174676
     13          1           0       -1.322359    0.766040   -2.371367
     14          6           0        0.313263   -1.999540    0.598485
     15          1           0       -0.038476   -1.253021    1.300856
     16          1           0        0.990796   -2.756356    0.971904
 ---------------------------------------------------------------------
                    Distance matrix (angstroms):
                    1          2          3          4          5
     1  C    0.000000
     2  C    1.484345   0.000000
     3  H    1.087071   2.198341   0.000000
     4  H    2.197391   1.086743   2.871994   0.000000
     5  C    3.827457   4.404337   3.879358   5.476855   0.000000
     6  H    3.048461   3.845046   2.912368   4.899713   1.083271
     7  H    4.811317   5.362634   4.722989   6.446662   1.082932
     8  C    3.925559   4.276022   4.322540   5.281774   1.322763
     9  H    4.956673   5.166444   5.392030   6.137022   2.103950
    10  H    3.270298   3.565672   3.897504   4.485077   2.098823
    11  C    1.325051   2.483527   2.083766   3.022183   3.895243
    12  H    2.103481   2.739078   3.060357   3.113808   4.314316
    13  H    2.102305   3.469974   2.418514   4.009320   3.998574
    14  C    2.481741   1.325017   3.021346   2.085714   4.071194
    15  H    2.737560   2.104214   3.114739   3.062040   3.146255
    16  H    3.466999   2.099531   4.006945   2.417408   4.969702
                    6          7          8          9         10
     6  H    0.000000
     7  H    1.848668   0.000000
     8  C    2.098408   2.104593   0.000000
     9  H    3.070248   2.460885   1.082978   0.000000
    10  H    2.442360   3.070970   1.083320   1.849051   0.000000
    11  C    3.241867   4.934539   3.784781   4.772294   2.991791
    12  H    3.891389   5.388736   3.860655   4.705544   2.881557
    13  H    3.275899   4.948467   4.077733   5.067442   3.453607
    14  C    3.760749   4.917597   3.869708   4.605649   3.341844
    15  H    2.980277   3.910986   3.040811   3.753163   2.767364
    16  H    4.765648   5.747987   4.660397   5.244521   4.145174
                   11         12         13         14         15
    11  C    0.000000
    12  H    1.083900   0.000000
    13  H    1.082198   1.849787   0.000000
    14  C    3.418900   3.572421   4.375353   0.000000
    15  H    3.570122   3.816585   4.382942   1.083668   0.000000
    16  H    4.375316   4.385464   5.379165   1.082249   1.851385
                   16
    16  H    0.000000
 Stoichiometry    C6H10
 Framework group  C1[X(C6H10)]
 Deg. of freedom    42
 Full point group                 C1      NOp   1
 RotChk:  IX=0 Diff= 1.05D-02
 Largest Abelian subgroup         C1      NOp   1
 Largest concise Abelian subgroup C1      NOp   1
                         Standard orientation:                         
 ---------------------------------------------------------------------
 Center     Atomic      Atomic             Coordinates (Angstroms)
 Number     Number       Type             X           Y           Z
 ---------------------------------------------------------------------
      1          6           0       -1.282658    0.754633    0.452129
      2          6           0       -1.857800   -0.542892    0.017479
      3          1           0       -1.200003    0.916859    1.523844
      4          1           0       -2.905501   -0.538334   -0.271159
      5          6           0        2.467028    0.010408    0.640299
      6          1           0        1.659065    0.467692    1.198479
      7          1           0        3.366694   -0.240460    1.188395
      8          6           0        2.353037   -0.227137   -0.655957
      9          1           0        3.155504   -0.682116   -1.223304
     10          1           0        1.447281    0.025067   -1.194083
     11          6           0       -0.887322    1.708688   -0.378081
     12          1           0       -0.960447    1.586915   -1.452634
     13          1           0       -0.474572    2.639338   -0.011091
     14          6           0       -1.177380   -1.679188   -0.021653
     15          1           0       -0.131744   -1.721776    0.259713
     16          1           0       -1.645703   -2.600262   -0.343459
 ---------------------------------------------------------------------
 Rotational constants (GHZ):           4.0139021           1.7327816           1.3733695
 Leave Link  202 at Mon Oct  6 14:28:44 2025, MaxMem=   104857600 cpu:               0.0 elap:               0.0
 (Enter /home/zhouoh/g16/l301.exe)
 Standard basis: STO-3G (5D, 7F)
 Ernie: Thresh=  0.10000D-02 Tol=  0.10000D-05 Strict=F.
 There are    40 symmetry adapted cartesian basis functions of A   symmetry.
 There are    40 symmetry adapted basis functions of A   symmetry.
    40 basis functions,   120 primitive gaussians,    40 cartesian basis functions
    23 alpha electrons       23 beta electrons
       nuclear repulsion energy       200.8207713785 Hartrees.
 IExCor=    0 DFT=F Ex=HF Corr=None ExCW=0 ScaHFX=  1.000000
 ScaDFX=  1.000000  1.000000  1.000000  1.000000 ScalE2=  1.000000  1.000000
 IRadAn=      5 IRanWt=     -1 IRanGd=            0 ICorTp=0 IEmpDi=  4
 NAtoms=   16 NActive=   16 NUniq=   16 SFac= 1.00D+00 NAtFMM=   60 NAOKFM=F Big=F
 Integral buffers will be    131072 words long.
 Raffenetti 1 integral format.
 Two-electron integral symmetry is turned on.
 Leave Link  301 at Mon Oct  6 14:28:44 2025, MaxMem=   104857600 cpu:               0.0 elap:               0.0
 (Enter /home/zhouoh/g16/l402.exe)
 External calculation of energy, first and second derivatives.
 Running external command "python ../GauUMA_client.py R"
         input file       "/home/zhouoh/scratch/Gau-2817891.EIn"
         output file      "/home/zhouoh/scratch/Gau-2817891.EOu"
         message file     "/home/zhouoh/scratch/Gau-2817891.EMs"
         fchk file        "/home/zhouoh/scratch/Gau-2817891.EFC"
         mat. el file     "/home/zhouoh/scratch/Gau-2817891.EUF"
Sent job to server.
Received result from server:
SCF Done:  E(UMA) =  -234.52323290285165     A.U.
 Recovered energy= -234.523232903     dipole=      0.000000000000      0.000000000000      0.000000000000
 Energy=    -234.523233     NIter=   0.
 Dipole moment=       0.000000       0.000000       0.000000
 Leave Link  402 at Mon Oct  6 14:28:46 2025, MaxMem=   104857600 cpu:               0.0 elap:               2.6
 (Enter /home/zhouoh/g16/l716.exe)
 Dipole        = 0.00000000D+00 0.00000000D+00 0.00000000D+00
 ***** Axes restored to original set *****
 -------------------------------------------------------------------
 Center     Atomic                   Forces (Hartrees/Bohr)
 Number     Number              X              Y              Z
 -------------------------------------------------------------------
      1        6          -0.000000081    0.000001953   -0.000005646
      2        6           0.000000309    0.000000756   -0.000002370
      3        1          -0.000000013    0.000000734   -0.000000195
      4        1          -0.000000044    0.000000448    0.000000106
      5        6           0.000003564   -0.000000063   -0.000002144
      6        1           0.000003763    0.000001714    0.000001962
      7        1          -0.000000233   -0.000000344    0.000000419
      8        6          -0.000004931    0.000001132    0.000002483
      9        1          -0.000002070   -0.000002167   -0.000003084
     10        1          -0.000000154   -0.000000087    0.000000944
     11        6           0.000001136   -0.000000423   -0.000000752
     12        1          -0.000003276   -0.000002801    0.000002942
     13        1          -0.000000382    0.000000098   -0.000000663
     14        6          -0.000000167   -0.000000158    0.000002336
     15        1           0.000003102   -0.000000982    0.000003581
     16        1          -0.000000523    0.000000188    0.000000080
 -------------------------------------------------------------------
 Cartesian Forces:  Max     0.000005646 RMS     0.000001998
 FormGI is forming the generalized inverse of G from B-inverse, IUseBI=4.
 Leave Link  716 at Mon Oct  6 14:28:46 2025, MaxMem=   104857600 cpu:               0.0 elap:               0.0
 (Enter /home/zhouoh/g16/l103.exe)

 GradGradGradGradGradGradGradGradGradGradGradGradGradGradGradGradGradGrad
 Berny optimization.
 Red2BG is reusing G-inverse.
 Internal  Forces:  Max     0.000006610 RMS     0.000001887
 Search for a saddle point.
 Step number  18 out of a maximum of   74
 All quantities printed in internal units (Hartrees-Bohrs-Radians)
 Swapping is turned off.
 Second derivative matrix not updated -- analytic derivatives used.
 ITU=  0  0  0  0  0  0  0  0  0  0  0  0  0  0  0  0  0  0
     Eigenvalues ---   -0.00370   0.00024   0.00048   0.00141   0.00183
     Eigenvalues ---    0.00274   0.00902   0.01870   0.02136   0.02351
     Eigenvalues ---    0.02499   0.02536   0.02699   0.02923   0.02983
     Eigenvalues ---    0.03100   0.04291   0.06114   0.08308   0.10207
     Eigenvalues ---    0.10432   0.10545   0.10751   0.11457   0.11687
     Eigenvalues ---    0.13801   0.14583   0.14870   0.31992   0.33756
     Eigenvalues ---    0.35069   0.35198   0.35350   0.35928   0.35969
     Eigenvalues ---    0.36203   0.36303   0.36320   0.36359   0.62843
     Eigenvalues ---    0.64203   0.65091
 Eigenvectors required to have negative eigenvalues:
                          D1        D2        D3        D4        A22
   1                    0.46099   0.45211   0.44917   0.44029  -0.31473
                          D19       A18       R9        D14       D13
   1                   -0.15447  -0.13502   0.11918  -0.08712  -0.08355
 RFO step:  Lambda0=1.417105237D-10 Lambda= 0.00000000D+00.
 Linear search not attempted -- option 19 set.
 Iteration  1 RMS(Cart)=  0.00055907 RMS(Int)=  0.00000012
 Iteration  2 RMS(Cart)=  0.00000018 RMS(Int)=  0.00000004
 ITry= 1 IFail=0 DXMaxC= 1.46D-03 DCOld= 1.00D+10 DXMaxT= 3.00D-01 DXLimC= 3.00D+00 Rises=F
 Variable       Old X    -DE/DX   Delta X   Delta X   Delta X     New X
                                 (Linear)    (Quad)   (Total)
    R1        2.80501   0.00000   0.00000   0.00001   0.00001   2.80501
    R2        2.05427  -0.00000   0.00000  -0.00000  -0.00000   2.05427
    R3        2.50398  -0.00000   0.00000  -0.00000  -0.00000   2.50398
    R4        2.05365  -0.00000   0.00000   0.00000   0.00000   2.05365
    R5        2.50392   0.00001   0.00000   0.00001   0.00001   2.50393
    R6        2.04709  -0.00000   0.00000  -0.00001  -0.00001   2.04708
    R7        2.04645   0.00000   0.00000  -0.00000  -0.00000   2.04645
    R8        2.49966  -0.00001   0.00000  -0.00001  -0.00001   2.49965
    R9        7.35366   0.00000   0.00000   0.00187   0.00187   7.35553
   R10        2.04653  -0.00000   0.00000  -0.00001  -0.00001   2.04652
   R11        2.04718  -0.00000   0.00000  -0.00000  -0.00000   2.04718
   R12        7.09245  -0.00000   0.00000   0.00055   0.00055   7.09300
   R13        2.04827  -0.00000   0.00000  -0.00001  -0.00001   2.04826
   R14        2.04506   0.00000   0.00000  -0.00000  -0.00000   2.04506
   R15        2.04784   0.00000   0.00000   0.00000   0.00000   2.04784
   R16        2.04515  -0.00000   0.00000   0.00000   0.00000   2.04515
    A1        2.03599   0.00000   0.00000   0.00001   0.00001   2.03600
    A2        2.16703  -0.00000   0.00000  -0.00002  -0.00002   2.16701
    A3        2.08009  -0.00000   0.00000   0.00001   0.00001   2.08010
    A4        2.03494  -0.00000   0.00000  -0.00003  -0.00003   2.03491
    A5        2.16435   0.00000   0.00000   0.00006   0.00006   2.16441
    A6        2.08383  -0.00000   0.00000  -0.00003  -0.00003   2.08380
    A7        2.04500   0.00000   0.00000   0.00000   0.00000   2.04500
    A8        2.11353  -0.00000   0.00000  -0.00002  -0.00002   2.11351
    A9        2.12465   0.00000   0.00000   0.00002   0.00002   2.12467
   A10        1.84673   0.00000   0.00000  -0.00003  -0.00003   1.84670
   A11        2.12348   0.00000   0.00000   0.00001   0.00001   2.12349
   A12        2.11417  -0.00000   0.00000  -0.00001  -0.00001   2.11416
   A13        2.04554  -0.00000   0.00000  -0.00000  -0.00000   2.04553
   A14        0.73829   0.00000   0.00000  -0.00020  -0.00020   0.73809
   A15        2.11779  -0.00000   0.00000  -0.00004  -0.00004   2.11776
   A16        2.11824   0.00000   0.00000   0.00001   0.00001   2.11825
   A17        2.04714   0.00000   0.00000   0.00002   0.00002   2.04717
   A18        0.81137   0.00001   0.00000  -0.00031  -0.00031   0.81107
   A19        2.11944   0.00000   0.00000   0.00006   0.00006   2.11950
   A20        2.11346  -0.00000   0.00000  -0.00003  -0.00003   2.11344
   A21        2.05026  -0.00000   0.00000  -0.00003  -0.00003   2.05023
   A22        2.39152  -0.00000   0.00000   0.00033   0.00033   2.39185
    D1        1.73889   0.00000   0.00000   0.00015   0.00015   1.73904
    D2       -1.39049   0.00000   0.00000   0.00014   0.00014  -1.39036
    D3       -1.38983  -0.00000   0.00000   0.00017   0.00017  -1.38967
    D4        1.76397  -0.00000   0.00000   0.00016   0.00016   1.76412
    D5       -0.00557   0.00000   0.00000  -0.00004  -0.00004  -0.00562
    D6        3.14051   0.00000   0.00000  -0.00003  -0.00003   3.14048
    D7       -3.13400  -0.00000   0.00000  -0.00002  -0.00002  -3.13402
    D8        0.01209  -0.00000   0.00000  -0.00001  -0.00001   0.01208
    D9       -0.01160  -0.00000   0.00000  -0.00002  -0.00002  -0.01162
   D10        3.13747   0.00000   0.00000  -0.00000  -0.00000   3.13747
   D11       -3.14067  -0.00000   0.00000  -0.00003  -0.00003  -3.14070
   D12        0.00840  -0.00000   0.00000  -0.00001  -0.00001   0.00839
   D13        2.99064   0.00000   0.00000   0.00021   0.00021   2.99085
   D14       -0.14967   0.00000   0.00000   0.00021   0.00021  -0.14946
   D15        3.13959  -0.00000   0.00000  -0.00000  -0.00000   3.13958
   D16       -0.00464   0.00000   0.00000  -0.00000  -0.00000  -0.00464
   D17       -0.00066  -0.00000   0.00000  -0.00001  -0.00001  -0.00067
   D18        3.13830   0.00000   0.00000  -0.00001  -0.00001   3.13830
   D19       -3.06066   0.00000   0.00000   0.00107   0.00107  -3.05958
   D20        1.79308   0.00000   0.00000  -0.00028  -0.00028   1.79280
   D21       -1.34598   0.00000   0.00000  -0.00029  -0.00029  -1.34626
   D22        1.45210  -0.00000   0.00000  -0.00037  -0.00037   1.45173
   D23       -1.44943   0.00000   0.00000   0.00065   0.00065  -1.44878
   D24        1.68785   0.00000   0.00000   0.00064   0.00064   1.68849
   D25       -1.29625   0.00000   0.00000   0.00070   0.00070  -1.29555
   D26        1.83812   0.00000   0.00000   0.00068   0.00068   1.83880
         Item               Value     Threshold  Converged?
 Maximum Force            0.000007     0.000450     YES
 RMS     Force            0.000002     0.000300     YES
 Maximum Displacement     0.001456     0.001800     YES
 RMS     Displacement     0.000559     0.001200     YES
 Predicted change in Energy=-1.904508D-09
 Optimization completed.
    -- Stationary point found.
                           ----------------------------
                           !   Optimized Parameters   !
                           ! (Angstroms and Degrees)  !
 --------------------------                            --------------------------
 ! Name  Definition              Value          Derivative Info.                !
 --------------------------------------------------------------------------------
 ! R1    R(1,2)                  1.4843         -DE/DX =    0.0                 !
 ! R2    R(1,3)                  1.0871         -DE/DX =    0.0                 !
 ! R3    R(1,11)                 1.3251         -DE/DX =    0.0                 !
 ! R4    R(2,4)                  1.0867         -DE/DX =    0.0                 !
 ! R5    R(2,14)                 1.325          -DE/DX =    0.0                 !
 ! R6    R(5,6)                  1.0833         -DE/DX =    0.0                 !
 ! R7    R(5,7)                  1.0829         -DE/DX =    0.0                 !
 ! R8    R(5,8)                  1.3228         -DE/DX =    0.0                 !
 ! R9    R(6,12)                 3.8914         -DE/DX =    0.0                 !
 ! R10   R(8,9)                  1.083          -DE/DX =    0.0                 !
 ! R11   R(8,10)                 1.0833         -DE/DX =    0.0                 !
 ! R12   R(9,15)                 3.7532         -DE/DX =    0.0                 !
 ! R13   R(11,12)                1.0839         -DE/DX =    0.0                 !
 ! R14   R(11,13)                1.0822         -DE/DX =    0.0                 !
 ! R15   R(14,15)                1.0837         -DE/DX =    0.0                 !
 ! R16   R(14,16)                1.0822         -DE/DX =    0.0                 !
 ! A1    A(2,1,3)              116.6537         -DE/DX =    0.0                 !
 ! A2    A(2,1,11)             124.1616         -DE/DX =    0.0                 !
 ! A3    A(3,1,11)             119.1807         -DE/DX =    0.0                 !
 ! A4    A(1,2,4)              116.5936         -DE/DX =    0.0                 !
 ! A5    A(1,2,14)             124.0082         -DE/DX =    0.0                 !
 ! A6    A(4,2,14)             119.3946         -DE/DX =    0.0                 !
 ! A7    A(6,5,7)              117.1699         -DE/DX =    0.0                 !
 ! A8    A(6,5,8)              121.0964         -DE/DX =    0.0                 !
 ! A9    A(7,5,8)              121.7336         -DE/DX =    0.0                 !
 ! A10   A(5,6,12)             105.8098         -DE/DX =    0.0                 !
 ! A11   A(5,8,9)              121.6662         -DE/DX =    0.0                 !
 ! A12   A(5,8,10)             121.1331         -DE/DX =    0.0                 !
 ! A13   A(9,8,10)             117.2005         -DE/DX =    0.0                 !
 ! A14   A(8,9,15)              42.3006         -DE/DX =    0.0                 !
 ! A15   A(1,11,12)            121.3407         -DE/DX =    0.0                 !
 ! A16   A(1,11,13)            121.3662         -DE/DX =    0.0                 !
 ! A17   A(12,11,13)           117.2927         -DE/DX =    0.0                 !
 ! A18   A(6,12,11)             46.4883         -DE/DX =    0.0                 !
 ! A19   A(2,14,15)            121.435          -DE/DX =    0.0                 !
 ! A20   A(2,14,16)            121.0926         -DE/DX =    0.0                 !
 ! A21   A(15,14,16)           117.4711         -DE/DX =    0.0                 !
 ! A22   A(9,15,14)            137.0241         -DE/DX =    0.0                 !
 ! D1    D(3,1,2,4)             99.6311         -DE/DX =    0.0                 !
 ! D2    D(3,1,2,14)           -79.6694         -DE/DX =    0.0                 !
 ! D3    D(11,1,2,4)           -79.6316         -DE/DX =    0.0                 !
 ! D4    D(11,1,2,14)          101.0678         -DE/DX =    0.0                 !
 ! D5    D(2,1,11,12)           -0.3194         -DE/DX =    0.0                 !
 ! D6    D(2,1,11,13)          179.9378         -DE/DX =    0.0                 !
 ! D7    D(3,1,11,12)         -179.5647         -DE/DX =    0.0                 !
 ! D8    D(3,1,11,13)            0.6925         -DE/DX =    0.0                 !
 ! D9    D(1,2,14,15)           -0.6649         -DE/DX =    0.0                 !
 ! D10   D(1,2,14,16)          179.7636         -DE/DX =    0.0                 !
 ! D11   D(4,2,14,15)         -179.9471         -DE/DX =    0.0                 !
 ! D12   D(4,2,14,16)            0.4814         -DE/DX =    0.0                 !
 ! D13   D(7,5,6,12)           171.3509         -DE/DX =    0.0                 !
 ! D14   D(8,5,6,12)            -8.5752         -DE/DX =    0.0                 !
 ! D15   D(6,5,8,9)            179.8851         -DE/DX =    0.0                 !
 ! D16   D(6,5,8,10)            -0.2657         -DE/DX =    0.0                 !
 ! D17   D(7,5,8,9)             -0.0376         -DE/DX =    0.0                 !
 ! D18   D(7,5,8,10)           179.8116         -DE/DX =    0.0                 !
 ! D19   D(5,6,12,11)         -175.3627         -DE/DX =    0.0                 !
 ! D20   D(5,8,9,15)           102.7361         -DE/DX =    0.0                 !
 ! D21   D(10,8,9,15)          -77.1188         -DE/DX =    0.0                 !
 ! D22   D(8,9,15,14)           83.1994         -DE/DX =    0.0                 !
 ! D23   D(1,11,12,6)          -83.0461         -DE/DX =    0.0                 !
 ! D24   D(13,11,12,6)          96.7067         -DE/DX =    0.0                 !
 ! D25   D(2,14,15,9)          -74.2698         -DE/DX =    0.0                 !
 ! D26   D(16,14,15,9)         105.3167         -DE/DX =    0.0                 !
 --------------------------------------------------------------------------------
 Largest change from initial coordinates is atom    9       0.411 Angstoms.
 GradGradGradGradGradGradGradGradGradGradGradGradGradGradGradGradGradGrad

 Leave Link  103 at Mon Oct  6 14:28:46 2025, MaxMem=   104857600 cpu:               0.0 elap:               0.0
 (Enter /home/zhouoh/g16/l202.exe)
                          Input orientation:                          
 ---------------------------------------------------------------------
 Center     Atomic      Atomic             Coordinates (Angstroms)
 Number     Number       Type             X           Y           Z
 ---------------------------------------------------------------------
      1          6           0       -0.991532   -0.981875   -1.251084
      2          6           0       -0.062996   -1.984695   -0.671901
      3          1           0       -2.052258   -1.139131   -1.072604
      4          1           0        0.309387   -2.750165   -1.347472
      5          6           0       -1.278711    1.629164    1.532696
      6          1           0       -1.878988    1.046218    0.844715
      7          1           0       -1.788036    2.074794    2.378121
      8          6           0        0.020553    1.786951    1.341076
      9          1           0        0.629061    2.369235    2.021889
     10          1           0        0.520770    1.334203    0.493501
     11          6           0       -0.605115    0.062400   -1.969366
     12          1           0        0.442714    0.248795   -2.174676
     13          1           0       -1.322359    0.766040   -2.371367
     14          6           0        0.313263   -1.999540    0.598485
     15          1           0       -0.038476   -1.253021    1.300856
     16          1           0        0.990796   -2.756356    0.971904
 ---------------------------------------------------------------------
                    Distance matrix (angstroms):
                    1          2          3          4          5
     1  C    0.000000
     2  C    1.484345   0.000000
     3  H    1.087071   2.198341   0.000000
     4  H    2.197391   1.086743   2.871994   0.000000
     5  C    3.827457   4.404337   3.879358   5.476855   0.000000
     6  H    3.048461   3.845046   2.912368   4.899713   1.083271
     7  H    4.811317   5.362634   4.722989   6.446662   1.082932
     8  C    3.925559   4.276022   4.322540   5.281774   1.322763
     9  H    4.956673   5.166444   5.392030   6.137022   2.103950
    10  H    3.270298   3.565672   3.897504   4.485077   2.098823
    11  C    1.325051   2.483527   2.083766   3.022183   3.895243
    12  H    2.103481   2.739078   3.060357   3.113808   4.314316
    13  H    2.102305   3.469974   2.418514   4.009320   3.998574
    14  C    2.481741   1.325017   3.021346   2.085714   4.071194
    15  H    2.737560   2.104214   3.114739   3.062040   3.146255
    16  H    3.466999   2.099531   4.006945   2.417408   4.969702
                    6          7          8          9         10
     6  H    0.000000
     7  H    1.848668   0.000000
     8  C    2.098408   2.104593   0.000000
     9  H    3.070248   2.460885   1.082978   0.000000
    10  H    2.442360   3.070970   1.083320   1.849051   0.000000
    11  C    3.241867   4.934539   3.784781   4.772294   2.991791
    12  H    3.891389   5.388736   3.860655   4.705544   2.881557
    13  H    3.275899   4.948467   4.077733   5.067442   3.453607
    14  C    3.760749   4.917597   3.869708   4.605649   3.341844
    15  H    2.980277   3.910986   3.040811   3.753163   2.767364
    16  H    4.765648   5.747987   4.660397   5.244521   4.145174
                   11         12         13         14         15
    11  C    0.000000
    12  H    1.083900   0.000000
    13  H    1.082198   1.849787   0.000000
    14  C    3.418900   3.572421   4.375353   0.000000
    15  H    3.570122   3.816585   4.382942   1.083668   0.000000
    16  H    4.375316   4.385464   5.379165   1.082249   1.851385
                   16
    16  H    0.000000
 Stoichiometry    C6H10
 Framework group  C1[X(C6H10)]
 Deg. of freedom    42
 Full point group                 C1      NOp   1
 RotChk:  IX=0 Diff= 1.12D-15
 Largest Abelian subgroup         C1      NOp   1
 Largest concise Abelian subgroup C1      NOp   1
                         Standard orientation:                         
 ---------------------------------------------------------------------
 Center     Atomic      Atomic             Coordinates (Angstroms)
 Number     Number       Type             X           Y           Z
 ---------------------------------------------------------------------
      1          6           0       -1.282658    0.754633    0.452129
      2          6           0       -1.857800   -0.542892    0.017479
      3          1           0       -1.200003    0.916859    1.523844
      4          1           0       -2.905501   -0.538334   -0.271159
      5          6           0        2.467028    0.010408    0.640299
      6          1           0        1.659065    0.467692    1.198479
      7          1           0        3.366694   -0.240460    1.188395
      8          6           0        2.353037   -0.227137   -0.655957
      9          1           0        3.155504   -0.682116   -1.223304
     10          1           0        1.447281    0.025067   -1.194083
     11          6           0       -0.887322    1.708688   -0.378081
     12          1           0       -0.960447    1.586915   -1.452634
     13          1           0       -0.474572    2.639338   -0.011091
     14          6           0       -1.177380   -1.679188   -0.021653
     15          1           0       -0.131744   -1.721776    0.259713
     16          1           0       -1.645703   -2.600262   -0.343459
 ---------------------------------------------------------------------
 Rotational constants (GHZ):           4.0139021           1.7327816           1.3733695
 Leave Link  202 at Mon Oct  6 14:28:46 2025, MaxMem=   104857600 cpu:               0.0 elap:               0.0
 (Enter /home/zhouoh/g16/l601.exe)
 Leave Link  601 at Mon Oct  6 14:28:46 2025, MaxMem=   104857600 cpu:               0.0 elap:               0.0
 (Enter /home/zhouoh/g16/l716.exe)
 Rotating derivatives to standard orientation.
 Dipole        = 0.00000000D+00 0.00000000D+00 0.00000000D+00
 Full mass-weighted force constant matrix:
 Low frequencies --- -159.4474   -5.5069   -4.8641   -1.7638    1.7967    3.9288
 Low frequencies ---    7.0062   29.9671   52.5067
 ******    1 imaginary frequencies (negative Signs) ****** 
 Diagonal vibrational polarizability:
        0.0000000       0.0000000       0.0000000
 Harmonic frequencies (cm**-1), IR intensities (KM/Mole), Raman scattering
 activities (A**4/AMU), depolarization ratios for plane and unpolarized
 incident light, reduced masses (AMU), force constants (mDyne/A),
 and normal coordinates:
                      1                      2                      3
                      A                      A                      A
 Frequencies --   -159.4473                29.9558                52.5041
 Red. masses --      1.8126                 2.3127                 2.5473
 Frc consts  --      0.0272                 0.0012                 0.0041
 IR Inten    --      0.0000                 0.0000                 0.0000
  Atom  AN      X      Y      Z        X      Y      Z        X      Y      Z
     1   6    -0.11   0.04   0.02    -0.08  -0.02   0.03    -0.15   0.07  -0.01
     2   6    -0.06  -0.01   0.12    -0.02  -0.00  -0.10     0.08  -0.01  -0.08
     3   1    -0.42   0.24   0.02    -0.30  -0.03   0.05    -0.42   0.13   0.01
     4   1    -0.16  -0.13   0.47     0.03   0.01  -0.28     0.14  -0.13  -0.30
     5   6    -0.01  -0.00   0.00     0.06   0.20  -0.06    -0.06  -0.15  -0.03
     6   1    -0.02  -0.01  -0.02     0.09   0.33  -0.12    -0.09  -0.22  -0.01
     7   1    -0.02  -0.01   0.02     0.11   0.38  -0.07    -0.07  -0.18  -0.03
     8   6     0.03   0.01  -0.01    -0.04  -0.16   0.01    -0.03  -0.04  -0.05
     9   1     0.04   0.01   0.01    -0.08  -0.29   0.07    -0.00   0.03  -0.07
    10   1     0.04   0.01  -0.03    -0.09  -0.34   0.02    -0.02  -0.01  -0.05
    11   6     0.10  -0.09  -0.03     0.10  -0.02   0.12    -0.05   0.07   0.04
    12   1     0.36  -0.26  -0.03     0.31  -0.00   0.11     0.22   0.01   0.03
    13   1     0.01  -0.04  -0.07     0.04  -0.03   0.21    -0.23   0.13   0.10
    14   6     0.05   0.06  -0.11    -0.02  -0.01  -0.01     0.20   0.06   0.12
    15   1     0.13   0.16  -0.41    -0.07  -0.02   0.17     0.15   0.18   0.34
    16   1     0.05   0.02   0.01     0.03   0.00  -0.11     0.37  -0.00   0.05
                      4                      5                      6
                      A                      A                      A
 Frequencies --     62.9492                68.3267                85.9517
 Red. masses --      2.4751                 4.5283                 2.0294
 Frc consts  --      0.0058                 0.0125                 0.0088
 IR Inten    --      0.0000                 0.0000                 0.0000
  Atom  AN      X      Y      Z        X      Y      Z        X      Y      Z
     1   6    -0.00  -0.03  -0.01    -0.20   0.01  -0.01     0.02  -0.00   0.03
     2   6    -0.03   0.00  -0.06    -0.16   0.01  -0.04    -0.00   0.01   0.02
     3   1    -0.16   0.01  -0.01    -0.26   0.02  -0.01     0.07  -0.04   0.04
     4   1     0.02   0.07  -0.24    -0.13   0.00  -0.15    -0.00   0.02   0.02
     5   6    -0.07  -0.02  -0.02     0.32  -0.07  -0.00    -0.19   0.04  -0.04
     6   1    -0.18  -0.29   0.06     0.29  -0.17   0.04    -0.38   0.01  -0.31
     7   1    -0.02   0.09  -0.05     0.34  -0.05  -0.04    -0.32   0.15   0.23
     8   6    -0.01   0.19  -0.06     0.31   0.03  -0.02     0.21  -0.06  -0.06
     9   1     0.10   0.47  -0.13     0.34   0.13  -0.07     0.40  -0.03   0.20
    10   1    -0.06   0.08  -0.02     0.29   0.02   0.01     0.34  -0.17  -0.34
    11   6     0.22  -0.09   0.02    -0.14   0.01   0.01    -0.02   0.02   0.04
    12   1     0.38  -0.13   0.01    -0.08  -0.00   0.00    -0.07   0.05   0.04
    13   1     0.24  -0.11   0.05    -0.17   0.01   0.03     0.00   0.01   0.05
    14   6    -0.11  -0.05   0.12    -0.16   0.01   0.07    -0.02   0.00   0.01
    15   1    -0.16  -0.12   0.30    -0.19   0.02   0.18    -0.01  -0.01   0.00
    16   1    -0.12  -0.03   0.08    -0.12  -0.00   0.04    -0.03   0.01  -0.00
                      7                      8                      9
                      A                      A                      A
 Frequencies --    119.8129               332.3975               357.9701
 Red. masses --      1.0732                 1.8571                 1.6466
 Frc consts  --      0.0091                 0.1209                 0.1243
 IR Inten    --      0.0000                 0.0000                 0.0000
  Atom  AN      X      Y      Z        X      Y      Z        X      Y      Z
     1   6    -0.01  -0.01  -0.00     0.01   0.04  -0.11     0.02   0.07   0.12
     2   6    -0.01  -0.01  -0.01     0.09  -0.06   0.02     0.13   0.04   0.03
     3   1    -0.05  -0.01   0.00    -0.29   0.12  -0.09    -0.23   0.26   0.11
     4   1     0.00  -0.00  -0.06    -0.00  -0.08   0.33     0.20   0.18  -0.23
     5   6    -0.01   0.01  -0.01     0.00   0.00   0.00     0.00   0.00  -0.00
     6   1     0.17   0.44  -0.11     0.00  -0.01   0.00     0.00   0.01  -0.00
     7   1    -0.20  -0.46   0.10     0.01   0.01  -0.00    -0.00  -0.01   0.00
     8   6     0.01   0.05  -0.02    -0.00  -0.00   0.00     0.00   0.00  -0.00
     9   1    -0.16  -0.39   0.08     0.00   0.01  -0.00     0.00  -0.00  -0.00
    10   1     0.20   0.50  -0.12    -0.00  -0.01   0.00     0.00   0.01  -0.00
    11   6     0.03  -0.02   0.01     0.01   0.16   0.03    -0.06  -0.05  -0.04
    12   1     0.07  -0.02   0.01     0.32   0.25  -0.00     0.09  -0.38  -0.02
    13   1     0.02  -0.02   0.02    -0.29   0.21   0.23    -0.30   0.14  -0.27
    14   6    -0.01  -0.02   0.03    -0.06  -0.15   0.02    -0.05  -0.06  -0.06
    15   1    -0.03  -0.02   0.07     0.01  -0.29  -0.27    -0.11  -0.36   0.14
    16   1    -0.01  -0.02   0.02    -0.31  -0.12   0.28    -0.19   0.12  -0.36
                     10                     11                     12
                      A                      A                      A
 Frequencies --    659.9657               706.9500               826.7632
 Red. masses --      1.7673                 1.6356                 1.0421
 Frc consts  --      0.4535                 0.4816                 0.4197
 IR Inten    --      0.0000                 0.0000                 0.0000
  Atom  AN      X      Y      Z        X      Y      Z        X      Y      Z
     1   6     0.12  -0.10   0.03    -0.13   0.08   0.07    -0.00  -0.00   0.00
     2   6     0.01   0.08  -0.15     0.10   0.04  -0.12     0.00  -0.00  -0.00
     3   1    -0.26  -0.10   0.06     0.11  -0.17   0.08    -0.00  -0.00   0.00
     4   1    -0.09   0.16   0.23     0.02  -0.16   0.16    -0.00  -0.00   0.00
     5   6    -0.00  -0.00   0.00     0.00   0.00   0.00     0.04  -0.02  -0.00
     6   1    -0.00  -0.00   0.00     0.00  -0.00   0.00    -0.25   0.01  -0.43
     7   1     0.00   0.01  -0.00    -0.00  -0.00  -0.00    -0.18   0.17   0.43
     8   6    -0.00  -0.00   0.00     0.00  -0.00   0.00     0.04  -0.02  -0.00
     9   1     0.00   0.01  -0.00    -0.00  -0.00   0.00    -0.26   0.01  -0.43
    10   1    -0.00  -0.00  -0.00     0.00   0.00  -0.00    -0.18   0.17   0.43
    11   6    -0.05  -0.06   0.03     0.00  -0.02   0.02     0.00   0.00  -0.00
    12   1     0.13  -0.31   0.05    -0.33  -0.13   0.06    -0.00   0.00   0.00
    13   1    -0.47   0.17  -0.09     0.49  -0.16  -0.20     0.00   0.00  -0.00
    14   6    -0.03   0.08   0.03     0.02  -0.03   0.01     0.00   0.00   0.00
    15   1     0.04   0.28  -0.19     0.08  -0.21  -0.27     0.00  -0.00  -0.00
    16   1    -0.04  -0.08   0.51    -0.31  -0.02   0.44    -0.00  -0.00   0.00
                     13                     14                     15
                      A                      A                      A
 Frequencies --    882.8690               971.9953               978.1437
 Red. masses --      1.9822                 1.3063                 1.2696
 Frc consts  --      0.9103                 0.7272                 0.7157
 IR Inten    --      0.0000                 0.0000                 0.0000
  Atom  AN      X      Y      Z        X      Y      Z        X      Y      Z
     1   6    -0.06  -0.12  -0.09     0.03  -0.02  -0.00     0.00   0.00   0.00
     2   6     0.11   0.11   0.06     0.00   0.00   0.01    -0.01  -0.01   0.03
     3   1    -0.01  -0.06  -0.11     0.10  -0.02  -0.00    -0.05   0.09  -0.00
     4   1     0.12   0.04   0.02     0.01   0.07  -0.02    -0.03  -0.01   0.10
     5   6     0.00  -0.00  -0.00     0.01   0.01  -0.00     0.01   0.02  -0.01
     6   1     0.00   0.00  -0.00    -0.04  -0.08   0.02    -0.06  -0.15   0.03
     7   1     0.00   0.00   0.00    -0.04  -0.09   0.02    -0.07  -0.17   0.04
     8   6    -0.00  -0.00   0.00     0.01   0.02  -0.00     0.02   0.04  -0.01
     9   1    -0.00  -0.00  -0.00    -0.04  -0.10   0.02    -0.08  -0.20   0.05
    10   1     0.00   0.00   0.00    -0.04  -0.10   0.02    -0.09  -0.23   0.05
    11   6    -0.05  -0.12  -0.01    -0.15   0.06   0.00     0.02  -0.01  -0.01
    12   1     0.12   0.30  -0.07     0.70  -0.28  -0.02    -0.13   0.11  -0.01
    13   1    -0.08  -0.31   0.48     0.52  -0.24   0.02    -0.07   0.00   0.05
    14   6     0.03   0.12   0.03    -0.00  -0.00  -0.02     0.03   0.02  -0.13
    15   1     0.02  -0.32  -0.05    -0.02   0.04   0.05    -0.18  -0.12   0.66
    16   1    -0.42   0.39  -0.07     0.02  -0.05   0.08    -0.11  -0.12   0.48
                     16                     17                     18
                      A                      A                      A
 Frequencies --    982.2745               999.9190              1018.3905
 Red. masses --      1.1926                 1.5029                 1.1236
 Frc consts  --      0.6780                 0.8854                 0.6866
 IR Inten    --      0.0000                 0.0000                 0.0000
  Atom  AN      X      Y      Z        X      Y      Z        X      Y      Z
     1   6     0.00  -0.00   0.00     0.00  -0.00   0.00     0.06  -0.03  -0.01
     2   6    -0.00  -0.00   0.02    -0.00  -0.00   0.01     0.03   0.02  -0.06
     3   1     0.03   0.02  -0.00    -0.03   0.04  -0.00    -0.51   0.16   0.01
     4   1    -0.01   0.01   0.02     0.01   0.02  -0.03    -0.13  -0.03   0.51
     5   6    -0.04  -0.08   0.02     0.05   0.13  -0.03    -0.00  -0.00   0.00
     6   1     0.19   0.47  -0.10    -0.15  -0.36   0.08     0.01   0.02  -0.00
     7   1     0.19   0.45  -0.10    -0.17  -0.42   0.09     0.01   0.01  -0.00
     8   6    -0.02  -0.05   0.01    -0.06  -0.14   0.03    -0.00  -0.00   0.00
     9   1     0.15   0.35  -0.08     0.21   0.51  -0.11     0.01   0.02  -0.00
    10   1     0.14   0.35  -0.08     0.19   0.46  -0.10     0.01   0.02  -0.00
    11   6    -0.02   0.01  -0.00    -0.01  -0.00  -0.00    -0.03   0.01   0.00
    12   1     0.10  -0.02  -0.01    -0.00   0.01  -0.00    -0.25   0.08   0.01
    13   1     0.07  -0.04   0.02     0.03  -0.02   0.02     0.35  -0.15  -0.02
    14   6     0.02   0.01  -0.06     0.00   0.00  -0.02    -0.01  -0.01   0.03
    15   1    -0.08  -0.05   0.28    -0.02  -0.01   0.07    -0.07  -0.01   0.25
    16   1    -0.05  -0.06   0.23    -0.02  -0.03   0.10     0.13   0.05  -0.35
                     19                     20                     21
                      A                      A                      A
 Frequencies --   1027.1770              1061.8747              1066.8882
 Red. masses --      1.0820                 1.4092                 1.0189
 Frc consts  --      0.6726                 0.9362                 0.6833
 IR Inten    --      0.0000                 0.0000                 0.0000
  Atom  AN      X      Y      Z        X      Y      Z        X      Y      Z
     1   6    -0.04   0.01  -0.02    -0.06   0.06   0.06    -0.01   0.01   0.01
     2   6    -0.01   0.00  -0.04     0.07   0.03  -0.06     0.01   0.01  -0.01
     3   1     0.38  -0.34  -0.00     0.40   0.17   0.00     0.09   0.02  -0.00
     4   1    -0.14  -0.25   0.44    -0.03   0.24   0.33    -0.01   0.03   0.08
     5   6     0.00   0.01  -0.00     0.00  -0.00  -0.00     0.00   0.01  -0.00
     6   1    -0.00  -0.00  -0.00     0.04   0.11  -0.02    -0.19  -0.46   0.10
     7   1    -0.02  -0.05   0.01    -0.04  -0.10   0.03     0.18   0.43  -0.10
     8   6    -0.00  -0.01   0.00    -0.00  -0.00   0.00    -0.00  -0.01   0.00
     9   1     0.02   0.05  -0.01     0.04   0.11  -0.02    -0.17  -0.42   0.09
    10   1    -0.00  -0.01   0.00    -0.04  -0.10   0.02     0.19   0.47  -0.10
    11   6     0.02   0.02   0.02    -0.01  -0.08  -0.05    -0.00  -0.01  -0.01
    12   1     0.21  -0.25   0.03     0.17   0.27  -0.09     0.04   0.03  -0.01
    13   1    -0.22   0.19  -0.15    -0.17  -0.15   0.34    -0.04  -0.02   0.05
    14   6     0.02   0.03   0.02    -0.06  -0.07  -0.00    -0.01  -0.01  -0.00
    15   1    -0.07  -0.21   0.28    -0.06   0.31   0.07    -0.02   0.04   0.05
    16   1    -0.06   0.17  -0.28     0.33  -0.24  -0.06     0.05  -0.04  -0.01
                     22                     23                     24
                      A                      A                      A
 Frequencies --   1143.5435              1239.2254              1312.4755
 Red. masses --      1.6783                 1.5234                 1.2598
 Frc consts  --      1.2931                 1.3784                 1.2786
 IR Inten    --      0.0000                 0.0000                 0.0000
  Atom  AN      X      Y      Z        X      Y      Z        X      Y      Z
     1   6    -0.09  -0.05  -0.12     0.00  -0.00   0.00    -0.03  -0.03  -0.07
     2   6     0.11   0.05   0.11    -0.00  -0.00   0.00    -0.04  -0.01  -0.03
     3   1    -0.13  -0.52  -0.05    -0.00   0.00  -0.00     0.29   0.64  -0.20
     4   1     0.13   0.53   0.05     0.00  -0.00  -0.00    -0.08   0.51   0.09
     5   6     0.00  -0.00  -0.00     0.14  -0.06  -0.00    -0.00   0.00   0.00
     6   1    -0.00  -0.00   0.00    -0.17  -0.03  -0.46     0.00   0.00  -0.00
     7   1    -0.00   0.00   0.00    -0.09   0.14   0.45    -0.00  -0.00  -0.00
     8   6    -0.00  -0.00  -0.00    -0.14   0.06   0.00     0.00   0.00  -0.00
     9   1    -0.00   0.00  -0.00     0.17   0.03   0.45     0.00  -0.00   0.00
    10   1     0.00  -0.00  -0.00     0.09  -0.13  -0.46    -0.00  -0.01   0.00
    11   6     0.03   0.03   0.05    -0.00   0.00   0.00     0.00  -0.00   0.09
    12   1    -0.17  -0.26   0.09     0.00  -0.00   0.00    -0.13  -0.30   0.14
    13   1     0.07   0.10  -0.21     0.00  -0.00  -0.00     0.02   0.03  -0.03
    14   6    -0.05  -0.02  -0.03     0.00  -0.00   0.00     0.06  -0.01   0.02
    15   1    -0.07   0.30   0.10     0.00   0.00  -0.00     0.07  -0.21  -0.03
    16   1     0.22  -0.16  -0.01    -0.00   0.00  -0.00    -0.04   0.04   0.00
                     25                     26                     27
                      A                      A                      A
 Frequencies --   1320.4742              1376.1559              1421.3664
 Red. masses --      1.3098                 1.1682                 1.1700
 Frc consts  --      1.3456                 1.3034                 1.3927
 IR Inten    --      0.0000                 0.0000                 0.0000
  Atom  AN      X      Y      Z        X      Y      Z        X      Y      Z
     1   6    -0.00   0.02   0.06     0.00   0.00   0.00     0.04   0.07  -0.04
     2   6    -0.09  -0.02  -0.02    -0.00  -0.00  -0.00    -0.04   0.07   0.02
     3   1    -0.17  -0.41   0.15    -0.00  -0.01   0.00    -0.08  -0.15  -0.00
     4   1    -0.12   0.68   0.10    -0.00   0.02   0.00    -0.02  -0.14  -0.05
     5   6     0.00   0.00  -0.00     0.01   0.01   0.08    -0.00  -0.00   0.00
     6   1    -0.01  -0.00  -0.01     0.23   0.00   0.44     0.01   0.00   0.01
     7   1     0.00  -0.00  -0.01    -0.15   0.16   0.45    -0.00   0.00   0.01
     8   6    -0.00   0.00   0.00    -0.01  -0.02  -0.08    -0.00  -0.00  -0.00
     9   1     0.01  -0.00   0.01    -0.23  -0.00  -0.44    -0.00   0.00  -0.00
    10   1    -0.00   0.01   0.01     0.15  -0.16  -0.45     0.00   0.00  -0.00
    11   6     0.00   0.01  -0.07     0.00  -0.00  -0.00    -0.00  -0.00  -0.01
    12   1     0.11   0.27  -0.11     0.00   0.01  -0.00    -0.18  -0.43   0.06
    13   1    -0.00   0.00  -0.03    -0.00   0.00  -0.00    -0.08  -0.18   0.49
    14   6     0.09  -0.02   0.02     0.00  -0.00   0.00    -0.01  -0.00  -0.00
    15   1     0.10  -0.39  -0.05     0.00  -0.00   0.00     0.01  -0.44  -0.08
    16   1     0.00   0.02   0.01    -0.01   0.01  -0.00     0.41  -0.25   0.05
                     28                     29                     30
                      A                      A                      A
 Frequencies --   1458.4199              1459.2220              1698.9334
 Red. masses --      1.1137                 1.1980                 4.3943
 Frc consts  --      1.3956                 1.5030                 7.4730
 IR Inten    --      0.0000                 0.0000                 0.0000
  Atom  AN      X      Y      Z        X      Y      Z        X      Y      Z
     1   6    -0.00  -0.01   0.00     0.03   0.07  -0.00    -0.10  -0.20   0.15
     2   6     0.00   0.01   0.00    -0.01  -0.08  -0.01     0.12  -0.24  -0.03
     3   1     0.00   0.02  -0.00    -0.05  -0.14   0.04     0.10   0.20   0.11
     4   1     0.00  -0.02  -0.00    -0.02   0.16   0.02     0.13   0.20   0.09
     5   6    -0.01  -0.01  -0.07    -0.00  -0.00  -0.01     0.00   0.01   0.05
     6   1     0.29  -0.03   0.39     0.03  -0.01   0.04    -0.05   0.02  -0.02
     7   1    -0.23   0.18   0.40    -0.02   0.02   0.04     0.05  -0.02  -0.02
     8   6    -0.01  -0.01  -0.07    -0.00  -0.00  -0.01    -0.00  -0.01  -0.05
     9   1     0.30  -0.03   0.40     0.04  -0.00   0.05     0.05  -0.02   0.02
    10   1    -0.22   0.18   0.40    -0.03   0.02   0.05    -0.04   0.02   0.02
    11   6    -0.00  -0.00   0.00     0.01   0.02  -0.04     0.09   0.21  -0.17
    12   1     0.02   0.04  -0.00    -0.17  -0.38   0.03    -0.17  -0.32  -0.13
    13   1     0.01   0.02  -0.05    -0.05  -0.16   0.48     0.06   0.05   0.35
    14   6    -0.00   0.00  -0.00     0.03  -0.03   0.00    -0.14   0.24   0.01
    15   1    -0.00  -0.04  -0.01     0.02   0.44   0.10    -0.16  -0.33  -0.14
    16   1     0.05  -0.03   0.01    -0.46   0.26  -0.08     0.33   0.01   0.13
                     31                     32                     33
                      A                      A                      A
 Frequencies --   1708.5872              1748.2891              3143.2627
 Red. masses --      3.5728                 6.0716                 1.0746
 Frc consts  --      6.1452                10.9340                 6.2552
 IR Inten    --      0.0000                 0.0000                 0.0000
  Atom  AN      X      Y      Z        X      Y      Z        X      Y      Z
     1   6    -0.01  -0.02   0.02    -0.12  -0.33   0.15    -0.01  -0.01  -0.07
     2   6     0.01  -0.03  -0.00    -0.10   0.36   0.03     0.01   0.00   0.00
     3   1     0.01   0.02   0.01     0.08   0.23   0.08     0.07   0.13   0.83
     4   1     0.02   0.03   0.01    -0.11  -0.23  -0.06    -0.17  -0.00  -0.05
     5   6    -0.03  -0.06  -0.33    -0.00  -0.00  -0.01    -0.00  -0.00  -0.00
     6   1     0.37  -0.11   0.20     0.01  -0.00   0.01    -0.03   0.02   0.02
     7   1    -0.34   0.18   0.21    -0.01   0.01   0.01     0.03  -0.01   0.02
     8   6     0.03   0.06   0.33     0.00   0.00   0.01    -0.00  -0.00  -0.00
     9   1    -0.37   0.11  -0.20    -0.01   0.00  -0.01    -0.02   0.01   0.01
    10   1     0.33  -0.18  -0.21     0.01  -0.01  -0.01     0.02  -0.01   0.01
    11   6     0.01   0.02  -0.02     0.09   0.22  -0.18     0.01   0.02  -0.01
    12   1    -0.02  -0.03  -0.01    -0.11  -0.28  -0.15     0.02   0.04   0.29
    13   1     0.01   0.01   0.03     0.02   0.12   0.26    -0.14  -0.31  -0.13
    14   6    -0.02   0.03   0.00     0.14  -0.26  -0.01     0.01  -0.01  -0.00
    15   1    -0.02  -0.04  -0.02     0.18   0.28   0.09    -0.12   0.00  -0.03
    16   1     0.04   0.00   0.01    -0.27  -0.08  -0.06     0.06   0.12   0.04
                     34                     35                     36
                      A                      A                      A
 Frequencies --   3145.9122              3147.5622              3155.5383
 Red. masses --      1.0740                 1.0478                 1.0715
 Frc consts  --      6.2626                 6.1162                 6.2862
 IR Inten    --      0.0000                 0.0000                 0.0000
  Atom  AN      X      Y      Z        X      Y      Z        X      Y      Z
     1   6    -0.00  -0.00  -0.02     0.00   0.00   0.01    -0.00  -0.00   0.03
     2   6    -0.07  -0.00  -0.02     0.00  -0.00   0.00     0.02  -0.00   0.00
     3   1     0.02   0.04   0.25    -0.01  -0.01  -0.07    -0.03  -0.05  -0.34
     4   1     0.79  -0.00   0.22    -0.05   0.00  -0.01    -0.17   0.00  -0.04
     5   6    -0.00  -0.00  -0.00    -0.00  -0.01  -0.04     0.00   0.00   0.00
     6   1    -0.03   0.02   0.02    -0.37   0.21   0.24     0.02  -0.01  -0.02
     7   1     0.03  -0.01   0.02     0.41  -0.12   0.24    -0.03   0.01  -0.02
     8   6    -0.00  -0.00  -0.00    -0.00  -0.01  -0.04    -0.00  -0.00  -0.00
     9   1    -0.02   0.01   0.01    -0.38   0.21   0.26    -0.01   0.01   0.01
    10   1     0.02  -0.01   0.01     0.42  -0.12   0.24     0.02  -0.00   0.01
    11   6     0.00   0.00   0.00    -0.00  -0.00   0.00     0.01   0.03  -0.04
    12   1    -0.00   0.00   0.00    -0.00  -0.00  -0.01     0.05   0.08   0.64
    13   1    -0.01  -0.03  -0.01     0.01   0.02   0.01    -0.18  -0.41  -0.17
    14   6    -0.01   0.03   0.00    -0.00  -0.00  -0.00    -0.02   0.03  -0.00
    15   1     0.30  -0.01   0.08     0.00  -0.00   0.00     0.34  -0.01   0.09
    16   1    -0.17  -0.33  -0.12     0.00   0.00   0.00    -0.13  -0.24  -0.08
                     37                     38                     39
                      A                      A                      A
 Frequencies --   3158.4133              3162.2048              3224.3517
 Red. masses --      1.0778                 1.0737                 1.1143
 Frc consts  --      6.3344                 6.3260                 6.8254
 IR Inten    --      0.0000                 0.0000                 0.0000
  Atom  AN      X      Y      Z        X      Y      Z        X      Y      Z
     1   6    -0.00  -0.00  -0.02    -0.00  -0.00  -0.00     0.00  -0.00   0.00
     2   6     0.04  -0.01   0.01     0.00  -0.00   0.00    -0.00   0.00  -0.00
     3   1     0.02   0.04   0.25     0.00   0.01   0.04     0.00  -0.00  -0.00
     4   1    -0.47   0.00  -0.13    -0.01   0.00  -0.00     0.00   0.00   0.00
     5   6     0.00  -0.00  -0.00     0.00   0.01   0.05     0.06  -0.03  -0.00
     6   1    -0.02   0.01   0.01     0.39  -0.22  -0.26    -0.37   0.21   0.26
     7   1     0.01  -0.00   0.01    -0.41   0.11  -0.24    -0.41   0.11  -0.25
     8   6     0.00   0.00   0.00    -0.01  -0.01  -0.05    -0.06   0.03   0.00
     9   1     0.02  -0.01  -0.02    -0.36   0.20   0.24     0.36  -0.21  -0.26
    10   1    -0.03   0.01  -0.02     0.42  -0.12   0.25     0.42  -0.11   0.25
    11   6    -0.01  -0.02   0.02    -0.00  -0.00   0.00    -0.00  -0.00  -0.00
    12   1    -0.02  -0.04  -0.32    -0.00  -0.00  -0.04     0.00   0.00   0.00
    13   1     0.09   0.20   0.08     0.01   0.03   0.01     0.00   0.01   0.00
    14   6    -0.04   0.04  -0.00    -0.00   0.00   0.00    -0.00  -0.00  -0.00
    15   1     0.56  -0.02   0.15     0.01  -0.00   0.00     0.00  -0.00   0.00
    16   1    -0.19  -0.37  -0.13    -0.00  -0.01  -0.00     0.00   0.01   0.00
                     40                     41                     42
                      A                      A                      A
 Frequencies --   3238.9436              3241.2243              3248.1153
 Red. masses --      1.1164                 1.1168                 1.1181
 Frc consts  --      6.9007                 6.9124                 6.9499
 IR Inten    --      0.0000                 0.0000                 0.0000
  Atom  AN      X      Y      Z        X      Y      Z        X      Y      Z
     1   6    -0.00  -0.00  -0.01     0.00   0.00   0.00    -0.00   0.00  -0.00
     2   6     0.00   0.00   0.00    -0.01   0.00  -0.00     0.00   0.00   0.00
     3   1     0.01   0.02   0.11    -0.00   0.00  -0.00     0.00   0.00   0.00
     4   1    -0.00   0.00  -0.00     0.11  -0.00   0.03    -0.00   0.00  -0.00
     5   6    -0.00   0.00   0.00    -0.00   0.00   0.00    -0.07   0.03  -0.00
     6   1     0.00  -0.00  -0.00     0.02  -0.01  -0.01     0.35  -0.20  -0.25
     7   1     0.00  -0.00   0.00     0.02  -0.00   0.01     0.42  -0.12   0.26
     8   6     0.00  -0.00   0.00    -0.00   0.00   0.00    -0.07   0.03   0.00
     9   1     0.00  -0.00  -0.00     0.01  -0.00  -0.01     0.38  -0.22  -0.27
    10   1    -0.00   0.00  -0.00     0.01  -0.00   0.00     0.40  -0.11   0.25
    11   6    -0.03  -0.06  -0.07    -0.00  -0.00  -0.00     0.00   0.00   0.00
    12   1     0.04   0.06   0.62     0.00   0.00   0.01    -0.00  -0.00  -0.00
    13   1     0.29   0.66   0.26     0.00   0.01   0.00    -0.00  -0.00  -0.00
    14   6     0.00   0.00   0.00    -0.08  -0.05  -0.03     0.00   0.00   0.00
    15   1    -0.01   0.00  -0.00     0.62  -0.03   0.17    -0.02   0.00  -0.01
    16   1    -0.00  -0.01  -0.00     0.32   0.64   0.22    -0.01  -0.02  -0.01

 -------------------
 - Thermochemistry -
 -------------------
 Temperature   298.150 Kelvin.  Pressure   1.00000 Atm.
 Atom     1 has atomic number  6 and mass  12.00000
 Atom     2 has atomic number  6 and mass  12.00000
 Atom     3 has atomic number  1 and mass   1.00783
 Atom     4 has atomic number  1 and mass   1.00783
 Atom     5 has atomic number  6 and mass  12.00000
 Atom     6 has atomic number  1 and mass   1.00783
 Atom     7 has atomic number  1 and mass   1.00783
 Atom     8 has atomic number  6 and mass  12.00000
 Atom     9 has atomic number  1 and mass   1.00783
 Atom    10 has atomic number  1 and mass   1.00783
 Atom    11 has atomic number  6 and mass  12.00000
 Atom    12 has atomic number  1 and mass   1.00783
 Atom    13 has atomic number  1 and mass   1.00783
 Atom    14 has atomic number  6 and mass  12.00000
 Atom    15 has atomic number  1 and mass   1.00783
 Atom    16 has atomic number  1 and mass   1.00783
 Molecular mass:    82.07825 amu.
 Principal axes and moments of inertia in atomic units:
                           1         2         3
     Eigenvalues --   449.622621041.528361314.09737
           X            0.99999   0.00016   0.00526
           Y           -0.00021   0.99995   0.00955
           Z           -0.00526  -0.00955   0.99994
 This molecule is an asymmetric top.
 Rotational symmetry number  1.
 Warning -- assumption of classical behavior for rotation
           may cause significant error
 Rotational temperatures (Kelvin)      0.19264     0.08316     0.06591
 Rotational constants (GHZ):           4.01390     1.73278     1.37337
    1 imaginary frequencies ignored.
 Zero-point vibrational energy     359150.7 (Joules/Mol)
                                   85.83907 (Kcal/Mol)
 Warning -- explicit consideration of   8 degrees of freedom as
           vibrations may cause significant error
 Vibrational temperatures:     43.10    75.54    90.57    98.31   123.67
          (Kelvin)            172.38   478.25   515.04   949.54  1017.14
                             1189.53  1270.25  1398.48  1407.33  1413.27
                             1438.66  1465.24  1477.88  1527.80  1535.01
                             1645.30  1782.97  1888.36  1899.87  1979.98
                             2045.03  2098.34  2099.50  2444.39  2458.28
                             2515.40  4522.45  4526.27  4528.64  4540.12
                             4544.25  4549.71  4639.12  4660.12  4663.40
                             4673.31
 
 Zero-point correction=                           0.136793 (Hartree/Particle)
 Thermal correction to Energy=                    0.145871
 Thermal correction to Enthalpy=                  0.146815
 Thermal correction to Gibbs Free Energy=         0.100578
 Sum of electronic and zero-point Energies=           -234.386440
 Sum of electronic and thermal Energies=              -234.377362
 Sum of electronic and thermal Enthalpies=            -234.376418
 Sum of electronic and thermal Free Energies=         -234.422655
 
                     E (Thermal)             CV                S
                      KCal/Mol        Cal/Mol-Kelvin    Cal/Mol-Kelvin
 Total                   91.535             27.890             97.314
 Electronic               0.000              0.000              0.000
 Translational            0.889              2.981             39.129
 Rotational               0.889              2.981             27.911
 Vibrational             89.758             21.929             30.273
 Vibration     1          0.594              1.984              5.832
 Vibration     2          0.596              1.977              4.721
 Vibration     3          0.597              1.972              4.363
 Vibration     4          0.598              1.969              4.201
 Vibration     5          0.601              1.959              3.750
 Vibration     6          0.609              1.933              3.103
 Vibration     7          0.714              1.611              1.248
 Vibration     8          0.733              1.559              1.131
                       Q            Log10(Q)             Ln(Q)
 Total Bot       0.546278D-46        -46.262586       -106.523542
 Total V=0       0.454872D+17         16.657889         38.356207
 Vib (Bot)       0.665578D-59        -59.176801       -136.259621
 Vib (Bot)    1  0.691166D+01          0.839583          1.933211
 Vib (Bot)    2  0.393629D+01          0.595087          1.370239
 Vib (Bot)    3  0.327931D+01          0.515782          1.187633
 Vib (Bot)    4  0.301915D+01          0.479885          1.104977
 Vib (Bot)    5  0.239375D+01          0.379078          0.872859
 Vib (Bot)    6  0.170571D+01          0.231905          0.533982
 Vib (Bot)    7  0.561285D+00         -0.250816         -0.577526
 Vib (Bot)    8  0.512718D+00         -0.290122         -0.668030
 Vib (V=0)       0.554209D+04          3.743674          8.620128
 Vib (V=0)    1  0.742973D+01          0.870973          2.005489
 Vib (V=0)    2  0.446792D+01          0.650105          1.496923
 Vib (V=0)    3  0.381721D+01          0.581746          1.339519
 Vib (V=0)    4  0.356028D+01          0.551484          1.269838
 Vib (V=0)    5  0.294541D+01          0.469145          1.080247
 Vib (V=0)    6  0.227748D+01          0.357455          0.823071
 Vib (V=0)    7  0.125169D+01          0.097498          0.224496
 Vib (V=0)    8  0.121616D+01          0.084989          0.195695
 Electronic      0.100000D+01          0.000000          0.000000
 Translational   0.292278D+08          7.465796         17.190631
 Rotational      0.280814D+06          5.448419         12.545448
 ***** Axes restored to original set *****
 -------------------------------------------------------------------
 Center     Atomic                   Forces (Hartrees/Bohr)
 Number     Number              X              Y              Z
 -------------------------------------------------------------------
      1        6          -0.000000081    0.000001953   -0.000005646
      2        6           0.000000309    0.000000756   -0.000002370
      3        1          -0.000000013    0.000000734   -0.000000195
      4        1          -0.000000044    0.000000448    0.000000106
      5        6           0.000003564   -0.000000063   -0.000002144
      6        1           0.000003763    0.000001714    0.000001962
      7        1          -0.000000233   -0.000000344    0.000000419
      8        6          -0.000004931    0.000001132    0.000002483
      9        1          -0.000002070   -0.000002167   -0.000003084
     10        1          -0.000000154   -0.000000087    0.000000944
     11        6           0.000001136   -0.000000423   -0.000000752
     12        1          -0.000003276   -0.000002801    0.000002942
     13        1          -0.000000382    0.000000098   -0.000000663
     14        6          -0.000000167   -0.000000158    0.000002336
     15        1           0.000003102   -0.000000982    0.000003581
     16        1          -0.000000523    0.000000188    0.000000080
 -------------------------------------------------------------------
 Cartesian Forces:  Max     0.000005646 RMS     0.000001998
 Red2BG is reusing G-inverse.
 Leave Link  716 at Mon Oct  6 14:28:46 2025, MaxMem=   104857600 cpu:               0.0 elap:               0.0
 (Enter /home/zhouoh/g16/l9999.exe)
 1\1\GINC-ZHOUOH-B650M\Freq\RExternal='python ../GauUMA_client.py'\ZDO\
 C6H10\ZHOUOH\06-Oct-2025\0\\#p opt=(nomicro,ts,noeigen,calcall) extern
 al='python ../GauUMA_client.py'\\UMA NEB DFT Confirmation\\0,1\C,-0.99
 15322836,-0.9818752922,-1.2510838703\C,-0.0629955254,-1.9846945761,-0.
 6719005225\H,-2.0522577236,-1.1391311044,-1.0726041059\H,0.3093869672,
 -2.7501647607,-1.3474719691\C,-1.2787105268,1.6291640398,1.5326956697\
 H,-1.8789879842,1.0462178077,0.8447149573\H,-1.7880360396,2.0747935556
 ,2.3781210657\C,0.0205532549,1.7869510413,1.3410763711\H,0.6290608121,
 2.3692346892,2.0218889355\H,0.5207698455,1.334202506,0.4935006669\C,-0
 .6051148447,0.0624002082,-1.969366415\H,0.4427139019,0.2487947688,-2.1
 746760477\H,-1.3223591818,0.7660397249,-2.3713666474\C,0.3132631577,-1
 .9995402127,0.5984850168\H,-0.0384763559,-1.2530212993,1.3008560028\H,
 0.9907959263,-2.7563561263,0.971904242\\Version=ES64L-G16RevA.03\HF=-2
 34.5232329\RMSD=0.000e+00\RMSF=1.998e-06\ZeroPoint=0.1367933\Thermal=0
 .1458705\Dipole=0.,0.,0.\PG=C01 [X(C6H10)]\NImag=1\\0.61213049,0.06060
 186,0.61045665,-0.07906481,-0.30811937,0.36679115,-0.14883965,0.074924
 14,-0.03539750,0.33509617,0.07153991,-0.15413567,0.04141963,-0.1909924
 5,0.43185581,-0.03686732,0.04162163,-0.10465693,0.13580749,0.06756133,
 0.82119022,-0.31475361,-0.03968832,0.04633406,-0.01442397,-0.00134623,
 0.00159334,0.33529124,-0.03244543,-0.05413354,0.01139573,0.01975817,0.
 00523669,-0.00006983,0.04043823,0.05312568,0.04160907,0.01206586,-0.05
 059092,-0.01174147,0.00025001,0.00516268,-0.04927502,-0.02216677,0.041
 78755,-0.00218420,0.01469211,0.00896953,-0.07841398,0.07495450,0.05927
 731,-0.00127824,-0.00011977,-0.00120856,0.07105818,0.00810401,-0.01126
 194,-0.01060427,0.07290700,-0.18552043,-0.12466558,0.00067207,-0.00178
 030,-0.00005016,-0.08602782,0.19059175,-0.00469011,0.00940577,0.009098
 07,0.05401296,-0.11814636,-0.15592624,-0.00068595,0.00003738,-0.000280
 98,-0.05683302,0.13294787,0.16911388,-0.00005226,-0.00019909,0.0004625
 9,0.00027468,-0.00033730,-0.00000327,-0.00020133,-0.00011463,-0.000188
 74,-0.00004324,0.00008070,-0.00009598,0.85279006,0.00008921,-0.0000834
 0,-0.00008606,0.00019595,-0.00036495,-0.00003333,-0.00007454,-0.000040
 31,-0.00001866,-0.00002030,0.00007386,-0.00013104,0.10404153,0.2880549
 1,0.00028809,0.00015024,-0.00039502,-0.00006466,-0.00004969,0.00008993
 ,-0.00015226,-0.00006136,-0.00002400,0.00008359,0.00003146,0.00006251,
 -0.08669510,0.22957128,0.49122287,0.00024366,0.00026898,-0.00044831,-0
 .00012166,0.00012993,-0.00006578,0.00008138,-0.00001520,0.00005013,0.0
 0002321,-0.00004898,0.00000505,-0.13806869,-0.08363741,-0.09429505,0.1
 4650771,0.00037390,-0.00006962,-0.00016281,-0.00005870,-0.00004760,0.0
 0006432,-0.00018667,-0.00011893,-0.00017119,0.00000746,-0.00000715,0.0
 0003503,-0.08645160,-0.12656091,-0.10602978,0.09578657,0.12293229,0.00
 011629,-0.00033145,0.00005200,0.00002514,-0.00007493,0.00006064,-0.000
 08227,-0.00013285,-0.00002706,-0.00008656,0.00001876,-0.00006832,-0.09
 885251,-0.10724771,-0.16832216,0.10576520,0.11720992,0.16841021,0.0000
 4699,-0.00000036,-0.00015324,-0.00002416,0.00005423,-0.00006114,0.0000
 7566,0.00005173,0.00003775,-0.00000276,-0.00002300,0.00000958,-0.11460
 466,0.04951176,0.10057186,0.00941160,-0.00672926,-0.01228353,0.1197939
 3,-0.00002228,0.00007297,-0.00015653,-0.00006284,0.00009049,-0.0000303
 6,0.00007509,0.00003693,0.00004431,0.00001827,-0.00003083,0.00001955,0
 .05226540,-0.09378511,-0.10231006,0.00747131,-0.00264741,-0.01085266,-
 0.05535628,0.08604341,0.00007331,0.00009829,-0.00026939,-0.00003704,0.
 00003041,-0.00000347,0.00007444,0.00005715,0.00006596,0.00002538,-0.00
 002227,0.00000039,0.10484085,-0.10127700,-0.22643722,0.00925276,-0.006
 23305,-0.00954532,-0.11556945,0.11160035,0.23237546,-0.00031683,0.0001
 6082,-0.00031815,-0.00030368,0.00051883,0.00000012,0.00003817,-0.00000
 198,0.00010526,0.00008672,-0.00006616,0.00014418,-0.57390783,-0.065027
 05,0.07492425,-0.01466004,-0.00228078,0.00372093,-0.01134542,-0.003549
 09,0.00059868,0.85346049,0.00002947,-0.00003746,-0.00005770,0.00020668
 ,-0.00017761,-0.00001192,0.00004900,0.00012545,0.00002281,-0.00000419,
 0.00005977,-0.00013614,-0.06562075,-0.07794567,-0.01845470,-0.01901770
 ,0.00344922,0.00149094,0.01415260,0.00726986,-0.00377954,0.10608633,0.
 29030683,-0.00013801,0.00009617,-0.00041816,0.00001007,0.00020638,-0.0
 0010181,0.00014517,0.00003446,0.00004059,-0.00005538,-0.00006467,0.000
 05743,0.07380280,-0.01849265,-0.10433546,-0.02178893,-0.00419150,0.007
 57513,0.02737463,0.00213966,0.00078193,-0.08368256,0.22987380,0.489608
 08,0.00000653,-0.00002414,0.00006463,0.00002113,-0.00001826,0.00001378
 ,0.00006131,0.00004289,0.00002368,-0.00001810,-0.00000646,-0.00000895,
 -0.01427873,-0.01904106,-0.02190649,-0.00434395,-0.00196270,0.00264914
 ,0.00106545,0.00170565,-0.00073501,-0.14074018,-0.08494864,-0.09468187
 ,0.14877485,0.,0.00004951,-0.00016296,-0.00006986,0.00012382,-0.000024
 11,0.00000747,0.00000921,0.00002495,0.00003785,-0.00001241,0.00002293,
 -0.00135186,0.00355243,-0.00428597,-0.00205626,0.00892806,-0.00479782,
 0.00132528,-0.00557133,0.00458142,-0.08774797,-0.12708610,-0.10590820,
 0.09701477,0.12290781,-0.00006632,0.00007729,-0.00014228,-0.00001842,0
 .00003886,0.00000119,-0.00000206,-0.00000025,0.00002449,0.00003884,-0.
 00001732,0.00000045,0.00494045,0.00154792,0.00745142,0.00245101,-0.004
 88906,0.00435995,-0.00127818,0.00445157,-0.00172530,-0.09903911,-0.106
 80140,-0.16702975,0.10590233,0.11671628,0.16635025,-0.00006880,-0.0001
 8589,0.00042585,0.00008218,-0.00023431,0.00014503,-0.00000581,0.000000
 60,-0.00004101,-0.00007049,0.00005107,-0.00002959,-0.01144447,0.014025
 76,0.02718728,0.00102739,0.00143442,-0.00104946,-0.00447318,-0.0026722
 2,0.00148713,-0.11232901,0.04935653,0.09904608,0.00939058,-0.00711124,
 -0.01281504,0.11775006,-0.00038820,-0.00015482,0.00010793,-0.00003041,
 -0.00000406,-0.00016291,0.00003489,-0.00001881,0.00004281,0.00004929,0
 .00002443,0.00004535,-0.00282887,0.00735083,0.00202087,0.00151400,-0.0
 0578695,0.00422452,-0.00286862,0.00865033,-0.00480768,0.05240016,-0.09
 501912,-0.10314265,0.00713652,-0.00262520,-0.01092745,-0.05515187,0.08
 770419,0.00003135,-0.00036803,0.00028648,0.00005000,-0.00014877,-0.000
 03285,-0.00003675,0.00010173,-0.00003895,0.00003346,0.00011692,-0.0000
 9727,0.00171711,-0.00364498,0.00073219,-0.00097529,0.00429036,-0.00213
 790,0.00131939,-0.00491543,0.00472284,0.10340681,-0.10193171,-0.226276
 34,0.00870488,-0.00619426,-0.00930824,-0.11407497,0.11248736,0.2328579
 3,-0.15020220,-0.10641585,0.07908764,0.01113678,0.01850749,-0.01341328
 ,-0.00752743,-0.02694100,0.01913347,-0.00123158,0.00149104,-0.00061786
 ,-0.00047638,0.00002225,0.00001060,-0.00010835,-0.00007068,0.00031089,
 -0.00000680,0.00004352,-0.00000264,0.00017906,-0.00029411,-0.00037352,
 0.00002571,-0.00003111,-0.00002172,0.00018369,0.00008772,-0.00028244,0
 .65927721,-0.11108362,-0.38346201,0.22525584,-0.00135002,-0.01841038,0
 .01868937,-0.00016588,-0.00005029,0.00553672,0.00001364,0.00079110,0.0
 0025029,0.00038066,-0.00010125,-0.00043758,-0.00053122,-0.00005644,0.0
 0027207,-0.00009094,-0.00010766,-0.00025588,-0.00053704,-0.00003502,-0
 .00038584,0.00012632,-0.00018862,-0.00026475,0.00056134,-0.00007815,0.
 00013418,0.02948192,0.62821441,0.08123956,0.22431843,-0.20732147,0.000
 33940,0.01498928,-0.00489259,0.00118857,0.00770495,0.00353255,0.000578
 60,0.00110728,-0.00030766,0.00001550,-0.00005715,-0.00005598,-0.000041
 33,-0.00013778,-0.00014234,-0.00001593,0.00000564,-0.00002593,0.000071
 75,-0.00009298,-0.00011554,0.00000351,-0.00002725,-0.00004336,-0.00016
 419,-0.00012119,-0.00026290,-0.06362757,-0.34022115,0.33916289,-0.0065
 4194,-0.00019346,0.00100788,0.00076795,0.00068836,-0.00121972,0.001100
 42,-0.00084474,0.00137829,0.00018236,-0.00045162,0.00032252,-0.0000273
 4,-0.00007832,-0.00011628,0.00000894,0.00001909,-0.00001700,0.00005614
 ,0.00000477,0.00001464,-0.00014700,0.00013337,0.00009516,0.00005969,-0
 .00004077,-0.00007268,0.00009970,-0.00001800,0.00014914,-0.32110084,-0
 .04448335,0.05174614,0.33830274,-0.02611574,0.00034434,0.00664037,-0.0
 0079187,-0.00110182,-0.00482224,-0.00081399,0.00033433,0.00773616,0.00
 045538,-0.00079694,0.00019751,0.00004403,0.00005574,0.00004959,0.00000
 210,-0.00008112,0.00000405,-0.00003423,0.00000414,-0.00000700,0.000070
 07,-0.00006104,0.00002421,-0.00002551,0.00001673,0.00003841,-0.0000385
 4,0.00008353,-0.00015613,-0.04012481,-0.05840906,0.01687683,0.05027633
 ,0.05330967,0.01757714,0.00467020,0.00291099,0.00018430,-0.00469382,-0
 .00479358,0.00135330,0.00776274,0.00688397,0.00079613,-0.00056953,0.00
 021525,-0.00000112,0.00007256,0.00010882,-0.00001570,-0.00000041,-0.00
 000408,-0.00006821,-0.00001374,0.00000259,0.00017306,-0.00005526,-0.00
 010312,-0.00005906,0.00005208,0.00009611,0.00001655,-0.00011206,-0.000
 28611,0.04909660,0.01663612,-0.05250481,-0.05793100,-0.02290833,0.0438
 4242,0.00932308,-0.00905272,0.00547780,0.00005506,-0.00067517,0.001027
 87,0.00123800,-0.00015037,-0.00075245,0.00003927,-0.00019153,0.0000561
 5,0.00008204,-0.00005214,0.00002267,0.00005519,0.00006001,-0.00007131,
 0.00002076,0.00001401,0.00001513,-0.00009303,-0.00005483,0.00009168,-0
 .00000038,-0.00000416,-0.00001363,-0.00008691,0.00011935,0.00000405,-0
 .18709287,0.12721799,-0.07070372,-0.01304417,0.01733923,-0.01009173,0.
 18890846,0.01905148,-0.01239529,0.00942774,-0.00304573,0.00243402,0.00
 746970,-0.00044044,-0.00180344,-0.00445289,-0.00041898,0.00041202,-0.0
 0048747,-0.00000144,0.00002307,0.00005533,0.00005535,0.00003837,0.0000
 5291,-0.00000293,0.00000094,0.00000379,0.00000374,-0.00006726,-0.00003
 036,-0.00000885,0.00000415,0.00000861,-0.00004257,0.00004983,0.0000681
 8,0.12225015,-0.16740021,0.07620889,-0.00465622,0.00568228,-0.00158594
 ,-0.13441116,0.17450404,-0.01217658,0.01254845,-0.00227789,0.00195155,
 0.00667504,0.00813901,-0.00041391,-0.00446940,-0.00570140,-0.00125480,
 0.00119285,-0.00075343,-0.00013411,-0.00021507,0.00005802,0.00008622,0
 .00022125,-0.00015872,0.00005474,0.00004586,0.00006256,0.00004415,-0.0
 0010479,0.00006889,0.00001431,0.00002749,0.00000967,-0.00007084,0.0001
 1696,-0.00007255,-0.06780397,0.07608664,-0.07950288,0.00431591,-0.0034
 1094,0.00452928,0.07451470,-0.08759460,0.07523066,-0.00294379,0.004822
 99,-0.02402300,-0.11300802,0.02447230,-0.13763904,0.00027659,0.0008822
 5,0.00046374,0.00944125,0.00298372,0.01076238,-0.00012042,-0.00027303,
 -0.00009894,0.00007314,-0.00000457,0.00002936,0.00006176,0.00011217,-0
 .00004706,0.00026451,-0.00024367,0.00050562,0.00000963,0.00003909,-0.0
 0004309,-0.00008578,0.00017942,-0.00038322,-0.00220766,0.00011271,-0.0
 0040288,0.00037426,-0.00011718,-0.00097365,0.00055124,0.00131245,0.000
 62647,0.34074217,0.00897301,0.00213965,0.02537277,0.02627569,-0.088694
 87,-0.00416805,0.00150815,-0.00076779,0.00124316,-0.00410976,0.0046840
 9,-0.02495490,-0.00001245,0.00012599,-0.00031009,0.00006702,-0.0000777
 9,0.00022578,0.00004358,-0.00004875,0.00000818,-0.00007269,-0.00006045
 ,-0.00000287,0.00002998,-0.00008574,0.00001680,0.00001243,-0.00008757,
 0.00007363,0.00264403,-0.00120645,-0.00029692,-0.00029041,0.00062628,0
 .00062710,-0.00015572,-0.00163237,-0.00099441,-0.24464652,0.46389461,-
 0.00840015,0.00686910,-0.01150683,-0.13395840,-0.00796781,-0.54024399,
 0.00068392,-0.00066335,-0.00028478,-0.00822858,0.00043445,-0.01810373,
 0.00016457,0.00033685,-0.00019912,0.00022477,-0.00017453,0.00014806,0.
 00003296,0.00009313,0.00006369,-0.00024704,0.00037725,0.00007383,-0.00
 000443,0.00011702,0.00003192,-0.00018607,-0.00008191,0.00025419,-0.000
 80163,-0.00257244,0.00267461,0.00020430,-0.00011569,-0.00063409,0.0002
 7663,0.00047760,0.00031940,0.15695412,0.06713039,0.82403266,-0.0046884
 2,-0.00420812,0.00162091,0.00913879,-0.00510392,-0.00768542,-0.0007698
 7,0.00056730,-0.00021910,0.00726950,0.00508090,-0.00395846,0.00006204,
 0.00027997,0.00027308,-0.00016638,0.00006724,-0.00020137,-0.00007054,-
 0.00005920,0.00000313,-0.00012194,0.00015091,-0.00033887,-0.00004480,-
 0.00003278,0.00002734,0.00003304,-0.00022984,0.00029402,0.00077296,-0.
 00070174,0.00053373,0.00002218,-0.00014160,-0.00004858,-0.00006299,-0.
 00009298,0.00023277,-0.07735101,0.07453007,0.05734710,0.06822175,-0.00
 388768,-0.00210344,0.00159589,0.00200245,0.00493475,0.00101679,-0.0006
 4793,0.00065187,-0.00040401,0.00498249,0.00494291,-0.00071598,0.000215
 24,-0.00023384,-0.00001605,0.00008351,0.00005966,0.00000243,-0.0000257
 2,0.00005661,0.00002638,-0.00008305,-0.00058728,-0.00014932,-0.0000352
 8,0.00003556,0.00003630,-0.00010349,-0.00015713,0.00014571,0.00019072,
 -0.00039909,0.00014269,0.00003444,-0.00002423,0.00003453,0.00000217,-0
 .00011092,0.00002474,0.07339070,-0.18673392,-0.12990455,-0.08109644,0.
 18830336,0.00244049,0.00010035,0.00139926,0.01020882,-0.02299228,-0.01
 608748,-0.00004698,-0.00014570,-0.00028583,-0.00394096,-0.00108135,-0.
 00373918,0.00013412,-0.00014339,-0.00003517,-0.00014610,0.00011786,-0.
 00008028,0.00002233,-0.00010730,-0.00006315,-0.00008368,-0.00022055,0.
 00014432,0.00001568,-0.00012962,-0.00008132,0.00011922,0.00024768,-0.0
 0021361,-0.00024781,0.00076056,-0.00011122,-0.00000038,-0.00002740,-0.
 00002074,0.00000921,0.00004188,-0.00014839,0.05486620,-0.12494880,-0.1
 7072503,-0.05925782,0.14068172,0.18117661,0.00883969,0.00449776,-0.004
 04705,-0.00143712,0.00784784,-0.00090511,0.00077727,-0.00110095,0.0006
 3844,-0.00485905,-0.00455431,0.00160093,0.00001549,0.00003582,-0.00003
 443,0.00002314,-0.00001005,0.00002118,-0.00000286,0.00002107,0.0000220
 0,-0.00006410,0.00001190,-0.00002420,0.00001040,0.00001091,0.00000122,
 -0.00000052,-0.00001855,0.00002983,-0.00161324,0.00103875,-0.00076731,
 -0.00011537,0.00001361,-0.00000857,0.00009576,0.00047393,0.00001189,-0
 .15607912,0.13521340,-0.06404204,-0.00224564,0.00497846,-0.00408981,0.
 15666548,0.00518175,0.00477052,-0.00186176,0.00013651,0.00376731,-0.00
 243354,0.00057144,-0.00080837,0.00030378,-0.00450471,-0.00217729,0.001
 60171,-0.00009616,-0.00011852,0.00007092,-0.00007024,0.00005216,-0.000
 05548,-0.00000444,-0.00003464,-0.00002026,0.00009403,-0.00013816,0.000
 00990,0.00000910,-0.00006899,-0.00004557,0.00008853,0.00006951,-0.0000
 4838,-0.00083897,0.00089167,-0.00040166,-0.00009862,0.00001441,0.00008
 572,0.00001222,0.00024261,-0.00014844,0.13699619,-0.19208711,0.0656707
 7,0.01099032,-0.00863822,0.00784656,-0.14847180,0.19427147,-0.00197302
 ,-0.00320546,-0.00295543,-0.02135001,0.02291155,-0.00791174,-0.0006716
 2,0.00061548,-0.00026378,0.00180919,0.00121216,0.00071676,-0.00009035,
 -0.00017652,0.00007441,-0.00005206,0.00006323,-0.00011070,0.00000497,-
 0.00001383,-0.00001068,0.00014748,-0.00012418,0.00004296,-0.00000180,-
 0.00001922,-0.00000264,-0.00000518,0.00007413,-0.00011066,-0.00043859,
 0.00052478,-0.00006722,0.00012014,-0.00011684,-0.00024455,0.00013192,0
 .00034230,0.00020251,-0.06060388,0.06100459,-0.08586987,0.01137675,-0.
 01251325,0.00887343,0.07160826,-0.07058855,0.08765108\\0.00000008,-0.0
 0000195,0.00000565,-0.00000031,-0.00000076,0.00000237,0.00000001,-0.00
 000073,0.00000019,0.00000004,-0.00000045,-0.00000011,-0.00000356,0.000
 00006,0.00000214,-0.00000376,-0.00000171,-0.00000196,0.00000023,0.0000
 0034,-0.00000042,0.00000493,-0.00000113,-0.00000248,0.00000207,0.00000
 217,0.00000308,0.00000015,0.00000009,-0.00000094,-0.00000114,0.0000004
 2,0.00000075,0.00000328,0.00000280,-0.00000294,0.00000038,-0.00000010,
 0.00000066,0.00000017,0.00000016,-0.00000234,-0.00000310,0.00000098,-0
 .00000358,0.00000052,-0.00000019,-0.00000008\\\@


 GROWING OLD ISN'T SO BAD -- WHEN YOU CONSIDER THE ALTERNATIVE.

                     -- MAURICE CHEVALIER
 Job cpu time:       0 days  0 hours  0 minutes  1.7 seconds.
 Elapsed time:       0 days  0 hours  0 minutes 46.5 seconds.
 File lengths (MBytes):  RWF=      6 Int=      0 D2E=      0 Chk=      1 Scr=      1
 Normal termination of Gaussian 16 at Mon Oct  6 14:28:47 2025.
