 Entering Gaussian System, Link 0=g16
 Input=IM4R_TS_IRC.gjf
 Output=IM4R_TS_IRC.log
 Initial command:
 /home/zhouoh/g16/l1.exe "/home/zhouoh/scratch/Gau-2814880.inp" -scrdir="/home/zhouoh/scratch/"
 Entering Link 1 = /home/zhouoh/g16/l1.exe PID=   2814882.
  
 Copyright (c) 1988,1990,1992,1993,1995,1998,2003,2009,2016,
            Gaussian, Inc.  All Rights Reserved.
  
 This is part of the Gaussian(R) 16 program.  It is based on
 the Gaussian(R) 09 system (copyright 2009, Gaussian, Inc.),
 the Gaussian(R) 03 system (copyright 2003, Gaussian, Inc.),
 the Gaussian(R) 98 system (copyright 1998, Gaussian, Inc.),
 the Gaussian(R) 94 system (copyright 1995, Gaussian, Inc.),
 the Gaussian 92(TM) system (copyright 1992, Gaussian, Inc.),
 the Gaussian 90(TM) system (copyright 1990, Gaussian, Inc.),
 the Gaussian 88(TM) system (copyright 1988, Gaussian, Inc.),
 the Gaussian 86(TM) system (copyright 1986, Carnegie Mellon
 University), and the Gaussian 82(TM) system (copyright 1983,
 Carnegie Mellon University). Gaussian is a federally registered
 trademark of Gaussian, Inc.
  
 This software contains proprietary and confidential information,
 including trade secrets, belonging to Gaussian, Inc.
  
 This software is provided under written license and may be
 used, copied, transmitted, or stored only in accord with that
 written license.
  
 The following legend is applicable only to US Government
 contracts under FAR:
  
                    RESTRICTED RIGHTS LEGEND
  
 Use, reproduction and disclosure by the US Government is
 subject to restrictions as set forth in subparagraphs (a)
 and (c) of the Commercial Computer Software - Restricted
 Rights clause in FAR 52.227-19.
  
 Gaussian, Inc.
 340 Quinnipiac St., Bldg. 40, Wallingford CT 06492
  
  
 ---------------------------------------------------------------
 Warning -- This program may not be used in any manner that
 competes with the business of Gaussian, Inc. or will provide
 assistance to any competitor of Gaussian, Inc.  The licensee
 of this program is prohibited from giving any competitor of
 Gaussian, Inc. access to this program.  By using this program,
 the user acknowledges that Gaussian, Inc. is engaged in the
 business of creating and licensing software in the field of
 computational chemistry and represents and warrants to the
 licensee that it is not a competitor of Gaussian, Inc. and that
 it will not use this program in any manner prohibited above.
 ---------------------------------------------------------------
  

 Cite this work as:
 Gaussian 16, Revision A.03,
 M. J. Frisch, G. W. Trucks, H. B. Schlegel, G. E. Scuseria, 
 M. A. Robb, J. R. Cheeseman, G. Scalmani, V. Barone, 
 G. A. Petersson, H. Nakatsuji, X. Li, M. Caricato, A. V. Marenich, 
 J. Bloino, B. G. Janesko, R. Gomperts, B. Mennucci, H. P. Hratchian, 
 J. V. Ortiz, A. F. Izmaylov, J. L. Sonnenberg, D. Williams-Young, 
 F. Ding, F. Lipparini, F. Egidi, J. Goings, B. Peng, A. Petrone, 
 T. Henderson, D. Ranasinghe, V. G. Zakrzewski, J. Gao, N. Rega, 
 G. Zheng, W. Liang, M. Hada, M. Ehara, K. Toyota, R. Fukuda, 
 J. Hasegawa, M. Ishida, T. Nakajima, Y. Honda, O. Kitao, H. Nakai, 
 T. Vreven, K. Throssell, J. A. Montgomery, Jr., J. E. Peralta, 
 F. Ogliaro, M. J. Bearpark, J. J. Heyd, E. N. Brothers, K. N. Kudin, 
 V. N. Staroverov, T. A. Keith, R. Kobayashi, J. Normand, 
 K. Raghavachari, A. P. Rendell, J. C. Burant, S. S. Iyengar, 
 J. Tomasi, M. Cossi, J. M. Millam, M. Klene, C. Adamo, R. Cammi, 
 J. W. Ochterski, R. L. Martin, K. Morokuma, O. Farkas, 
 J. B. Foresman, and D. J. Fox, Gaussian, Inc., Wallingford CT, 2016.
 
 ******************************************
 Gaussian 16:  ES64L-G16RevA.03 25-Dec-2016
                 6-Oct-2025 
 ******************************************
 %nproc=1
 Will use up to    1 processors via shared memory.
 ---------------------------------------------------------
 #P irc=(lqa,calcfc) external='python ../GauUMA_client.py'
 ---------------------------------------------------------
 1/10=4,18=10,26=1,38=1,44=3,45=2,172=1/1,23;
 2/12=2,17=6,18=5,29=1,40=1/2;
 3/11=9,25=1,30=1,41=9900000,43=2,71=2,140=1/1;
 4/20=17,22=2,24=3,113=1,114=1/2;
 6/7=2,8=2,9=2,10=2/1;
 7/25=1,44=-1/16;
 1/10=4,18=10,26=1,44=3,45=2/23(2);
 2/29=1/2;
 99/5=20/99;
 2/29=1/2;
 3/11=9,25=1,30=1,41=9900000,43=2,71=2,140=1/1;
 4/16=2,20=17,22=2,24=3,113=1,114=1/2;
 7/44=-1/16;
 1/18=10,26=1,44=3,45=2/23(-4);
 2/29=1/2;
 6/7=2,8=2,9=2,10=2/1;
 99/5=20/99;
 Leave Link    1 at Mon Oct  6 14:24:34 2025, MaxMem=           0 cpu:               0.0 elap:               0.0
 (Enter /home/zhouoh/g16/l101.exe)
 -
 t
 -
 Symbolic Z-matrix:
 Charge =  0 Multiplicity = 1
 P                    -0.66443   0.9434   -1.17426 
 O                    -1.97174   3.22782  -1.69565 
 O                    -3.92484  -1.98072  -0.10087 
 O                    -0.92164   0.63038   2.42491 
 C                    -1.08038   0.01237  -2.73815 
 C                    -2.26572   1.2871   -0.39974 
 C                    -0.62224   2.70414  -1.78372 
 C                    -2.18419   0.66328  -3.56923 
 C                    -1.52836  -1.38994  -2.3279 
 C                     0.22145  -0.07887  -3.54045 
 C                    -2.75034   2.51352  -0.84272 
 C                    -2.99082   0.54157   0.5302 
 C                    -2.39417  -0.70076   1.09797 
 C                    -3.98576   2.9933   -0.43349 
 C                    -4.23521   1.01056   0.93656 
 C                    -4.72372   2.21836   0.44901 
 C                    -2.83813  -1.97125   0.71494 
 C                    -1.31775  -0.60705   1.98094 
 C                    -2.15697  -3.11103   1.13654 
 C                    -0.63122  -1.73813   2.40641 
 C                    -1.05033  -2.98055   1.96526 
 C                    -4.39927  -3.21824  -0.64543 
 C                    -1.7568    1.17185   3.47629 
 H                    -0.36622   2.70427  -2.84496 
 H                    -2.38764   0.03799  -4.44358 
 H                    -1.90951   1.65467  -3.93034 
 H                    -3.11095   0.75298  -2.99906 
 H                    -1.61884  -2.01837  -3.21985 
 H                    -2.49977  -1.35443  -1.83494 
 H                    -0.81023  -1.85545  -1.64924 
 H                     0.9994   -0.58969  -2.96876 
 H                     0.04226  -0.64358  -4.45977 
 H                     0.6003    0.90624  -3.82435 
 H                    -4.34618   3.94679  -0.79542 
 H                    -4.81785   0.43218   1.64244 
 H                    -5.69241   2.572     0.77934 
 H                    -2.47417  -4.09576   0.82851 
 H                     0.21534  -1.62331   3.06947 
 H                    -0.51961  -3.86989   2.28142 
 Pd                    1.00591   0.0374    0.05 
 H                     4.95414   3.96663  -1.21131 
 C                     4.37723   3.12345  -0.85565 
 C                     3.68528   3.19458   0.34528 
 H                     3.71086   4.10499   0.93327 
 C                     2.94334   2.11852   0.80991 
 H                     2.39228   2.21793   1.73455 
 C                     2.86506   0.94386   0.05459 
 C                     3.5862    0.85559  -1.14169 
 H                     3.54976  -0.04282  -1.739 
 C                     4.31569   1.9461   -1.59101 
 H                     4.84169   1.86826  -2.53531 
 H                     3.34164  -0.97871   4.44467 
 C                     3.25191  -1.35605   3.42404 
 H                     2.4811   -2.13195   3.41934 
 H                     4.82855  -2.844     3.4876 
 H                     1.91881   0.25143   2.855 
 H                     5.3771   -1.23173   3.06751 
 C                     4.5624   -1.94943   2.92106 
 C                     2.84977  -0.20632   2.51319 
 C                     4.37792  -2.30048   1.47314 
 N                     2.66981  -0.62258   1.11903 
 C                     3.46051  -1.69976   0.69698 
 H                     5.16575  -2.15573  -1.34946 
 C                     3.1574   -2.29929  -0.63227 
 C                     4.16437  -2.50402  -1.57104 
 C                     1.86766  -2.74244  -0.92086 
 H                     1.08436  -2.62283  -0.17859 
 C                     3.88797  -3.12204  -2.7829 
 H                     4.67962  -3.2627   -3.50795 
 C                     1.59366  -3.37006  -2.12718 
 C                     2.6003   -3.55433  -3.06547 
 H                     0.59011  -3.72051  -2.33455 
 H                     2.38252  -4.037    -4.0097 
 H                     3.63527   0.55685   2.57619 
 H                     4.88059  -3.17075   1.07153 
 H                    -2.76758   0.77402   3.34086 
 H                    -3.53688  -3.82241  -0.94623 
 C                     0.35944   3.60742  -1.04531 
 H                     1.332     3.10996  -1.12734 
 C                     0.00811   3.7481    0.43023 
 H                    -0.95995   4.24097   0.55049 
 H                    -0.03264   2.77773   0.9304 
 H                     0.7589    4.35775   0.93714 
 C                     0.44692   4.97204  -1.72256 
 H                    -0.51499   5.48674  -1.6818 
 H                     1.18836   5.5971   -1.22185 
 H                     0.73953   4.87777  -2.77051 
 C                    -5.1984   -2.84502  -1.87738 
 H                    -5.60412  -3.7411   -2.34804 
 H                    -6.02695  -2.19177  -1.59988 
 H                    -4.5731   -2.32238  -2.6006 
 C                    -5.24376  -3.95931   0.37718 
 H                    -5.57912  -4.91362  -0.03144 
 H                    -4.69184  -4.15312   1.29595 
 H                    -6.12249  -3.36224   0.62611 
 C                    -1.2116    0.73744   4.82363 
 H                    -1.83656   1.12413   5.63041 
 H                    -1.18807  -0.35025   4.90109 
 H                    -0.1975    1.11987   4.95644 
 C                    -1.78248   2.6728    3.29882 
 H                    -0.76999   3.07755   3.35395 
 H                    -2.21064   2.93326   2.33055 
 H                    -2.38273   3.13323   4.08519 
 
 ITRead=  0  0  0  0  0  0  0  0  0  0  0  0  0  0  0  0  0  0  0  0
 ITRead=  0  0  0  0  0  0  0  0  0  0  0  0  0  0  0  0  0  0  0  0
 ITRead=  0  0  0  0  0  0  0  0  0  0  0  0  0  0  0  0  0  0  0  0
 ITRead=  0  0  0  0  0  0  0  0  0  0  0  0  0  0  0  0  0  0  0  0
 ITRead=  0  0  0  0  0  0  0  0  0  0  0  0  0  0  0  0  0  0  0  0
 ITRead=  0  0  0
 MicOpt= -1 -1 -1 -1 -1 -1 -1 -1 -1 -1 -1 -1 -1 -1 -1 -1 -1 -1 -1 -1
 MicOpt= -1 -1 -1 -1 -1 -1 -1 -1 -1 -1 -1 -1 -1 -1 -1 -1 -1 -1 -1 -1
 MicOpt= -1 -1 -1 -1 -1 -1 -1 -1 -1 -1 -1 -1 -1 -1 -1 -1 -1 -1 -1 -1
 MicOpt= -1 -1 -1 -1 -1 -1 -1 -1 -1 -1 -1 -1 -1 -1 -1 -1 -1 -1 -1 -1
 MicOpt= -1 -1 -1 -1 -1 -1 -1 -1 -1 -1 -1 -1 -1 -1 -1 -1 -1 -1 -1 -1
 MicOpt= -1 -1 -1
 NAtoms=    103 NQM=      103 NQMF=       0 NMMI=      0 NMMIF=      0
                NMic=       0 NMicF=      0.
                    Isotopes and Nuclear Properties:
 (Nuclear quadrupole moments (NQMom) in fm**2, nuclear magnetic moments (NMagM)
  in nuclear magnetons)

  Atom         1           2           3           4           5           6           7           8           9          10
 IAtWgt=          31          16          16          16          12          12          12          12          12          12
 AtmWgt=  30.9737634  15.9949146  15.9949146  15.9949146  12.0000000  12.0000000  12.0000000  12.0000000  12.0000000  12.0000000
 NucSpn=           1           0           0           0           0           0           0           0           0           0
 AtZEff=  -0.0000000  -0.0000000  -0.0000000  -0.0000000  -0.0000000  -0.0000000  -0.0000000  -0.0000000  -0.0000000  -0.0000000
 NQMom=    0.0000000   0.0000000   0.0000000   0.0000000   0.0000000   0.0000000   0.0000000   0.0000000   0.0000000   0.0000000
 NMagM=    1.1316000   0.0000000   0.0000000   0.0000000   0.0000000   0.0000000   0.0000000   0.0000000   0.0000000   0.0000000
 AtZNuc=  15.0000000   8.0000000   8.0000000   8.0000000   6.0000000   6.0000000   6.0000000   6.0000000   6.0000000   6.0000000

  Atom        11          12          13          14          15          16          17          18          19          20
 IAtWgt=          12          12          12          12          12          12          12          12          12          12
 AtmWgt=  12.0000000  12.0000000  12.0000000  12.0000000  12.0000000  12.0000000  12.0000000  12.0000000  12.0000000  12.0000000
 NucSpn=           0           0           0           0           0           0           0           0           0           0
 AtZEff=  -0.0000000  -0.0000000  -0.0000000  -0.0000000  -0.0000000  -0.0000000  -0.0000000  -0.0000000  -0.0000000  -0.0000000
 NQMom=    0.0000000   0.0000000   0.0000000   0.0000000   0.0000000   0.0000000   0.0000000   0.0000000   0.0000000   0.0000000
 NMagM=    0.0000000   0.0000000   0.0000000   0.0000000   0.0000000   0.0000000   0.0000000   0.0000000   0.0000000   0.0000000
 AtZNuc=   6.0000000   6.0000000   6.0000000   6.0000000   6.0000000   6.0000000   6.0000000   6.0000000   6.0000000   6.0000000

  Atom        21          22          23          24          25          26          27          28          29          30
 IAtWgt=          12          12          12           1           1           1           1           1           1           1
 AtmWgt=  12.0000000  12.0000000  12.0000000   1.0078250   1.0078250   1.0078250   1.0078250   1.0078250   1.0078250   1.0078250
 NucSpn=           0           0           0           1           1           1           1           1           1           1
 AtZEff=  -0.0000000  -0.0000000  -0.0000000  -0.0000000  -0.0000000  -0.0000000  -0.0000000  -0.0000000  -0.0000000  -0.0000000
 NQMom=    0.0000000   0.0000000   0.0000000   0.0000000   0.0000000   0.0000000   0.0000000   0.0000000   0.0000000   0.0000000
 NMagM=    0.0000000   0.0000000   0.0000000   2.7928460   2.7928460   2.7928460   2.7928460   2.7928460   2.7928460   2.7928460
 AtZNuc=   6.0000000   6.0000000   6.0000000   1.0000000   1.0000000   1.0000000   1.0000000   1.0000000   1.0000000   1.0000000

  Atom        31          32          33          34          35          36          37          38          39          40
 IAtWgt=           1           1           1           1           1           1           1           1           1         106
 AtmWgt=   1.0078250   1.0078250   1.0078250   1.0078250   1.0078250   1.0078250   1.0078250   1.0078250   1.0078250 105.9032000
 NucSpn=           1           1           1           1           1           1           1           1           1           0
 AtZEff=  -0.0000000  -0.0000000  -0.0000000  -0.0000000  -0.0000000  -0.0000000  -0.0000000  -0.0000000  -0.0000000  -0.0000000
 NQMom=    0.0000000   0.0000000   0.0000000   0.0000000   0.0000000   0.0000000   0.0000000   0.0000000   0.0000000   0.0000000
 NMagM=    2.7928460   2.7928460   2.7928460   2.7928460   2.7928460   2.7928460   2.7928460   2.7928460   2.7928460   0.0000000
 AtZNuc=   1.0000000   1.0000000   1.0000000   1.0000000   1.0000000   1.0000000   1.0000000   1.0000000   1.0000000  46.0000000

  Atom        41          42          43          44          45          46          47          48          49          50
 IAtWgt=           1          12          12           1          12           1          12          12           1          12
 AtmWgt=   1.0078250  12.0000000  12.0000000   1.0078250  12.0000000   1.0078250  12.0000000  12.0000000   1.0078250  12.0000000
 NucSpn=           1           0           0           1           0           1           0           0           1           0
 AtZEff=  -0.0000000  -0.0000000  -0.0000000  -0.0000000  -0.0000000  -0.0000000  -0.0000000  -0.0000000  -0.0000000  -0.0000000
 NQMom=    0.0000000   0.0000000   0.0000000   0.0000000   0.0000000   0.0000000   0.0000000   0.0000000   0.0000000   0.0000000
 NMagM=    2.7928460   0.0000000   0.0000000   2.7928460   0.0000000   2.7928460   0.0000000   0.0000000   2.7928460   0.0000000
 AtZNuc=   1.0000000   6.0000000   6.0000000   1.0000000   6.0000000   1.0000000   6.0000000   6.0000000   1.0000000   6.0000000

  Atom        51          52          53          54          55          56          57          58          59          60
 IAtWgt=           1           1          12           1           1           1           1          12          12          12
 AtmWgt=   1.0078250   1.0078250  12.0000000   1.0078250   1.0078250   1.0078250   1.0078250  12.0000000  12.0000000  12.0000000
 NucSpn=           1           1           0           1           1           1           1           0           0           0
 AtZEff=  -0.0000000  -0.0000000  -0.0000000  -0.0000000  -0.0000000  -0.0000000  -0.0000000  -0.0000000  -0.0000000  -0.0000000
 NQMom=    0.0000000   0.0000000   0.0000000   0.0000000   0.0000000   0.0000000   0.0000000   0.0000000   0.0000000   0.0000000
 NMagM=    2.7928460   2.7928460   0.0000000   2.7928460   2.7928460   2.7928460   2.7928460   0.0000000   0.0000000   0.0000000
 AtZNuc=   1.0000000   1.0000000   6.0000000   1.0000000   1.0000000   1.0000000   1.0000000   6.0000000   6.0000000   6.0000000

  Atom        61          62          63          64          65          66          67          68          69          70
 IAtWgt=          14          12           1          12          12          12           1          12           1          12
 AtmWgt=  14.0030740  12.0000000   1.0078250  12.0000000  12.0000000  12.0000000   1.0078250  12.0000000   1.0078250  12.0000000
 NucSpn=           2           0           1           0           0           0           1           0           1           0
 AtZEff=  -0.0000000  -0.0000000  -0.0000000  -0.0000000  -0.0000000  -0.0000000  -0.0000000  -0.0000000  -0.0000000  -0.0000000
 NQMom=    2.0440000   0.0000000   0.0000000   0.0000000   0.0000000   0.0000000   0.0000000   0.0000000   0.0000000   0.0000000
 NMagM=    0.4037610   0.0000000   2.7928460   0.0000000   0.0000000   0.0000000   2.7928460   0.0000000   2.7928460   0.0000000
 AtZNuc=   7.0000000   6.0000000   1.0000000   6.0000000   6.0000000   6.0000000   1.0000000   6.0000000   1.0000000   6.0000000

  Atom        71          72          73          74          75          76          77          78          79          80
 IAtWgt=          12           1           1           1           1           1           1          12           1          12
 AtmWgt=  12.0000000   1.0078250   1.0078250   1.0078250   1.0078250   1.0078250   1.0078250  12.0000000   1.0078250  12.0000000
 NucSpn=           0           1           1           1           1           1           1           0           1           0
 AtZEff=  -0.0000000  -0.0000000  -0.0000000  -0.0000000  -0.0000000  -0.0000000  -0.0000000  -0.0000000  -0.0000000  -0.0000000
 NQMom=    0.0000000   0.0000000   0.0000000   0.0000000   0.0000000   0.0000000   0.0000000   0.0000000   0.0000000   0.0000000
 NMagM=    0.0000000   2.7928460   2.7928460   2.7928460   2.7928460   2.7928460   2.7928460   0.0000000   2.7928460   0.0000000
 AtZNuc=   6.0000000   1.0000000   1.0000000   1.0000000   1.0000000   1.0000000   1.0000000   6.0000000   1.0000000   6.0000000

  Atom        81          82          83          84          85          86          87          88          89          90
 IAtWgt=           1           1           1          12           1           1           1          12           1           1
 AtmWgt=   1.0078250   1.0078250   1.0078250  12.0000000   1.0078250   1.0078250   1.0078250  12.0000000   1.0078250   1.0078250
 NucSpn=           1           1           1           0           1           1           1           0           1           1
 AtZEff=  -0.0000000  -0.0000000  -0.0000000  -0.0000000  -0.0000000  -0.0000000  -0.0000000  -0.0000000  -0.0000000  -0.0000000
 NQMom=    0.0000000   0.0000000   0.0000000   0.0000000   0.0000000   0.0000000   0.0000000   0.0000000   0.0000000   0.0000000
 NMagM=    2.7928460   2.7928460   2.7928460   0.0000000   2.7928460   2.7928460   2.7928460   0.0000000   2.7928460   2.7928460
 AtZNuc=   1.0000000   1.0000000   1.0000000   6.0000000   1.0000000   1.0000000   1.0000000   6.0000000   1.0000000   1.0000000

  Atom        91          92          93          94          95          96          97          98          99         100
 IAtWgt=           1          12           1           1           1          12           1           1           1          12
 AtmWgt=   1.0078250  12.0000000   1.0078250   1.0078250   1.0078250  12.0000000   1.0078250   1.0078250   1.0078250  12.0000000
 NucSpn=           1           0           1           1           1           0           1           1           1           0
 AtZEff=  -0.0000000  -0.0000000  -0.0000000  -0.0000000  -0.0000000  -0.0000000  -0.0000000  -0.0000000  -0.0000000  -0.0000000
 NQMom=    0.0000000   0.0000000   0.0000000   0.0000000   0.0000000   0.0000000   0.0000000   0.0000000   0.0000000   0.0000000
 NMagM=    2.7928460   0.0000000   2.7928460   2.7928460   2.7928460   0.0000000   2.7928460   2.7928460   2.7928460   0.0000000
 AtZNuc=   1.0000000   6.0000000   1.0000000   1.0000000   1.0000000   6.0000000   1.0000000   1.0000000   1.0000000   6.0000000

  Atom       101         102         103
 IAtWgt=           1           1           1
 AtmWgt=   1.0078250   1.0078250   1.0078250
 NucSpn=           1           1           1
 AtZEff=  -0.0000000  -0.0000000  -0.0000000
 NQMom=    0.0000000   0.0000000   0.0000000
 NMagM=    2.7928460   2.7928460   2.7928460
 AtZNuc=   1.0000000   1.0000000   1.0000000
 Leave Link  101 at Mon Oct  6 14:24:34 2025, MaxMem=   104857600 cpu:               0.1 elap:               0.1
 (Enter /home/zhouoh/g16/l123.exe)
 IRC-IRC-IRC-IRC-IRC-IRC-IRC-IRC-IRC-IRC-IRC-IRC-IRC-IRC-IRC-IRC-IRC-IRC
 ------------------------------------------------------------------------
 INPUT DATA FOR L123
 ------------------------------------------------------------------------
 GENERAL PARAMETERS:
 Follow reaction path in both directions.
 Maximum points per path      =  10
 Step size                    =   0.100 bohr
 Integration scheme           = LQA                                 
 Initial Hessian              = CalcFC
 Hessian evaluation           = All updating
 Hessian updating method      = Bofill                              
 ------------------------------------------------------------------------
 IRC-IRC-IRC-IRC-IRC-IRC-IRC-IRC-IRC-IRC-IRC-IRC-IRC-IRC-IRC-IRC-IRC-IRC
 Leave Link  123 at Mon Oct  6 14:24:34 2025, MaxMem=   104857600 cpu:               0.0 elap:               0.0
 (Enter /home/zhouoh/g16/l202.exe)
 Symmetry turned off by external request.
 Stoichiometry    C43H54NO3PPd
 Framework group  C1[X(C43H54NO3PPd)]
 Deg. of freedom   303
 Full point group                 C1      NOp   1
                          Input orientation:                          
 ---------------------------------------------------------------------
 Center     Atomic      Atomic             Coordinates (Angstroms)
 Number     Number       Type             X           Y           Z
 ---------------------------------------------------------------------
      1         15           0       -0.664427    0.943399   -1.174256
      2          8           0       -1.971742    3.227821   -1.695646
      3          8           0       -3.924843   -1.980723   -0.100868
      4          8           0       -0.921642    0.630380    2.424912
      5          6           0       -1.080376    0.012373   -2.738152
      6          6           0       -2.265720    1.287095   -0.399743
      7          6           0       -0.622238    2.704141   -1.783724
      8          6           0       -2.184185    0.663279   -3.569231
      9          6           0       -1.528355   -1.389944   -2.327898
     10          6           0        0.221454   -0.078874   -3.540452
     11          6           0       -2.750340    2.513518   -0.842722
     12          6           0       -2.990821    0.541571    0.530195
     13          6           0       -2.394172   -0.700756    1.097971
     14          6           0       -3.985764    2.993298   -0.433486
     15          6           0       -4.235210    1.010565    0.936564
     16          6           0       -4.723715    2.218365    0.449010
     17          6           0       -2.838126   -1.971248    0.714940
     18          6           0       -1.317750   -0.607047    1.980940
     19          6           0       -2.156974   -3.111034    1.136535
     20          6           0       -0.631223   -1.738125    2.406412
     21          6           0       -1.050332   -2.980551    1.965256
     22          6           0       -4.399269   -3.218243   -0.645430
     23          6           0       -1.756798    1.171847    3.476292
     24          1           0       -0.366218    2.704274   -2.844961
     25          1           0       -2.387637    0.037987   -4.443576
     26          1           0       -1.909508    1.654674   -3.930338
     27          1           0       -3.110950    0.752976   -2.999058
     28          1           0       -1.618837   -2.018367   -3.219850
     29          1           0       -2.499773   -1.354432   -1.834935
     30          1           0       -0.810229   -1.855445   -1.649238
     31          1           0        0.999402   -0.589690   -2.968757
     32          1           0        0.042255   -0.643580   -4.459772
     33          1           0        0.600300    0.906240   -3.824354
     34          1           0       -4.346179    3.946794   -0.795419
     35          1           0       -4.817851    0.432177    1.642437
     36          1           0       -5.692411    2.572001    0.779344
     37          1           0       -2.474167   -4.095757    0.828514
     38          1           0        0.215343   -1.623305    3.069469
     39          1           0       -0.519609   -3.869893    2.281419
     40         46           0        1.005913    0.037403    0.049995
     41          1           0        4.954144    3.966631   -1.211310
     42          6           0        4.377229    3.123450   -0.855647
     43          6           0        3.685278    3.194581    0.345278
     44          1           0        3.710857    4.104993    0.933268
     45          6           0        2.943343    2.118516    0.809908
     46          1           0        2.392282    2.217934    1.734546
     47          6           0        2.865055    0.943858    0.054591
     48          6           0        3.586203    0.855591   -1.141687
     49          1           0        3.549758   -0.042817   -1.739003
     50          6           0        4.315688    1.946104   -1.591010
     51          1           0        4.841691    1.868258   -2.535313
     52          1           0        3.341638   -0.978713    4.444665
     53          6           0        3.251907   -1.356052    3.424044
     54          1           0        2.481100   -2.131954    3.419342
     55          1           0        4.828548   -2.843998    3.487595
     56          1           0        1.918809    0.251428    2.855002
     57          1           0        5.377095   -1.231726    3.067506
     58          6           0        4.562396   -1.949427    2.921059
     59          6           0        2.849766   -0.206317    2.513192
     60          6           0        4.377920   -2.300481    1.473137
     61          7           0        2.669809   -0.622582    1.119034
     62          6           0        3.460514   -1.699763    0.696978
     63          1           0        5.165755   -2.155727   -1.349456
     64          6           0        3.157396   -2.299290   -0.632269
     65          6           0        4.164375   -2.504023   -1.571042
     66          6           0        1.867657   -2.742436   -0.920855
     67          1           0        1.084361   -2.622829   -0.178590
     68          6           0        3.887969   -3.122040   -2.782902
     69          1           0        4.679622   -3.262696   -3.507954
     70          6           0        1.593657   -3.370062   -2.127180
     71          6           0        2.600304   -3.554326   -3.065470
     72          1           0        0.590108   -3.720508   -2.334553
     73          1           0        2.382516   -4.037003   -4.009703
     74          1           0        3.635270    0.556854    2.576194
     75          1           0        4.880591   -3.170746    1.071525
     76          1           0       -2.767582    0.774023    3.340865
     77          1           0       -3.536882   -3.822412   -0.946234
     78          6           0        0.359440    3.607422   -1.045311
     79          1           0        1.331998    3.109959   -1.127336
     80          6           0        0.008105    3.748103    0.430230
     81          1           0       -0.959953    4.240975    0.550493
     82          1           0       -0.032636    2.777725    0.930397
     83          1           0        0.758900    4.357752    0.937136
     84          6           0        0.446922    4.972044   -1.722561
     85          1           0       -0.514992    5.486738   -1.681798
     86          1           0        1.188357    5.597103   -1.221846
     87          1           0        0.739525    4.877773   -2.770506
     88          6           0       -5.198399   -2.845021   -1.877378
     89          1           0       -5.604119   -3.741101   -2.348035
     90          1           0       -6.026954   -2.191774   -1.599878
     91          1           0       -4.573101   -2.322379   -2.600603
     92          6           0       -5.243760   -3.959314    0.377177
     93          1           0       -5.579123   -4.913618   -0.031444
     94          1           0       -4.691841   -4.153118    1.295948
     95          1           0       -6.122495   -3.362243    0.626107
     96          6           0       -1.211598    0.737436    4.823632
     97          1           0       -1.836560    1.124126    5.630414
     98          1           0       -1.188066   -0.350247    4.901085
     99          1           0       -0.197496    1.119870    4.956443
    100          6           0       -1.782475    2.672797    3.298823
    101          1           0       -0.769986    3.077547    3.353946
    102          1           0       -2.210640    2.933261    2.330548
    103          1           0       -2.382726    3.133235    4.085190
 ---------------------------------------------------------------------
 Rotational constants (GHZ):           0.0783578           0.0587531           0.0524777
 Leave Link  202 at Mon Oct  6 14:24:34 2025, MaxMem=   104857600 cpu:               0.0 elap:               0.0
 (Enter /home/zhouoh/g16/l301.exe)
 Standard basis: STO-3G (5D, 7F)
 Ernie: Thresh=  0.10000D-02 Tol=  0.10000D-05 Strict=F.
   325 basis functions,   981 primitive gaussians,   327 cartesian basis functions
   202 alpha electrons      202 beta electrons
       nuclear repulsion energy      9285.2108929196 Hartrees.



 Warning!  P  atom    1 may be hypervalent but has no d functions.



 IExCor=    0 DFT=F Ex=HF Corr=None ExCW=0 ScaHFX=  1.000000
 ScaDFX=  1.000000  1.000000  1.000000  1.000000 ScalE2=  1.000000  1.000000
 IRadAn=      5 IRanWt=     -1 IRanGd=            0 ICorTp=0 IEmpDi=  4
 NAtoms=  103 NActive=  103 NUniq=  103 SFac= 1.00D+00 NAtFMM=   60 NAOKFM=T Big=T
 Integral buffers will be    131072 words long.
 Raffenetti 1 integral format.
 Two-electron integral symmetry is turned off.
 Leave Link  301 at Mon Oct  6 14:24:34 2025, MaxMem=   104857600 cpu:               0.0 elap:               0.0
 (Enter /home/zhouoh/g16/l402.exe)
 External calculation of energy, first and second derivatives.
 Running external command "python ../GauUMA_client.py R"
         input file       "/home/zhouoh/scratch/Gau-2814882.EIn"
         output file      "/home/zhouoh/scratch/Gau-2814882.EOu"
         message file     "/home/zhouoh/scratch/Gau-2814882.EMs"
         fchk file        "/home/zhouoh/scratch/Gau-2814882.EFC"
         mat. el file     "/home/zhouoh/scratch/Gau-2814882.EUF"
Sent job to server.
Received result from server:
SCF Done:  E(UMA) =  -2420.6295892903504     A.U.
 Recovered energy= -2420.62958929     dipole=      0.000000000000      0.000000000000      0.000000000000
 Energy=    -2420.62959     NIter=   0.
 Dipole moment=       0.000000       0.000000       0.000000
 Leave Link  402 at Mon Oct  6 14:24:52 2025, MaxMem=   104857600 cpu:               0.0 elap:              17.4
 (Enter /home/zhouoh/g16/l601.exe)
 Hyperfine terms turned off by default for NAtoms > 100.
 Leave Link  601 at Mon Oct  6 14:24:52 2025, MaxMem=   104857600 cpu:               0.0 elap:               0.0
 (Enter /home/zhouoh/g16/l716.exe)
 Dipole        = 0.00000000D+00 0.00000000D+00 0.00000000D+00
 -------------------------------------------------------------------
 Center     Atomic                   Forces (Hartrees/Bohr)
 Number     Number              X              Y              Z
 -------------------------------------------------------------------
      1       15          -0.000001258    0.000002909    0.000000857
      2        8          -0.000001310   -0.000001512   -0.000001941
      3        8          -0.000000155    0.000001093   -0.000000857
      4        8           0.000001309   -0.000001834    0.000003636
      5        6          -0.000004207   -0.000002187    0.000000889
      6        6           0.000002763   -0.000000081    0.000005832
      7        6          -0.000004298   -0.000002015   -0.000001293
      8        6           0.000000138   -0.000000024    0.000000306
      9        6           0.000000811    0.000000528   -0.000000553
     10        6          -0.000000519   -0.000000138   -0.000001371
     11        6           0.000001125   -0.000000133    0.000000765
     12        6          -0.000000056    0.000002024   -0.000000397
     13        6           0.000001662    0.000001732    0.000000362
     14        6           0.000000851    0.000000052    0.000000649
     15        6           0.000000885   -0.000000482   -0.000000317
     16        6          -0.000000292    0.000000491   -0.000000160
     17        6          -0.000002974   -0.000000560    0.000002402
     18        6          -0.000004402   -0.000000762   -0.000001670
     19        6           0.000000138    0.000000639   -0.000000620
     20        6          -0.000004706   -0.000001272    0.000002197
     21        6          -0.000000339    0.000001352    0.000000541
     22        6          -0.000002500   -0.000001416    0.000001495
     23        6          -0.000000246    0.000002848    0.000001236
     24        1          -0.000000109    0.000002182   -0.000000510
     25        1          -0.000001613   -0.000001338    0.000001158
     26        1           0.000000950   -0.000000917   -0.000002088
     27        1           0.000000985    0.000002482    0.000000621
     28        1           0.000001795   -0.000000564    0.000000454
     29        1          -0.000000479   -0.000001433   -0.000000925
     30        1           0.000000070    0.000000171    0.000000820
     31        1          -0.000000194   -0.000002777   -0.000000516
     32        1          -0.000000427    0.000002960   -0.000001012
     33        1           0.000001876    0.000000394    0.000002989
     34        1           0.000000125    0.000000057    0.000000191
     35        1           0.000000051   -0.000000001   -0.000000137
     36        1           0.000000139    0.000000150    0.000000140
     37        1          -0.000000095   -0.000000043    0.000000140
     38        1          -0.000002336   -0.000000075    0.000000161
     39        1           0.000000166   -0.000000070    0.000000290
     40       46           0.000008815    0.000000005   -0.000007498
     41        1           0.000000152    0.000000555   -0.000000156
     42        6          -0.000000075   -0.000000398   -0.000000917
     43        6           0.000000249    0.000000320    0.000000687
     44        1          -0.000000011    0.000000071    0.000000016
     45        6           0.000001080    0.000000207    0.000000816
     46        1           0.000000452    0.000000390   -0.000000614
     47        6          -0.000003053    0.000000401    0.000000427
     48        6          -0.000000403   -0.000000269   -0.000002000
     49        1           0.000000126    0.000001486    0.000001219
     50        6          -0.000000042   -0.000000281    0.000001135
     51        1          -0.000000018    0.000000131   -0.000000122
     52        1          -0.000000140   -0.000000422   -0.000000494
     53        6           0.000000775   -0.000000396   -0.000000078
     54        1           0.000002185    0.000001510   -0.000000101
     55        1           0.000000818    0.000000041    0.000000077
     56        1          -0.000001586   -0.000003001    0.000000693
     57        1          -0.000000366    0.000000712   -0.000000206
     58        6          -0.000000841   -0.000000862    0.000000783
     59        6          -0.000002371    0.000001300   -0.000000033
     60        6          -0.000000384   -0.000000599   -0.000000403
     61        7          -0.000000325   -0.000006688    0.000000035
     62        6           0.000006657    0.000003022    0.000002736
     63        1          -0.000000061   -0.000000790    0.000000300
     64        6          -0.000006940    0.000001973    0.000001427
     65        6           0.000001407   -0.000000533   -0.000001781
     66        6           0.000003917    0.000000410    0.000000894
     67        1           0.000004392    0.000003792   -0.000004772
     68        6           0.000001425   -0.000000264   -0.000000431
     69        1          -0.000000591    0.000000296    0.000000532
     70        6           0.000000238   -0.000000721   -0.000001263
     71        6          -0.000001029   -0.000000947    0.000000303
     72        1          -0.000000663    0.000000335    0.000000480
     73        1           0.000000072    0.000000117    0.000000496
     74        1          -0.000000274    0.000001503   -0.000000486
     75        1          -0.000000754   -0.000000539    0.000000209
     76        1           0.000002161   -0.000003683   -0.000002095
     77        1           0.000002301    0.000003750   -0.000000708
     78        6          -0.000000200    0.000000840   -0.000000798
     79        1          -0.000002059   -0.000001783   -0.000000015
     80        6           0.000001539    0.000000321   -0.000000881
     81        1           0.000000810    0.000000213   -0.000000062
     82        1          -0.000000472   -0.000000215   -0.000000269
     83        1           0.000000814    0.000000200    0.000000520
     84        6           0.000001385   -0.000000464   -0.000001289
     85        1          -0.000001059   -0.000000640   -0.000002281
     86        1          -0.000001980    0.000000907    0.000001408
     87        1           0.000002454    0.000000238    0.000001125
     88        6           0.000000662    0.000000120    0.000000063
     89        1          -0.000003724   -0.000000089    0.000002193
     90        1           0.000002426    0.000003244   -0.000000475
     91        1           0.000001098   -0.000003845   -0.000001765
     92        6           0.000001659   -0.000002450   -0.000001464
     93        1          -0.000000110   -0.000000047   -0.000000151
     94        1          -0.000000038   -0.000000092    0.000000106
     95        1          -0.000000037    0.000000189    0.000000105
     96        6          -0.000000554    0.000000441    0.000000518
     97        1           0.000002140    0.000002810   -0.000000071
     98        1          -0.000002882   -0.000000263    0.000001244
     99        1           0.000000230   -0.000003442   -0.000001605
    100        6          -0.000004617   -0.000000427    0.000001161
    101        1           0.000001124    0.000000234   -0.000001091
    102        1          -0.000000591   -0.000000053    0.000000758
    103        1           0.000001368   -0.000000303    0.000000146
 -------------------------------------------------------------------
 Cartesian Forces:  Max     0.000008815 RMS     0.000001759
 Z-matrix is all fixed cartesians, so copy forces.
 Leave Link  716 at Mon Oct  6 14:24:52 2025, MaxMem=   104857600 cpu:               0.0 elap:               0.0
 (Enter /home/zhouoh/g16/l123.exe)
 IRC-IRC-IRC-IRC-IRC-IRC-IRC-IRC-IRC-IRC-IRC-IRC-IRC-IRC-IRC-IRC-IRC-IRC
          ******** Start new reaction path calculation ********
 Current Structure is TS -> form Hessian eigenvectors.
                            Diagonalizing Hessian.
 Supplied step size of   0.1000 bohr.
    Integration on MW PES will use step size of   0.2889 sqrt(amu)*bohr.
 Point Number:   0          Path Number:   1
 Calculating another point on the path.
 Point Number  1 in FORWARD path direction.
 Using LQA Reaction Path Following.
 IRC-IRC-IRC-IRC-IRC-IRC-IRC-IRC-IRC-IRC-IRC-IRC-IRC-IRC-IRC-IRC-IRC-IRC
 Leave Link  123 at Mon Oct  6 14:24:52 2025, MaxMem=   104857600 cpu:               0.0 elap:               0.0
 (Enter /home/zhouoh/g16/l202.exe)
 Symmetry turned off by external request.
 Stoichiometry    C43H54NO3PPd
 Framework group  C1[X(C43H54NO3PPd)]
 Deg. of freedom   303
 Full point group                 C1      NOp   1
                          Input orientation:                          
 ---------------------------------------------------------------------
 Center     Atomic      Atomic             Coordinates (Angstroms)
 Number     Number       Type             X           Y           Z
 ---------------------------------------------------------------------
      1         15           0       -0.699803    0.944883   -1.173394
      2          8           0       -2.007017    3.228015   -1.693937
      3          8           0       -3.960094   -1.980638   -0.099058
      4          8           0       -0.956950    0.630617    2.426406
      5          6           0       -1.115175    0.012312   -2.736235
      6          6           0       -2.300575    1.287451   -0.397469
      7          6           0       -0.657447    2.705067   -1.782293
      8          6           0       -2.219209    0.663248   -3.567167
      9          6           0       -1.563319   -1.389871   -2.325624
     10          6           0        0.186594   -0.078860   -3.538606
     11          6           0       -2.785348    2.513703   -0.840809
     12          6           0       -3.025897    0.541572    0.532028
     13          6           0       -2.429086   -0.700762    1.099370
     14          6           0       -4.020927    2.993263   -0.431732
     15          6           0       -4.270314    1.010452    0.938232
     16          6           0       -4.758816    2.218309    0.450708
     17          6           0       -2.873358   -1.971226    0.716615
     18          6           0       -1.352639   -0.606911    1.982541
     19          6           0       -2.192255   -3.110928    1.138482
     20          6           0       -0.665902   -1.737964    2.407804
     21          6           0       -1.085411   -2.980415    1.966866
     22          6           0       -4.434584   -3.218261   -0.643626
     23          6           0       -1.792043    1.171924    3.478138
     24          1           0       -0.401487    2.705062   -2.843504
     25          1           0       -2.422436    0.037694   -4.441318
     26          1           0       -1.944615    1.654564   -3.928507
     27          1           0       -3.145991    0.752867   -2.997031
     28          1           0       -1.654105   -2.018124   -3.217601
     29          1           0       -2.534608   -1.354199   -1.832436
     30          1           0       -0.845078   -1.856264   -1.647665
     31          1           0        0.964678   -0.590108   -2.967474
     32          1           0        0.007153   -0.643376   -4.457939
     33          1           0        0.565480    0.906242   -3.822421
     34          1           0       -4.381361    3.946707   -0.793745
     35          1           0       -4.852990    0.431977    1.643972
     36          1           0       -5.727538    2.571884    0.781000
     37          1           0       -2.509585   -4.095681    0.830699
     38          1           0        0.181064   -1.623223    3.070314
     39          1           0       -0.554523   -3.869684    2.282881
     40         46           0        0.974055    0.035930    0.054215
     41          1           0        4.927068    3.965806   -1.205920
     42          6           0        4.346625    3.123894   -0.852691
     43          6           0        3.654347    3.196084    0.348220
     44          1           0        3.685703    4.104624    0.938898
     45          6           0        2.902303    2.124168    0.805708
     46          1           0        2.346834    2.223567    1.727876
     47          6           0        2.812272    0.958744    0.040115
     48          6           0        3.544581    0.861953   -1.146559
     49          1           0        3.502432   -0.034905   -1.746370
     50          6           0        4.285110    1.947979   -1.589741
     51          1           0        4.816372    1.869472   -2.531096
     52          1           0        3.310222   -0.977025    4.447849
     53          6           0        3.217723   -1.355994    3.428044
     54          1           0        2.446936   -2.132096    3.426500
     55          1           0        4.793046   -2.845040    3.489345
     56          1           0        1.884194    0.251595    2.859069
     57          1           0        5.342398   -1.232684    3.071223
     58          6           0        4.527395   -1.949862    2.923281
     59          6           0        2.812184   -0.209853    2.513768
     60          6           0        4.345016   -2.299189    1.474537
     61          7           0        2.621832   -0.637753    1.126628
     62          6           0        3.420872   -1.702598    0.701462
     63          1           0        5.129551   -2.154796   -1.346236
     64          6           0        3.121159   -2.300192   -0.629382
     65          6           0        4.128412   -2.503363   -1.568388
     66          6           0        1.831814   -2.743390   -0.919308
     67          1           0        1.048939   -2.626572   -0.176160
     68          6           0        3.852560   -3.121202   -2.780529
     69          1           0        4.644510   -3.261349   -3.505380
     70          6           0        1.558125   -3.370416   -2.125981
     71          6           0        2.565165   -3.554062   -3.063888
     72          1           0        0.554829   -3.721483   -2.333707
     73          1           0        2.348042   -4.036730   -4.008289
     74          1           0        3.599604    0.552638    2.567743
     75          1           0        4.855235   -3.163568    1.069760
     76          1           0       -2.802812    0.774051    3.342663
     77          1           0       -3.572157   -3.822387   -0.944373
     78          6           0        0.324251    3.607928   -1.043623
     79          1           0        1.296925    3.110847   -1.125833
     80          6           0       -0.027299    3.748299    0.431884
     81          1           0       -0.995302    4.241270    0.552103
     82          1           0       -0.068246    2.778004    0.932176
     83          1           0        0.723604    4.357607    0.938892
     84          6           0        0.411600    4.972525   -1.720774
     85          1           0       -0.550298    5.487238   -1.680023
     86          1           0        1.153063    5.597398   -1.219954
     87          1           0        0.704358    4.878261   -2.768662
     88          6           0       -5.233686   -2.845005   -1.875566
     89          1           0       -5.639380   -3.741076   -2.346239
     90          1           0       -6.062269   -2.191787   -1.598089
     91          1           0       -4.608406   -2.322382   -2.598831
     92          6           0       -5.279052   -3.959265    0.379008
     93          1           0       -5.614420   -4.913554   -0.029618
     94          1           0       -4.727164   -4.153144    1.297781
     95          1           0       -6.157788   -3.362205    0.627951
     96          6           0       -1.246709    0.737426    4.825341
     97          1           0       -1.871704    1.124124    5.632085
     98          1           0       -1.223169   -0.350248    4.902835
     99          1           0       -0.232599    1.119760    4.958106
    100          6           0       -1.817714    2.672862    3.300697
    101          1           0       -0.805227    3.077564    3.355884
    102          1           0       -2.245936    2.933461    2.332473
    103          1           0       -2.417925    3.133241    4.087111
 ---------------------------------------------------------------------
 Rotational constants (GHZ):           0.0783338           0.0587603           0.0524756
 Leave Link  202 at Mon Oct  6 14:24:52 2025, MaxMem=   104857600 cpu:               0.0 elap:               0.0
 (Enter /home/zhouoh/g16/l301.exe)
 Standard basis: STO-3G (5D, 7F)
 Ernie: Thresh=  0.10000D-02 Tol=  0.10000D-05 Strict=F.
   325 basis functions,   981 primitive gaussians,   327 cartesian basis functions
   202 alpha electrons      202 beta electrons
       nuclear repulsion energy      9285.1212079728 Hartrees.



 Warning!  P  atom    1 may be hypervalent but has no d functions.



 IExCor=    0 DFT=F Ex=HF Corr=None ExCW=0 ScaHFX=  1.000000
 ScaDFX=  1.000000  1.000000  1.000000  1.000000 ScalE2=  1.000000  1.000000
 IRadAn=      5 IRanWt=     -1 IRanGd=            0 ICorTp=0 IEmpDi=  4
 NAtoms=  103 NActive=  103 NUniq=  103 SFac= 1.00D+00 NAtFMM=   60 NAOKFM=T Big=T
 Integral buffers will be    131072 words long.
 Raffenetti 1 integral format.
 Two-electron integral symmetry is turned off.
 Leave Link  301 at Mon Oct  6 14:24:52 2025, MaxMem=   104857600 cpu:               0.0 elap:               0.0
 (Enter /home/zhouoh/g16/l402.exe)
 External calculation of energy and first derivatives.
 Running external command "python ../GauUMA_client.py R"
         input file       "/home/zhouoh/scratch/Gau-2814882.EIn"
         output file      "/home/zhouoh/scratch/Gau-2814882.EOu"
         message file     "/home/zhouoh/scratch/Gau-2814882.EMs"
         fchk file        "/home/zhouoh/scratch/Gau-2814882.EFC"
         mat. el file     "/home/zhouoh/scratch/Gau-2814882.EUF"
Sent job to server.
Received result from server:
SCF Done:  E(UMA) =  -2420.629745284033     A.U.
 Recovered energy= -2420.62974528     dipole=      0.000000000000      0.000000000000      0.000000000000
 Energy=    -2420.62975     NIter=   0.
 Dipole moment=       0.000000       0.000000       0.000000
 Leave Link  402 at Mon Oct  6 14:24:52 2025, MaxMem=   104857600 cpu:               0.0 elap:               0.1
 (Enter /home/zhouoh/g16/l716.exe)
 Dipole        = 0.00000000D+00 0.00000000D+00 0.00000000D+00
 -------------------------------------------------------------------
 Center     Atomic                   Forces (Hartrees/Bohr)
 Number     Number              X              Y              Z
 -------------------------------------------------------------------
      1       15           0.000006774    0.000359839   -0.000215159
      2        8          -0.000004152    0.000020496   -0.000015863
      3        8           0.000001174    0.000004122   -0.000003159
      4        8          -0.000007094    0.000019632   -0.000034351
      5        6           0.000040958   -0.000013406    0.000010363
      6        6           0.000049729    0.000018424    0.000052387
      7        6          -0.000005378    0.000072036   -0.000039098
      8        6           0.000022416   -0.000010879    0.000020371
      9        6           0.000028455    0.000004646    0.000039326
     10        6           0.000034685   -0.000003791   -0.000000376
     11        6           0.000029174    0.000014336    0.000006687
     12        6           0.000016135   -0.000001297    0.000000830
     13        6           0.000033762    0.000001340   -0.000045801
     14        6           0.000007999   -0.000006876   -0.000005515
     15        6           0.000015802   -0.000015240   -0.000014171
     16        6           0.000016015   -0.000010008   -0.000012227
     17        6          -0.000001462   -0.000006611   -0.000013526
     18        6           0.000034867    0.000009424   -0.000018946
     19        6          -0.000002596    0.000007319    0.000010064
     20        6           0.000049668    0.000008840   -0.000037764
     21        6           0.000018436    0.000009653   -0.000019350
     22        6          -0.000006489   -0.000006377   -0.000000229
     23        6           0.000002514    0.000006710    0.000001816
     24        1           0.000000228    0.000009926   -0.000005331
     25        1           0.000000928   -0.000003657    0.000003371
     26        1           0.000003017   -0.000002388   -0.000002320
     27        1           0.000002478    0.000001534    0.000002926
     28        1           0.000001782   -0.000000757    0.000003515
     29        1           0.000002299    0.000000505    0.000004426
     30        1           0.000004464   -0.000009115   -0.000001630
     31        1           0.000003743   -0.000006036   -0.000005558
     32        1           0.000001162    0.000003106   -0.000001707
     33        1           0.000004779    0.000000520    0.000004930
     34        1           0.000001571   -0.000002101   -0.000000774
     35        1           0.000000811   -0.000001621   -0.000001551
     36        1           0.000001713   -0.000001256   -0.000001890
     37        1          -0.000001187    0.000000003    0.000003064
     38        1           0.000007237    0.000000807   -0.000010519
     39        1           0.000003754    0.000001479   -0.000002747
     40       46           0.002676039   -0.001225346    0.001875626
     41        1           0.000061516   -0.000013123    0.000031979
     42        6           0.000412352    0.000017739    0.000112589
     43        6           0.000378916    0.000108455    0.000123995
     44        1           0.000073901   -0.000024063    0.000022548
     45        6          -0.000532715    0.000524911   -0.000590905
     46        1          -0.000072446    0.000051775   -0.000077202
     47        6          -0.001579810    0.001012708   -0.001207179
     48        6          -0.000613400    0.000579820   -0.000624708
     49        1          -0.000092158    0.000081925   -0.000077275
     50        6           0.000405304    0.000124711   -0.000020377
     51        1           0.000066125   -0.000001193    0.000038909
     52        1           0.000027757    0.000014336    0.000006495
     53        6           0.000097151    0.000001433    0.000176866
     54        1           0.000009003    0.000004420    0.000040184
     55        1           0.000001462   -0.000007768   -0.000000722
     56        1           0.000011254   -0.000006824    0.000010094
     57        1           0.000002317   -0.000007344    0.000017672
     58        6           0.000032763   -0.000048769    0.000037026
     59        6          -0.000217208   -0.000301597   -0.000131663
     60        6           0.000187209    0.000123315   -0.000061368
     61        7          -0.001186758   -0.001247414    0.000450164
     62        6          -0.000369879   -0.000260433    0.000224195
     63        1          -0.000006694    0.000005911    0.000011277
     64        6          -0.000099180   -0.000091458    0.000101137
     65        6          -0.000065981    0.000057601    0.000075010
     66        6          -0.000054018   -0.000103021   -0.000030474
     67        1           0.000006113   -0.000023838   -0.000001468
     68        6          -0.000012544    0.000073767    0.000049223
     69        1           0.000000696    0.000010088    0.000006414
     70        6          -0.000021711   -0.000038662   -0.000057272
     71        6           0.000011449    0.000017543   -0.000024138
     72        1          -0.000000626   -0.000007219   -0.000007175
     73        1           0.000006839    0.000001780   -0.000002953
     74        1          -0.000022254   -0.000055244   -0.000078921
     75        1           0.000055854    0.000078693   -0.000016529
     76        1           0.000002514   -0.000003805   -0.000002206
     77        1           0.000002064    0.000003469   -0.000000576
     78        6           0.000003435    0.000043140   -0.000015661
     79        1          -0.000001915    0.000003217   -0.000002921
     80        6          -0.000009820    0.000015069   -0.000016856
     81        1           0.000000311    0.000002134   -0.000001550
     82        1          -0.000003963    0.000000272   -0.000001948
     83        1           0.000000667    0.000000245    0.000000615
     84        6          -0.000003347    0.000039111   -0.000003699
     85        1          -0.000000530    0.000003369   -0.000003197
     86        1          -0.000002064    0.000004691    0.000002504
     87        1           0.000002602    0.000003424    0.000000557
     88        6          -0.000001096   -0.000003344   -0.000001525
     89        1          -0.000003623   -0.000000189    0.000002060
     90        1           0.000002040    0.000002882   -0.000000787
     91        1           0.000000682   -0.000004299   -0.000002024
     92        6          -0.000000618   -0.000002700   -0.000001468
     93        1          -0.000000322    0.000000125   -0.000000202
     94        1          -0.000000488   -0.000000611    0.000000057
     95        1          -0.000000372    0.000000323    0.000000222
     96        6           0.000013948   -0.000005848   -0.000011793
     97        1           0.000003261    0.000002461   -0.000000849
     98        1          -0.000001679   -0.000000601    0.000000535
     99        1           0.000001404   -0.000004606   -0.000002164
    100        6          -0.000002522    0.000000738    0.000004841
    101        1           0.000001407   -0.000000015   -0.000000203
    102        1          -0.000000774    0.000000944    0.000001692
    103        1           0.000001972   -0.000000493    0.000000960
 -------------------------------------------------------------------
 Cartesian Forces:  Max     0.002676039 RMS     0.000277203
 Z-matrix is all fixed cartesians, so copy forces.
 Leave Link  716 at Mon Oct  6 14:24:52 2025, MaxMem=   104857600 cpu:               0.0 elap:               0.0
 (Enter /home/zhouoh/g16/l123.exe)
 IRC-IRC-IRC-IRC-IRC-IRC-IRC-IRC-IRC-IRC-IRC-IRC-IRC-IRC-IRC-IRC-IRC-IRC
 Pt  1 Step number   1 out of a maximum of  20
 Point Number:   1          Path Number:   1
   CHANGE IN THE REACTION COORDINATE =    0.28893
   NET REACTION COORDINATE UP TO THIS POINT =    0.28893
  # OF POINTS ALONG THE PATH =   1
  # OF STEPS =   1

 Calculating another point on the path.
 Point Number  2 in FORWARD path direction.
 Using LQA Reaction Path Following.
   LQA: T_Est iteration completed in    3 iterations.
 IRC-IRC-IRC-IRC-IRC-IRC-IRC-IRC-IRC-IRC-IRC-IRC-IRC-IRC-IRC-IRC-IRC-IRC
 Leave Link  123 at Mon Oct  6 14:24:52 2025, MaxMem=   104857600 cpu:               0.1 elap:               0.1
 (Enter /home/zhouoh/g16/l202.exe)
 Symmetry turned off by external request.
 Stoichiometry    C43H54NO3PPd
 Framework group  C1[X(C43H54NO3PPd)]
 Deg. of freedom   303
 Full point group                 C1      NOp   1
                          Input orientation:                          
 ---------------------------------------------------------------------
 Center     Atomic      Atomic             Coordinates (Angstroms)
 Number     Number       Type             X           Y           Z
 ---------------------------------------------------------------------
      1         15           0       -0.699791    0.946460   -1.174380
      2          8           0       -2.007057    3.228194   -1.694075
      3          8           0       -3.960087   -1.980599   -0.099075
      4          8           0       -0.956987    0.630811    2.426069
      5          6           0       -1.114657    0.012193   -2.736114
      6          6           0       -2.300045    1.287799   -0.396961
      7          6           0       -0.657417    2.706034   -1.782763
      8          6           0       -2.218929    0.663131   -3.566911
      9          6           0       -1.562958   -1.389850   -2.325126
     10          6           0        0.187033   -0.078902   -3.538586
     11          6           0       -2.785040    2.513855   -0.840694
     12          6           0       -3.025653    0.541542    0.532030
     13          6           0       -2.428692   -0.700808    1.098890
     14          6           0       -4.020799    2.993162   -0.431805
     15          6           0       -4.270118    1.010274    0.938054
     16          6           0       -4.758627    2.218184    0.450566
     17          6           0       -2.873326   -1.971251    0.716450
     18          6           0       -1.352231   -0.606809    1.982282
     19          6           0       -2.192277   -3.110863    1.138613
     20          6           0       -0.665264   -1.737837    2.407308
     21          6           0       -1.085192   -2.980314    1.966615
     22          6           0       -4.434633   -3.218328   -0.643650
     23          6           0       -1.792018    1.171953    3.478152
     24          1           0       -0.401532    2.705973   -2.843957
     25          1           0       -2.422121    0.037191   -4.440739
     26          1           0       -1.944306    1.654259   -3.928699
     27          1           0       -3.145652    0.752915   -2.996724
     28          1           0       -1.654022   -2.017954   -3.217122
     29          1           0       -2.534132   -1.354029   -1.831737
     30          1           0       -0.844608   -1.857158   -1.647871
     31          1           0        0.965188   -0.590824   -2.968145
     32          1           0        0.007284   -0.642978   -4.458076
     33          1           0        0.566105    0.906210   -3.822046
     34          1           0       -4.381259    3.946537   -0.793928
     35          1           0       -4.852830    0.431693    1.643648
     36          1           0       -5.727388    2.571682    0.780786
     37          1           0       -2.509759   -4.095655    0.831110
     38          1           0        0.182167   -1.623162    3.069185
     39          1           0       -0.554109   -3.869501    2.282457
     40         46           0        0.977584    0.034244    0.056751
     41          1           0        4.936680    3.964240   -1.201489
     42          6           0        4.351852    3.124006   -0.851178
     43          6           0        3.658756    3.197279    0.349384
     44          1           0        3.695993    4.103691    0.943040
     45          6           0        2.895864    2.129845    0.799202
     46          1           0        2.335809    2.229791    1.718717
     47          6           0        2.794230    0.972832    0.024217
     48          6           0        3.537206    0.868503   -1.153572
     49          1           0        3.488985   -0.026249   -1.756647
     50          6           0        4.289696    1.949606   -1.589994
     51          1           0        4.826398    1.870047   -2.528211
     52          1           0        3.314068   -0.974997    4.448940
     53          6           0        3.218801   -1.355900    3.430064
     54          1           0        2.448075   -2.132224    3.431967
     55          1           0        4.792787   -2.846166    3.489080
     56          1           0        1.884536    0.251478    2.861087
     57          1           0        5.343006   -1.233674    3.073228
     58          6           0        4.527692   -1.950276    2.923631
     59          6           0        2.809695   -0.213334    2.512348
     60          6           0        4.347214   -2.297657    1.474039
     61          7           0        2.609697   -0.651878    1.131828
     62          6           0        3.416396   -1.705295    0.703982
     63          1           0        5.128467   -2.153742   -1.344735
     64          6           0        3.120046   -2.301204   -0.628302
     65          6           0        4.127617   -2.502681   -1.567496
     66          6           0        1.831152   -2.744576   -0.919628
     67          1           0        1.048662   -2.630516   -0.175660
     68          6           0        3.852410   -3.120323   -2.779946
     69          1           0        4.644699   -3.259867   -3.504567
     70          6           0        1.557847   -3.370926   -2.126693
     71          6           0        2.565334   -3.553839   -3.064181
     72          1           0        0.554822   -3.722626   -2.334833
     73          1           0        2.348966   -4.036457   -4.008792
     74          1           0        3.598764    0.548577    2.557674
     75          1           0        4.864800   -3.156142    1.066086
     76          1           0       -2.802754    0.773988    3.342617
     77          1           0       -3.572141   -3.822376   -0.944346
     78          6           0        0.324304    3.608452   -1.043806
     79          1           0        1.297066    3.111705   -1.126210
     80          6           0       -0.027455    3.748482    0.431675
     81          1           0       -0.995368    4.241617    0.551867
     82          1           0       -0.068700    2.778244    0.932038
     83          1           0        0.723598    4.357375    0.938816
     84          6           0        0.411554    4.973028   -1.720828
     85          1           0       -0.550376    5.487691   -1.680296
     86          1           0        1.152882    5.597794   -1.219755
     87          1           0        0.704685    4.878789   -2.768600
     88          6           0       -5.233707   -2.845044   -1.875584
     89          1           0       -5.639667   -3.741080   -2.346070
     90          1           0       -6.062110   -2.191577   -1.598168
     91          1           0       -4.608369   -2.322743   -2.599041
     92          6           0       -5.279072   -3.959279    0.379003
     93          1           0       -5.614440   -4.913550   -0.029638
     94          1           0       -4.727221   -4.153235    1.297780
     95          1           0       -6.157811   -3.362232    0.627958
     96          6           0       -1.246541    0.737350    4.825208
     97          1           0       -1.871403    1.124272    5.631939
     98          1           0       -1.223236   -0.350314    4.902833
     99          1           0       -0.232324    1.119361    4.957815
    100          6           0       -1.817702    2.672877    3.300749
    101          1           0       -0.805205    3.077523    3.355916
    102          1           0       -2.246053    2.933620    2.332612
    103          1           0       -2.417798    3.133195    4.087265
 ---------------------------------------------------------------------
 Rotational constants (GHZ):           0.0783114           0.0587688           0.0524744
 Leave Link  202 at Mon Oct  6 14:24:52 2025, MaxMem=   104857600 cpu:               0.0 elap:               0.0
 (Enter /home/zhouoh/g16/l301.exe)
 Standard basis: STO-3G (5D, 7F)
 Ernie: Thresh=  0.10000D-02 Tol=  0.10000D-05 Strict=F.
   325 basis functions,   981 primitive gaussians,   327 cartesian basis functions
   202 alpha electrons      202 beta electrons
       nuclear repulsion energy      9285.1567349498 Hartrees.



 Warning!  P  atom    1 may be hypervalent but has no d functions.



 IExCor=    0 DFT=F Ex=HF Corr=None ExCW=0 ScaHFX=  1.000000
 ScaDFX=  1.000000  1.000000  1.000000  1.000000 ScalE2=  1.000000  1.000000
 IRadAn=      5 IRanWt=     -1 IRanGd=            0 ICorTp=0 IEmpDi=  4
 NAtoms=  103 NActive=  103 NUniq=  103 SFac= 1.00D+00 NAtFMM=   60 NAOKFM=T Big=T
 Integral buffers will be    131072 words long.
 Raffenetti 1 integral format.
 Two-electron integral symmetry is turned off.
 Leave Link  301 at Mon Oct  6 14:24:52 2025, MaxMem=   104857600 cpu:               0.0 elap:               0.0
 (Enter /home/zhouoh/g16/l402.exe)
 External calculation of energy and first derivatives.
 Running external command "python ../GauUMA_client.py R"
         input file       "/home/zhouoh/scratch/Gau-2814882.EIn"
         output file      "/home/zhouoh/scratch/Gau-2814882.EOu"
         message file     "/home/zhouoh/scratch/Gau-2814882.EMs"
         fchk file        "/home/zhouoh/scratch/Gau-2814882.EFC"
         mat. el file     "/home/zhouoh/scratch/Gau-2814882.EUF"
Sent job to server.
Received result from server:
SCF Done:  E(UMA) =  -2420.6301804611985     A.U.
 Recovered energy= -2420.63018046     dipole=      0.000000000000      0.000000000000      0.000000000000
 Energy=    -2420.63018     NIter=   0.
 Dipole moment=       0.000000       0.000000       0.000000
 Leave Link  402 at Mon Oct  6 14:24:52 2025, MaxMem=   104857600 cpu:               0.0 elap:               0.1
 (Enter /home/zhouoh/g16/l716.exe)
 Dipole        = 0.00000000D+00 0.00000000D+00 0.00000000D+00
 -------------------------------------------------------------------
 Center     Atomic                   Forces (Hartrees/Bohr)
 Number     Number              X              Y              Z
 -------------------------------------------------------------------
      1       15           0.000064020    0.000659522   -0.000377741
      2        8          -0.000012056    0.000044503   -0.000027278
      3        8           0.000003122    0.000004961   -0.000002869
      4        8          -0.000012708    0.000034768   -0.000069356
      5        6           0.000087145   -0.000018183    0.000025527
      6        6           0.000098673    0.000040644    0.000081924
      7        6           0.000003285    0.000140616   -0.000073794
      8        6           0.000045379   -0.000022617    0.000038889
      9        6           0.000058423    0.000009878    0.000079638
     10        6           0.000067580   -0.000006614    0.000003684
     11        6           0.000060635    0.000027481    0.000012450
     12        6           0.000036003   -0.000003200    0.000000106
     13        6           0.000063906    0.000001270   -0.000085365
     14        6           0.000018500   -0.000015468   -0.000009713
     15        6           0.000033287   -0.000027641   -0.000027617
     16        6           0.000028824   -0.000020332   -0.000022012
     17        6           0.000002606   -0.000007695   -0.000031068
     18        6           0.000072578    0.000022825   -0.000036010
     19        6          -0.000003126    0.000011852    0.000021016
     20        6           0.000106304    0.000023712   -0.000081661
     21        6           0.000038644    0.000015362   -0.000042412
     22        6          -0.000006863   -0.000009381   -0.000003476
     23        6           0.000005020    0.000006247   -0.000001017
     24        1          -0.000000233    0.000015805   -0.000010017
     25        1           0.000003162   -0.000005215    0.000005704
     26        1           0.000003808   -0.000003748   -0.000001213
     27        1           0.000003671   -0.000000303    0.000004199
     28        1           0.000000690   -0.000000718    0.000007327
     29        1           0.000006841    0.000003015    0.000008498
     30        1           0.000007865   -0.000014909   -0.000004408
     31        1           0.000006091   -0.000008345   -0.000009361
     32        1           0.000003083    0.000003304   -0.000002164
     33        1           0.000007420   -0.000000340    0.000004657
     34        1           0.000001810   -0.000002283   -0.000002124
     35        1           0.000001244   -0.000004015   -0.000003729
     36        1           0.000001630   -0.000003167   -0.000002893
     37        1          -0.000002293   -0.000000348    0.000005893
     38        1           0.000018006    0.000001799   -0.000019593
     39        1           0.000005554    0.000002697   -0.000005378
     40       46           0.004768670   -0.002376681    0.003488982
     41        1           0.000117838   -0.000040972    0.000070219
     42        6           0.000828656    0.000002083    0.000271816
     43        6           0.000658090    0.000143072    0.000223707
     44        1           0.000124404   -0.000054507    0.000040127
     45        6          -0.001001509    0.000946574   -0.001102283
     46        1          -0.000132178    0.000091918   -0.000143946
     47        6          -0.002778804    0.002144248   -0.002355459
     48        6          -0.001180385    0.001095206   -0.001183374
     49        1          -0.000171131    0.000157308   -0.000133115
     50        6           0.000662551    0.000148138   -0.000008172
     51        1           0.000109108   -0.000012321    0.000076469
     52        1           0.000045245    0.000028521    0.000007543
     53        6           0.000165729    0.000020413    0.000289082
     54        1           0.000013091    0.000008286    0.000068793
     55        1          -0.000000520   -0.000011517   -0.000003697
     56        1           0.000021864   -0.000003951    0.000010251
     57        1           0.000005656   -0.000012797    0.000033037
     58        6           0.000063068   -0.000065952    0.000047585
     59        6          -0.000395251   -0.000521009   -0.000228036
     60        6           0.000311511    0.000246800   -0.000128099
     61        7          -0.002087190   -0.002437443    0.001003752
     62        6          -0.000636173   -0.000463369    0.000369437
     63        1          -0.000013292    0.000013257    0.000019754
     64        6          -0.000183646   -0.000166313    0.000179443
     65        6          -0.000132592    0.000114500    0.000138696
     66        6          -0.000116191   -0.000211101   -0.000057447
     67        1          -0.000000381   -0.000049189    0.000003644
     68        6          -0.000026588    0.000143960    0.000090834
     69        1           0.000002795    0.000018812    0.000010283
     70        6          -0.000039853   -0.000082002   -0.000108231
     71        6           0.000030234    0.000034217   -0.000051820
     72        1           0.000000399   -0.000015149   -0.000014801
     73        1           0.000013030    0.000003927   -0.000006383
     74        1          -0.000048433   -0.000089960   -0.000133470
     75        1           0.000085369    0.000142083   -0.000023629
     76        1           0.000000586   -0.000000428   -0.000000463
     77        1          -0.000000347   -0.000000285    0.000000396
     78        6           0.000003934    0.000086572   -0.000033312
     79        1          -0.000002394    0.000010959   -0.000005938
     80        6          -0.000024979    0.000031666   -0.000033490
     81        1          -0.000001103    0.000004637   -0.000002993
     82        1          -0.000008298    0.000001343   -0.000004127
     83        1          -0.000000631    0.000000048    0.000000185
     84        6          -0.000007913    0.000081869   -0.000006542
     85        1          -0.000000200    0.000008038   -0.000003575
     86        1          -0.000001359    0.000008515    0.000002897
     87        1           0.000002170    0.000007073   -0.000000462
     88        6          -0.000002927   -0.000005420   -0.000002974
     89        1          -0.000002342   -0.000000333    0.000001329
     90        1           0.000001522    0.000001151   -0.000000811
     91        1          -0.000000254   -0.000003420   -0.000001447
     92        6          -0.000004037   -0.000000325    0.000000053
     93        1          -0.000000455   -0.000000261   -0.000000451
     94        1          -0.000000824   -0.000000853   -0.000000131
     95        1           0.000000084   -0.000000582   -0.000000121
     96        6           0.000027187   -0.000013642   -0.000023149
     97        1           0.000003784    0.000000645   -0.000002082
     98        1           0.000000381   -0.000001061   -0.000000635
     99        1           0.000003310   -0.000003614   -0.000002153
    100        6           0.000003050    0.000002155    0.000006702
    101        1           0.000000460   -0.000000186    0.000001137
    102        1          -0.000000645    0.000001389    0.000001595
    103        1           0.000001530   -0.000000472    0.000001816
 -------------------------------------------------------------------
 Cartesian Forces:  Max     0.004768670 RMS     0.000513074
 Z-matrix is all fixed cartesians, so copy forces.
 Leave Link  716 at Mon Oct  6 14:24:52 2025, MaxMem=   104857600 cpu:               0.0 elap:               0.0
 (Enter /home/zhouoh/g16/l123.exe)
 IRC-IRC-IRC-IRC-IRC-IRC-IRC-IRC-IRC-IRC-IRC-IRC-IRC-IRC-IRC-IRC-IRC-IRC
 Pt  2 Step number   1 out of a maximum of  20
 Point Number:   2          Path Number:   1
   CHANGE IN THE REACTION COORDINATE =    0.28877
   NET REACTION COORDINATE UP TO THIS POINT =    0.57770
  # OF POINTS ALONG THE PATH =   2
  # OF STEPS =   1

 Calculating another point on the path.
 Point Number  3 in FORWARD path direction.
 Using LQA Reaction Path Following.
   LQA: T_Est iteration completed in    3 iterations.
 IRC-IRC-IRC-IRC-IRC-IRC-IRC-IRC-IRC-IRC-IRC-IRC-IRC-IRC-IRC-IRC-IRC-IRC
 Leave Link  123 at Mon Oct  6 14:24:52 2025, MaxMem=   104857600 cpu:               0.1 elap:               0.1
 (Enter /home/zhouoh/g16/l202.exe)
 Symmetry turned off by external request.
 Stoichiometry    C43H54NO3PPd
 Framework group  C1[X(C43H54NO3PPd)]
 Deg. of freedom   303
 Full point group                 C1      NOp   1
                          Input orientation:                          
 ---------------------------------------------------------------------
 Center     Atomic      Atomic             Coordinates (Angstroms)
 Number     Number       Type             X           Y           Z
 ---------------------------------------------------------------------
      1         15           0       -0.699639    0.948086   -1.175329
      2          8           0       -2.007096    3.228399   -1.694212
      3          8           0       -3.960073   -1.980571   -0.099092
      4          8           0       -0.957029    0.631006    2.425725
      5          6           0       -1.114087    0.012087   -2.735960
      6          6           0       -2.299436    1.288140   -0.396455
      7          6           0       -0.657373    2.707026   -1.783258
      8          6           0       -2.218626    0.662995   -3.566634
      9          6           0       -1.562563   -1.389808   -2.324596
     10          6           0        0.187489   -0.078948   -3.538568
     11          6           0       -2.784685    2.514005   -0.840578
     12          6           0       -3.025381    0.541521    0.532016
     13          6           0       -2.428269   -0.700843    1.098377
     14          6           0       -4.020645    2.993047   -0.431875
     15          6           0       -4.269898    1.010092    0.937866
     16          6           0       -4.758428    2.218049    0.450418
     17          6           0       -2.873278   -1.971274    0.716265
     18          6           0       -1.351789   -0.606690    1.982002
     19          6           0       -2.192292   -3.110792    1.138756
     20          6           0       -0.664550   -1.737688    2.406742
     21          6           0       -1.084935   -2.980199    1.966331
     22          6           0       -4.434680   -3.218397   -0.643674
     23          6           0       -1.791989    1.171984    3.478156
     24          1           0       -0.401582    2.706950   -2.844450
     25          1           0       -2.421726    0.036733   -4.440199
     26          1           0       -1.944039    1.653986   -3.928782
     27          1           0       -3.145317    0.752841   -2.996420
     28          1           0       -1.654003   -2.017769   -3.216602
     29          1           0       -2.533587   -1.353802   -1.830951
     30          1           0       -0.844072   -1.858099   -1.648122
     31          1           0        0.965747   -0.591459   -2.968792
     32          1           0        0.007459   -0.642682   -4.458162
     33          1           0        0.566692    0.906168   -3.821770
     34          1           0       -4.381128    3.946352   -0.794115
     35          1           0       -4.852652    0.431383    1.643295
     36          1           0       -5.727241    2.571454    0.780554
     37          1           0       -2.509945   -4.095633    0.831573
     38          1           0        0.183448   -1.623061    3.067856
     39          1           0       -0.553657   -3.869306    2.282000
     40         46           0        0.981068    0.032479    0.059326
     41          1           0        4.946975    3.962152   -1.196565
     42          6           0        4.357348    3.123865   -0.849394
     43          6           0        3.663143    3.198343    0.350565
     44          1           0        3.706124    4.102464    0.947286
     45          6           0        2.889195    2.135636    0.792447
     46          1           0        2.324514    2.236316    1.709210
     47          6           0        2.776224    0.986925    0.008459
     48          6           0        3.529312    0.875247   -1.160823
     49          1           0        3.474894   -0.017125   -1.767418
     50          6           0        4.294101    1.951016   -1.590089
     51          1           0        4.836263    1.870088   -2.525033
     52          1           0        3.317753   -0.972920    4.449931
     53          6           0        3.219833   -1.355751    3.431983
     54          1           0        2.449130   -2.132242    3.437257
     55          1           0        4.792539   -2.847209    3.488732
     56          1           0        1.884783    0.251384    2.862873
     57          1           0        5.343585   -1.234566    3.075289
     58          6           0        4.527999   -1.950603    2.923920
     59          6           0        2.807182   -0.216725    2.510949
     60          6           0        4.349333   -2.296045    1.473491
     61          7           0        2.597994   -0.665703    1.137105
     62          6           0        3.412035   -1.707930    0.706401
     63          1           0        5.127301   -2.152594   -1.343214
     64          6           0        3.118858   -2.302247   -0.627216
     65          6           0        4.126753   -2.501940   -1.566602
     66          6           0        1.830430   -2.745897   -0.919946
     67          1           0        1.048295   -2.634583   -0.175188
     68          6           0        3.852249   -3.119388   -2.779370
     69          1           0        4.644901   -3.258307   -3.503743
     70          6           0        1.557573   -3.371505   -2.127435
     71          6           0        2.565528   -3.553611   -3.064510
     72          1           0        0.554837   -3.723865   -2.336029
     73          1           0        2.349946   -4.036160   -4.009345
     74          1           0        3.597692    0.544639    2.547895
     75          1           0        4.873823   -3.148850    1.062604
     76          1           0       -2.802708    0.773964    3.342580
     77          1           0       -3.572150   -3.822407   -0.944309
     78          6           0        0.324334    3.609032   -1.044016
     79          1           0        1.297181    3.112628   -1.126624
     80          6           0       -0.027643    3.748692    0.431445
     81          1           0       -0.995472    4.241986    0.551600
     82          1           0       -0.069225    2.778490    0.931834
     83          1           0        0.723531    4.357182    0.938755
     84          6           0        0.411496    4.973593   -1.720885
     85          1           0       -0.550431    5.488264   -1.680494
     86          1           0        1.152758    5.598231   -1.219622
     87          1           0        0.704889    4.879377   -2.768575
     88          6           0       -5.233726   -2.845082   -1.875601
     89          1           0       -5.639797   -3.741098   -2.346005
     90          1           0       -6.062058   -2.191515   -1.598222
     91          1           0       -4.608372   -2.322939   -2.599166
     92          6           0       -5.279100   -3.959282    0.379002
     93          1           0       -5.614467   -4.913541   -0.029648
     94          1           0       -4.727286   -4.153308    1.297785
     95          1           0       -6.157843   -3.362251    0.627962
     96          6           0       -1.246362    0.737265    4.825061
     97          1           0       -1.871180    1.124269    5.631778
     98          1           0       -1.223151   -0.350391    4.902747
     99          1           0       -0.232098    1.119090    4.957596
    100          6           0       -1.817674    2.672894    3.300793
    101          1           0       -0.805177    3.077496    3.356001
    102          1           0       -2.246104    2.933768    2.332717
    103          1           0       -2.417705    3.133148    4.087377
 ---------------------------------------------------------------------
 Rotational constants (GHZ):           0.0782895           0.0587779           0.0524737
 Leave Link  202 at Mon Oct  6 14:24:52 2025, MaxMem=   104857600 cpu:               0.0 elap:               0.0
 (Enter /home/zhouoh/g16/l301.exe)
 Standard basis: STO-3G (5D, 7F)
 Ernie: Thresh=  0.10000D-02 Tol=  0.10000D-05 Strict=F.
   325 basis functions,   981 primitive gaussians,   327 cartesian basis functions
   202 alpha electrons      202 beta electrons
       nuclear repulsion energy      9285.2266862504 Hartrees.



 Warning!  P  atom    1 may be hypervalent but has no d functions.



 IExCor=    0 DFT=F Ex=HF Corr=None ExCW=0 ScaHFX=  1.000000
 ScaDFX=  1.000000  1.000000  1.000000  1.000000 ScalE2=  1.000000  1.000000
 IRadAn=      5 IRanWt=     -1 IRanGd=            0 ICorTp=0 IEmpDi=  4
 NAtoms=  103 NActive=  103 NUniq=  103 SFac= 1.00D+00 NAtFMM=   60 NAOKFM=T Big=T
 Integral buffers will be    131072 words long.
 Raffenetti 1 integral format.
 Two-electron integral symmetry is turned off.
 Leave Link  301 at Mon Oct  6 14:24:52 2025, MaxMem=   104857600 cpu:               0.0 elap:               0.0
 (Enter /home/zhouoh/g16/l402.exe)
 External calculation of energy and first derivatives.
 Running external command "python ../GauUMA_client.py R"
         input file       "/home/zhouoh/scratch/Gau-2814882.EIn"
         output file      "/home/zhouoh/scratch/Gau-2814882.EOu"
         message file     "/home/zhouoh/scratch/Gau-2814882.EMs"
         fchk file        "/home/zhouoh/scratch/Gau-2814882.EFC"
         mat. el file     "/home/zhouoh/scratch/Gau-2814882.EUF"
Sent job to server.
Received result from server:
SCF Done:  E(UMA) =  -2420.630866609104     A.U.
 Recovered energy= -2420.63086661     dipole=      0.000000000000      0.000000000000      0.000000000000
 Energy=    -2420.63087     NIter=   0.
 Dipole moment=       0.000000       0.000000       0.000000
 Leave Link  402 at Mon Oct  6 14:24:53 2025, MaxMem=   104857600 cpu:               0.0 elap:               0.1
 (Enter /home/zhouoh/g16/l716.exe)
 Dipole        = 0.00000000D+00 0.00000000D+00 0.00000000D+00
 -------------------------------------------------------------------
 Center     Atomic                   Forces (Hartrees/Bohr)
 Number     Number              X              Y              Z
 -------------------------------------------------------------------
      1       15           0.000147532    0.000901257   -0.000494338
      2        8          -0.000015184    0.000062643   -0.000039142
      3        8           0.000007204    0.000006378   -0.000003208
      4        8          -0.000011647    0.000051037   -0.000100596
      5        6           0.000129601   -0.000021242    0.000043430
      6        6           0.000149560    0.000067514    0.000107364
      7        6           0.000014427    0.000209158   -0.000106758
      8        6           0.000070172   -0.000033434    0.000061520
      9        6           0.000089471    0.000013783    0.000118930
     10        6           0.000100132   -0.000009528    0.000005605
     11        6           0.000086444    0.000034767    0.000023450
     12        6           0.000060577   -0.000003250   -0.000004697
     13        6           0.000096166   -0.000002228   -0.000116587
     14        6           0.000035626   -0.000025958   -0.000014747
     15        6           0.000051971   -0.000039177   -0.000042672
     16        6           0.000045785   -0.000031673   -0.000032501
     17        6           0.000008167   -0.000004933   -0.000043893
     18        6           0.000099197    0.000030360   -0.000060956
     19        6          -0.000001194    0.000014944    0.000032458
     20        6           0.000160232    0.000039381   -0.000128477
     21        6           0.000061478    0.000023742   -0.000067678
     22        6          -0.000010424   -0.000014987   -0.000005035
     23        6           0.000007702    0.000008727   -0.000003390
     24        1          -0.000000895    0.000021541   -0.000012320
     25        1           0.000006096   -0.000007639    0.000008709
     26        1           0.000004901   -0.000005045   -0.000000946
     27        1           0.000005922   -0.000001875    0.000006159
     28        1          -0.000000403    0.000001264    0.000009351
     29        1           0.000010929    0.000004225    0.000013861
     30        1           0.000010938   -0.000017246   -0.000005998
     31        1           0.000009395   -0.000011244   -0.000011411
     32        1           0.000003865    0.000004292   -0.000002729
     33        1           0.000010531   -0.000000433    0.000004827
     34        1           0.000002816   -0.000003925   -0.000003360
     35        1           0.000002497   -0.000006238   -0.000005910
     36        1           0.000002020   -0.000004359   -0.000004134
     37        1          -0.000003062    0.000000240    0.000008920
     38        1           0.000026096    0.000002199   -0.000027158
     39        1           0.000008570    0.000003627   -0.000008590
     40       46           0.006490477   -0.003424254    0.004894354
     41        1           0.000178643   -0.000064353    0.000105533
     42        6           0.001244916   -0.000019126    0.000429049
     43        6           0.000904410    0.000183394    0.000279060
     44        1           0.000177286   -0.000063264    0.000065627
     45        6          -0.001442214    0.001339530   -0.001530384
     46        1          -0.000186491    0.000125664   -0.000193781
     47        6          -0.003782616    0.003182924   -0.003395793
     48        6          -0.001725629    0.001563644   -0.001710925
     49        1          -0.000244550    0.000211550   -0.000177955
     50        6           0.000870213    0.000184424   -0.000003762
     51        1           0.000158835   -0.000017574    0.000094835
     52        1           0.000062939    0.000038998    0.000011284
     53        6           0.000224269    0.000034395    0.000398482
     54        1           0.000020626    0.000008865    0.000095856
     55        1          -0.000002610   -0.000015467   -0.000007331
     56        1           0.000020855   -0.000001420    0.000016967
     57        1           0.000008916   -0.000016802    0.000044069
     58        6           0.000083221   -0.000069432    0.000057614
     59        6          -0.000539982   -0.000713568   -0.000268875
     60        6           0.000427016    0.000366969   -0.000171751
     61        7          -0.002959306   -0.003548218    0.001484100
     62        6          -0.000824059   -0.000665366    0.000500255
     63        1          -0.000020547    0.000020457    0.000027873
     64        6          -0.000273636   -0.000233441    0.000251477
     65        6          -0.000196107    0.000167654    0.000193937
     66        6          -0.000166991   -0.000314284   -0.000071738
     67        1          -0.000006743   -0.000071107    0.000005336
     68        6          -0.000038133    0.000212432    0.000126895
     69        1           0.000004144    0.000029147    0.000014875
     70        6          -0.000058258   -0.000130389   -0.000161445
     71        6           0.000046023    0.000048987   -0.000078799
     72        1           0.000000841   -0.000023080   -0.000021806
     73        1           0.000018709    0.000006380   -0.000009581
     74        1          -0.000058779   -0.000099870   -0.000182409
     75        1           0.000131114    0.000170015   -0.000041797
     76        1           0.000001305   -0.000000363   -0.000001024
     77        1          -0.000000529   -0.000000428    0.000000586
     78        6           0.000003663    0.000132864   -0.000051193
     79        1          -0.000004040    0.000018992   -0.000009353
     80        6          -0.000042416    0.000050156   -0.000052013
     81        1          -0.000002418    0.000006959   -0.000004927
     82        1          -0.000012399    0.000002772   -0.000005026
     83        1          -0.000001706   -0.000001075   -0.000000244
     84        6          -0.000013988    0.000129337   -0.000010856
     85        1          -0.000000579    0.000011994   -0.000003934
     86        1          -0.000001982    0.000010491    0.000002495
     87        1           0.000002663    0.000011141   -0.000000588
     88        6          -0.000003274   -0.000008063   -0.000004016
     89        1          -0.000001820   -0.000000532    0.000000953
     90        1           0.000000695    0.000000673   -0.000000797
     91        1          -0.000000438   -0.000003039   -0.000001402
     92        6          -0.000006241   -0.000000687    0.000000461
     93        1          -0.000000615    0.000000334   -0.000000210
     94        1          -0.000001363   -0.000001192   -0.000000007
     95        1          -0.000000795   -0.000000138    0.000000030
     96        6           0.000039925   -0.000021168   -0.000033137
     97        1           0.000003955   -0.000000522   -0.000002814
     98        1           0.000001831   -0.000001585   -0.000001910
     99        1           0.000004322   -0.000003837   -0.000003235
    100        6           0.000005256    0.000004729    0.000009322
    101        1           0.000000750   -0.000000325    0.000001769
    102        1          -0.000001386    0.000002301    0.000002205
    103        1           0.000001611   -0.000000865    0.000002171
 -------------------------------------------------------------------
 Cartesian Forces:  Max     0.006490477 RMS     0.000720946
 Z-matrix is all fixed cartesians, so copy forces.
 Leave Link  716 at Mon Oct  6 14:24:53 2025, MaxMem=   104857600 cpu:               0.0 elap:               0.0
 (Enter /home/zhouoh/g16/l123.exe)
 IRC-IRC-IRC-IRC-IRC-IRC-IRC-IRC-IRC-IRC-IRC-IRC-IRC-IRC-IRC-IRC-IRC-IRC
 Pt  3 Step number   1 out of a maximum of  20
 Point Number:   3          Path Number:   1
   CHANGE IN THE REACTION COORDINATE =    0.28883
   NET REACTION COORDINATE UP TO THIS POINT =    0.86653
  # OF POINTS ALONG THE PATH =   3
  # OF STEPS =   1

 Calculating another point on the path.
 Point Number  4 in FORWARD path direction.
 Using LQA Reaction Path Following.
   LQA: T_Est iteration completed in    3 iterations.
 IRC-IRC-IRC-IRC-IRC-IRC-IRC-IRC-IRC-IRC-IRC-IRC-IRC-IRC-IRC-IRC-IRC-IRC
 Leave Link  123 at Mon Oct  6 14:24:53 2025, MaxMem=   104857600 cpu:               0.1 elap:               0.1
 (Enter /home/zhouoh/g16/l202.exe)
 Symmetry turned off by external request.
 Stoichiometry    C43H54NO3PPd
 Framework group  C1[X(C43H54NO3PPd)]
 Deg. of freedom   303
 Full point group                 C1      NOp   1
                          Input orientation:                          
 ---------------------------------------------------------------------
 Center     Atomic      Atomic             Coordinates (Angstroms)
 Number     Number       Type             X           Y           Z
 ---------------------------------------------------------------------
      1         15           0       -0.699371    0.949681   -1.176205
      2          8           0       -2.007127    3.228604   -1.694350
      3          8           0       -3.960052   -1.980547   -0.099106
      4          8           0       -0.957059    0.631199    2.425378
      5          6           0       -1.113484    0.011992   -2.735769
      6          6           0       -2.298763    1.288476   -0.395956
      7          6           0       -0.657306    2.708018   -1.783757
      8          6           0       -2.218298    0.662850   -3.566332
      9          6           0       -1.562141   -1.389754   -2.324048
     10          6           0        0.187957   -0.078994   -3.538544
     11          6           0       -2.784295    2.514145   -0.840458
     12          6           0       -3.025079    0.541506    0.531985
     13          6           0       -2.427831   -0.700872    1.097851
     14          6           0       -4.020464    2.992917   -0.431945
     15          6           0       -4.269654    1.009905    0.937666
     16          6           0       -4.758213    2.217905    0.450265
     17          6           0       -2.873221   -1.971291    0.716075
     18          6           0       -1.351335   -0.606563    1.981706
     19          6           0       -2.192297   -3.110719    1.138903
     20          6           0       -0.663799   -1.737520    2.406133
     21          6           0       -1.084643   -2.980075    1.966017
     22          6           0       -4.434728   -3.218467   -0.643695
     23          6           0       -1.791952    1.172017    3.478147
     24          1           0       -0.401629    2.707960   -2.844955
     25          1           0       -2.421294    0.036278   -4.439648
     26          1           0       -1.943777    1.653718   -3.928823
     27          1           0       -3.144964    0.752726   -2.996093
     28          1           0       -1.654010   -2.017566   -3.216068
     29          1           0       -2.532996   -1.353561   -1.830111
     30          1           0       -0.843486   -1.859033   -1.648388
     31          1           0        0.966323   -0.592072   -2.969419
     32          1           0        0.007646   -0.642415   -4.458230
     33          1           0        0.567274    0.906124   -3.821520
     34          1           0       -4.380968    3.946149   -0.794315
     35          1           0       -4.852450    0.431055    1.642921
     36          1           0       -5.727084    2.571212    0.780308
     37          1           0       -2.510129   -4.095610    0.832059
     38          1           0        0.184813   -1.622936    3.066422
     39          1           0       -0.553161   -3.869099    2.281502
     40         46           0        0.984429    0.030693    0.061871
     41          1           0        4.957750    3.959724   -1.191315
     42          6           0        4.363048    3.123583   -0.847444
     43          6           0        3.667479    3.199402    0.351697
     44          1           0        3.716211    4.101117    0.951554
     45          6           0        2.882503    2.141579    0.785621
     46          1           0        2.313346    2.242951    1.699672
     47          6           0        2.758630    1.001255   -0.007214
     48          6           0        3.521190    0.882177   -1.168305
     49          1           0        3.460696   -0.007835   -1.778238
     50          6           0        4.298318    1.952329   -1.590189
     51          1           0        4.846002    1.869852   -2.521749
     52          1           0        3.321396   -0.970914    4.450944
     53          6           0        3.220864   -1.355579    3.433896
     54          1           0        2.450164   -2.132194    3.442458
     55          1           0        4.792324   -2.848185    3.488347
     56          1           0        1.884985    0.251315    2.864595
     57          1           0        5.344162   -1.235391    3.077385
     58          6           0        4.528326   -1.950869    2.924182
     59          6           0        2.804677   -0.220076    2.509688
     60          6           0        4.351489   -2.294433    1.472927
     61          7           0        2.586348   -0.679678    1.142622
     62          6           0        3.407900   -1.710635    0.708755
     63          1           0        5.126089   -2.151419   -1.341684
     64          6           0        3.117635   -2.303331   -0.626117
     65          6           0        4.125846   -2.501172   -1.565716
     66          6           0        1.829677   -2.747311   -0.920246
     67          1           0        1.047850   -2.638667   -0.174760
     68          6           0        3.852079   -3.118409   -2.778810
     69          1           0        4.645109   -3.256661   -3.502928
     70          6           0        1.557304   -3.372131   -2.128193
     71          6           0        2.565735   -3.553381   -3.064864
     72          1           0        0.554865   -3.725155   -2.337260
     73          1           0        2.350951   -4.035835   -4.009935
     74          1           0        3.596455    0.540817    2.538244
     75          1           0        4.882648   -3.141713    1.059318
     76          1           0       -2.802653    0.773942    3.342524
     77          1           0       -3.572162   -3.822442   -0.944271
     78          6           0        0.324344    3.609659   -1.044246
     79          1           0        1.297268    3.113616   -1.127082
     80          6           0       -0.027854    3.748928    0.431199
     81          1           0       -0.995601    4.242381    0.551307
     82          1           0       -0.069814    2.778745    0.931588
     83          1           0        0.723422    4.357016    0.938708
     84          6           0        0.411423    4.974209   -1.720947
     85          1           0       -0.550489    5.488911   -1.680676
     86          1           0        1.152640    5.598713   -1.219514
     87          1           0        0.705045    4.880019   -2.768565
     88          6           0       -5.233742   -2.845118   -1.875616
     89          1           0       -5.639875   -3.741119   -2.345973
     90          1           0       -6.062038   -2.191498   -1.598267
     91          1           0       -4.608382   -2.323079   -2.599257
     92          6           0       -5.279132   -3.959282    0.379003
     93          1           0       -5.614502   -4.913526   -0.029656
     94          1           0       -4.727357   -4.153378    1.297793
     95          1           0       -6.157878   -3.362260    0.627964
     96          6           0       -1.246179    0.737172    4.824906
     97          1           0       -1.870986    1.124211    5.631609
     98          1           0       -1.223016   -0.350477    4.902623
     99          1           0       -0.231889    1.118859    4.957399
    100          6           0       -1.817647    2.672915    3.300835
    101          1           0       -0.805153    3.077479    3.356086
    102          1           0       -2.246169    2.933919    2.332826
    103          1           0       -2.417618    3.133093    4.087492
 ---------------------------------------------------------------------
 Rotational constants (GHZ):           0.0782672           0.0587871           0.0524729
 Leave Link  202 at Mon Oct  6 14:24:53 2025, MaxMem=   104857600 cpu:               0.0 elap:               0.0
 (Enter /home/zhouoh/g16/l301.exe)
 Standard basis: STO-3G (5D, 7F)
 Ernie: Thresh=  0.10000D-02 Tol=  0.10000D-05 Strict=F.
   325 basis functions,   981 primitive gaussians,   327 cartesian basis functions
   202 alpha electrons      202 beta electrons
       nuclear repulsion energy      9285.2628129864 Hartrees.



 Warning!  P  atom    1 may be hypervalent but has no d functions.



 IExCor=    0 DFT=F Ex=HF Corr=None ExCW=0 ScaHFX=  1.000000
 ScaDFX=  1.000000  1.000000  1.000000  1.000000 ScalE2=  1.000000  1.000000
 IRadAn=      5 IRanWt=     -1 IRanGd=            0 ICorTp=0 IEmpDi=  4
 NAtoms=  103 NActive=  103 NUniq=  103 SFac= 1.00D+00 NAtFMM=   60 NAOKFM=T Big=T
 Integral buffers will be    131072 words long.
 Raffenetti 1 integral format.
 Two-electron integral symmetry is turned off.
 Leave Link  301 at Mon Oct  6 14:24:53 2025, MaxMem=   104857600 cpu:               0.0 elap:               0.0
 (Enter /home/zhouoh/g16/l402.exe)
 External calculation of energy and first derivatives.
 Running external command "python ../GauUMA_client.py R"
         input file       "/home/zhouoh/scratch/Gau-2814882.EIn"
         output file      "/home/zhouoh/scratch/Gau-2814882.EOu"
         message file     "/home/zhouoh/scratch/Gau-2814882.EMs"
         fchk file        "/home/zhouoh/scratch/Gau-2814882.EFC"
         mat. el file     "/home/zhouoh/scratch/Gau-2814882.EUF"
Sent job to server.
Received result from server:
SCF Done:  E(UMA) =  -2420.6317728163976     A.U.
 Recovered energy= -2420.63177282     dipole=      0.000000000000      0.000000000000      0.000000000000
 Energy=    -2420.63177     NIter=   0.
 Dipole moment=       0.000000       0.000000       0.000000
 Leave Link  402 at Mon Oct  6 14:24:53 2025, MaxMem=   104857600 cpu:               0.0 elap:               0.1
 (Enter /home/zhouoh/g16/l716.exe)
 Dipole        = 0.00000000D+00 0.00000000D+00 0.00000000D+00
 -------------------------------------------------------------------
 Center     Atomic                   Forces (Hartrees/Bohr)
 Number     Number              X              Y              Z
 -------------------------------------------------------------------
      1       15           0.000262588    0.001072670   -0.000550178
      2        8          -0.000015222    0.000078618   -0.000049749
      3        8           0.000009251    0.000007516   -0.000005226
      4        8          -0.000007610    0.000069402   -0.000128317
      5        6           0.000167476   -0.000021204    0.000062249
      6        6           0.000192652    0.000091050    0.000127584
      7        6           0.000025772    0.000264839   -0.000134512
      8        6           0.000095600   -0.000044551    0.000086141
      9        6           0.000121219    0.000015711    0.000152907
     10        6           0.000129811   -0.000013004    0.000008807
     11        6           0.000110231    0.000040198    0.000029127
     12        6           0.000088782   -0.000000385   -0.000012340
     13        6           0.000122823   -0.000007411   -0.000143502
     14        6           0.000057064   -0.000038078   -0.000019125
     15        6           0.000069527   -0.000051738   -0.000056164
     16        6           0.000059611   -0.000040588   -0.000041501
     17        6           0.000018129   -0.000002540   -0.000051931
     18        6           0.000123568    0.000032652   -0.000083720
     19        6           0.000000684    0.000018896    0.000041425
     20        6           0.000208958    0.000054783   -0.000171319
     21        6           0.000084880    0.000033087   -0.000092926
     22        6          -0.000012907   -0.000019573   -0.000005341
     23        6           0.000013066    0.000009676   -0.000006824
     24        1          -0.000000462    0.000027476   -0.000014331
     25        1           0.000008316   -0.000009903    0.000011289
     26        1           0.000006076   -0.000005860   -0.000000851
     27        1           0.000008363   -0.000003017    0.000007950
     28        1          -0.000001764    0.000003222    0.000011202
     29        1           0.000015195    0.000005523    0.000019147
     30        1           0.000014159   -0.000017987   -0.000006203
     31        1           0.000012935   -0.000014319   -0.000012152
     32        1           0.000004759    0.000005606   -0.000003120
     33        1           0.000013872   -0.000000576    0.000005405
     34        1           0.000003278   -0.000004352   -0.000005068
     35        1           0.000004255   -0.000008079   -0.000008829
     36        1           0.000004193   -0.000006177   -0.000005756
     37        1          -0.000003892    0.000000071    0.000011349
     38        1           0.000034173    0.000002447   -0.000035430
     39        1           0.000012248    0.000004644   -0.000012024
     40       46           0.007793939   -0.004285940    0.006029389
     41        1           0.000240800   -0.000083937    0.000137586
     42        6           0.001632979   -0.000050297    0.000571826
     43        6           0.001124700    0.000251978    0.000316000
     44        1           0.000228019   -0.000069871    0.000087894
     45        6          -0.001832683    0.001725445   -0.001929343
     46        1          -0.000226940    0.000156356   -0.000227659
     47        6          -0.004562991    0.003988817   -0.004213470
     48        6          -0.002236468    0.002023271   -0.002197415
     49        1          -0.000301640    0.000249743   -0.000219773
     50        6           0.001049548    0.000247623   -0.000028277
     51        1           0.000202810   -0.000020435    0.000109893
     52        1           0.000081565    0.000047304    0.000016827
     53        6           0.000288678    0.000044490    0.000516642
     54        1           0.000028385    0.000009749    0.000122175
     55        1          -0.000003781   -0.000020375   -0.000010343
     56        1           0.000019579   -0.000002605    0.000022832
     57        1           0.000011263   -0.000020057    0.000052289
     58        6           0.000111234   -0.000067930    0.000074726
     59        6          -0.000663256   -0.000902607   -0.000289825
     60        6           0.000550411    0.000473103   -0.000211240
     61        7          -0.003785119   -0.004511778    0.001895903
     62        6          -0.000964565   -0.000870355    0.000629144
     63        1          -0.000027167    0.000027008    0.000035084
     64        6          -0.000353810   -0.000306807    0.000316194
     65        6          -0.000256019    0.000215465    0.000246210
     66        6          -0.000214444   -0.000415446   -0.000081297
     67        1          -0.000012279   -0.000089884    0.000007018
     68        6          -0.000048923    0.000278735    0.000154385
     69        1           0.000004913    0.000039131    0.000018776
     70        6          -0.000072252   -0.000177188   -0.000210962
     71        6           0.000059254    0.000063765   -0.000104911
     72        1           0.000001217   -0.000030274   -0.000028041
     73        1           0.000023734    0.000008242   -0.000013332
     74        1          -0.000069369   -0.000117506   -0.000230031
     75        1           0.000175769    0.000198032   -0.000055811
     76        1           0.000001791   -0.000000505   -0.000001521
     77        1          -0.000000547   -0.000000742    0.000000736
     78        6          -0.000000101    0.000178502   -0.000069516
     79        1          -0.000005703    0.000026480   -0.000013105
     80        6          -0.000060408    0.000069553   -0.000069737
     81        1          -0.000003829    0.000009724   -0.000006763
     82        1          -0.000016182    0.000004002   -0.000006914
     83        1          -0.000002633   -0.000001533   -0.000000163
     84        6          -0.000023088    0.000178031   -0.000016331
     85        1          -0.000001463    0.000016307   -0.000004618
     86        1          -0.000002394    0.000013201    0.000002425
     87        1           0.000002877    0.000015476   -0.000000416
     88        6          -0.000004487   -0.000010321   -0.000004490
     89        1          -0.000001365   -0.000000651    0.000000710
     90        1           0.000000426    0.000000153   -0.000000939
     91        1          -0.000000174   -0.000002803   -0.000001606
     92        6          -0.000009999   -0.000000099    0.000000653
     93        1          -0.000000789    0.000000541   -0.000000217
     94        1          -0.000001342   -0.000001647    0.000000510
     95        1          -0.000000607   -0.000000377   -0.000000052
     96        6           0.000050317   -0.000027395   -0.000044319
     97        1           0.000004514   -0.000001675   -0.000003792
     98        1           0.000003193   -0.000002133   -0.000002959
     99        1           0.000005625   -0.000004357   -0.000003999
    100        6           0.000006062    0.000006710    0.000011286
    101        1           0.000001086    0.000000121    0.000002172
    102        1          -0.000001601    0.000002957    0.000002791
    103        1           0.000002080   -0.000001233    0.000002975
 -------------------------------------------------------------------
 Cartesian Forces:  Max     0.007793939 RMS     0.000892113
 Z-matrix is all fixed cartesians, so copy forces.
 Leave Link  716 at Mon Oct  6 14:24:53 2025, MaxMem=   104857600 cpu:               0.0 elap:               0.0
 (Enter /home/zhouoh/g16/l123.exe)
 IRC-IRC-IRC-IRC-IRC-IRC-IRC-IRC-IRC-IRC-IRC-IRC-IRC-IRC-IRC-IRC-IRC-IRC
 Pt  4 Step number   1 out of a maximum of  20
 Point Number:   4          Path Number:   1
   CHANGE IN THE REACTION COORDINATE =    0.28884
   NET REACTION COORDINATE UP TO THIS POINT =    1.15538
  # OF POINTS ALONG THE PATH =   4
  # OF STEPS =   1

 Calculating another point on the path.
 Point Number  5 in FORWARD path direction.
 Using LQA Reaction Path Following.
   LQA: T_Est iteration completed in    3 iterations.
 IRC-IRC-IRC-IRC-IRC-IRC-IRC-IRC-IRC-IRC-IRC-IRC-IRC-IRC-IRC-IRC-IRC-IRC
 Leave Link  123 at Mon Oct  6 14:24:53 2025, MaxMem=   104857600 cpu:               0.1 elap:               0.1
 (Enter /home/zhouoh/g16/l202.exe)
 Symmetry turned off by external request.
 Stoichiometry    C43H54NO3PPd
 Framework group  C1[X(C43H54NO3PPd)]
 Deg. of freedom   303
 Full point group                 C1      NOp   1
                          Input orientation:                          
 ---------------------------------------------------------------------
 Center     Atomic      Atomic             Coordinates (Angstroms)
 Number     Number       Type             X           Y           Z
 ---------------------------------------------------------------------
      1         15           0       -0.698984    0.951201   -1.176977
      2          8           0       -2.007148    3.228812   -1.694491
      3          8           0       -3.960026   -1.980526   -0.099120
      4          8           0       -0.957074    0.631396    2.425023
      5          6           0       -1.112854    0.011910   -2.735540
      6          6           0       -2.298048    1.288810   -0.395478
      7          6           0       -0.657214    2.708998   -1.784254
      8          6           0       -2.217944    0.662696   -3.566001
      9          6           0       -1.561686   -1.389695   -2.323485
     10          6           0        0.188441   -0.079045   -3.538507
     11          6           0       -2.783882    2.514279   -0.840350
     12          6           0       -3.024744    0.541503    0.531936
     13          6           0       -2.427384   -0.700899    1.097323
     14          6           0       -4.020252    2.992776   -0.432016
     15          6           0       -4.269390    1.009713    0.937452
     16          6           0       -4.757982    2.217753    0.450108
     17          6           0       -2.873151   -1.971304    0.715887
     18          6           0       -1.350874   -0.606437    1.981397
     19          6           0       -2.192293   -3.110646    1.139053
     20          6           0       -0.663018   -1.737336    2.405488
     21          6           0       -1.084318   -2.979942    1.965672
     22          6           0       -4.434774   -3.218537   -0.643713
     23          6           0       -1.791901    1.172048    3.478123
     24          1           0       -0.401660    2.709004   -2.845462
     25          1           0       -2.420845    0.035820   -4.439074
     26          1           0       -1.943509    1.653448   -3.928839
     27          1           0       -3.144585    0.752594   -2.995738
     28          1           0       -1.654033   -2.017358   -3.215519
     29          1           0       -2.532351   -1.353310   -1.829217
     30          1           0       -0.842841   -1.859917   -1.648643
     31          1           0        0.966905   -0.592686   -2.970007
     32          1           0        0.007850   -0.642155   -4.458287
     33          1           0        0.567881    0.906074   -3.821265
     34          1           0       -4.380788    3.945929   -0.794527
     35          1           0       -4.852227    0.430700    1.642516
     36          1           0       -5.726912    2.570956    0.780053
     37          1           0       -2.510307   -4.095591    0.832556
     38          1           0        0.186270   -1.622797    3.064877
     39          1           0       -0.552608   -3.868879    2.280949
     40         46           0        0.987639    0.028916    0.064366
     41          1           0        4.969192    3.956984   -1.185689
     42          6           0        4.369021    3.123226   -0.845356
     43          6           0        3.671786    3.200523    0.352735
     44          1           0        3.726422    4.099671    0.955874
     45          6           0        2.875774    2.147729    0.778669
     46          1           0        2.302544    2.249700    1.690226
     47          6           0        2.741676    1.015648   -0.022657
     48          6           0        3.512835    0.889391   -1.176063
     49          1           0        3.446664    0.001591   -1.789019
     50          6           0        4.302359    1.953659   -1.590374
     51          1           0        4.855667    1.869460   -2.518416
     52          1           0        3.325150   -0.968908    4.452013
     53          6           0        3.221953   -1.355406    3.435879
     54          1           0        2.451259   -2.132122    3.447802
     55          1           0        4.792169   -2.849145    3.487911
     56          1           0        1.885185    0.251232    2.866325
     57          1           0        5.344785   -1.236181    3.079532
     58          6           0        4.528708   -1.951087    2.924453
     59          6           0        2.802165   -0.223487    2.508567
     60          6           0        4.353734   -2.292777    1.472363
     61          7           0        2.574507   -0.693918    1.148366
     62          6           0        3.403970   -1.713500    0.711085
     63          1           0        5.124827   -2.150215   -1.340127
     64          6           0        3.116377   -2.304497   -0.624989
     65          6           0        4.124896   -2.500388   -1.564822
     66          6           0        1.828889   -2.748833   -0.920524
     67          1           0        1.047320   -2.642778   -0.174377
     68          6           0        3.851900   -3.117374   -2.778261
     69          1           0        4.645319   -3.254898   -3.502122
     70          6           0        1.557039   -3.372803   -2.128973
     71          6           0        2.565954   -3.553141   -3.065246
     72          1           0        0.554903   -3.726494   -2.338535
     73          1           0        2.351989   -4.035475   -4.010570
     74          1           0        3.595100    0.536933    2.528497
     75          1           0        4.891577   -3.134516    1.056167
     76          1           0       -2.802584    0.773918    3.342453
     77          1           0       -3.572177   -3.822482   -0.944232
     78          6           0        0.324329    3.610338   -1.044499
     79          1           0        1.297325    3.114681   -1.127598
     80          6           0       -0.028088    3.749192    0.430937
     81          1           0       -0.995751    4.242812    0.550991
     82          1           0       -0.070466    2.779009    0.931291
     83          1           0        0.723281    4.356872    0.938676
     84          6           0        0.411327    4.974886   -1.721015
     85          1           0       -0.550564    5.489630   -1.680860
     86          1           0        1.152512    5.599250   -1.219419
     87          1           0        0.705167    4.880726   -2.768567
     88          6           0       -5.233757   -2.845155   -1.875631
     89          1           0       -5.639927   -3.741144   -2.345955
     90          1           0       -6.062031   -2.191500   -1.598310
     91          1           0       -4.608391   -2.323195   -2.599330
     92          6           0       -5.279168   -3.959282    0.379007
     93          1           0       -5.614542   -4.913510   -0.029664
     94          1           0       -4.727430   -4.153448    1.297803
     95          1           0       -6.157915   -3.362267    0.627968
     96          6           0       -1.245991    0.737073    4.824740
     97          1           0       -1.870801    1.124124    5.631429
     98          1           0       -1.222855   -0.350570    4.902475
     99          1           0       -0.231681    1.118644    4.957210
    100          6           0       -1.817621    2.672939    3.300876
    101          1           0       -0.805132    3.077477    3.356170
    102          1           0       -2.246242    2.934072    2.332938
    103          1           0       -2.417530    3.133028    4.087616
 ---------------------------------------------------------------------
 Rotational constants (GHZ):           0.0782440           0.0587962           0.0524717
 Leave Link  202 at Mon Oct  6 14:24:53 2025, MaxMem=   104857600 cpu:               0.0 elap:               0.0
 (Enter /home/zhouoh/g16/l301.exe)
 Standard basis: STO-3G (5D, 7F)
 Ernie: Thresh=  0.10000D-02 Tol=  0.10000D-05 Strict=F.
   325 basis functions,   981 primitive gaussians,   327 cartesian basis functions
   202 alpha electrons      202 beta electrons
       nuclear repulsion energy      9285.2430157434 Hartrees.



 Warning!  P  atom    1 may be hypervalent but has no d functions.



 IExCor=    0 DFT=F Ex=HF Corr=None ExCW=0 ScaHFX=  1.000000
 ScaDFX=  1.000000  1.000000  1.000000  1.000000 ScalE2=  1.000000  1.000000
 IRadAn=      5 IRanWt=     -1 IRanGd=            0 ICorTp=0 IEmpDi=  4
 NAtoms=  103 NActive=  103 NUniq=  103 SFac= 1.00D+00 NAtFMM=   60 NAOKFM=T Big=T
 Integral buffers will be    131072 words long.
 Raffenetti 1 integral format.
 Two-electron integral symmetry is turned off.
 Leave Link  301 at Mon Oct  6 14:24:53 2025, MaxMem=   104857600 cpu:               0.0 elap:               0.0
 (Enter /home/zhouoh/g16/l402.exe)
 External calculation of energy and first derivatives.
 Running external command "python ../GauUMA_client.py R"
         input file       "/home/zhouoh/scratch/Gau-2814882.EIn"
         output file      "/home/zhouoh/scratch/Gau-2814882.EOu"
         message file     "/home/zhouoh/scratch/Gau-2814882.EMs"
         fchk file        "/home/zhouoh/scratch/Gau-2814882.EFC"
         mat. el file     "/home/zhouoh/scratch/Gau-2814882.EUF"
Sent job to server.
Received result from server:
SCF Done:  E(UMA) =  -2420.6328592698183     A.U.
 Recovered energy= -2420.63285927     dipole=      0.000000000000      0.000000000000      0.000000000000
 Energy=    -2420.63286     NIter=   0.
 Dipole moment=       0.000000       0.000000       0.000000
 Leave Link  402 at Mon Oct  6 14:24:53 2025, MaxMem=   104857600 cpu:               0.0 elap:               0.1
 (Enter /home/zhouoh/g16/l716.exe)
 Dipole        = 0.00000000D+00 0.00000000D+00 0.00000000D+00
 -------------------------------------------------------------------
 Center     Atomic                   Forces (Hartrees/Bohr)
 Number     Number              X              Y              Z
 -------------------------------------------------------------------
      1       15           0.000400997    0.001155472   -0.000534541
      2        8          -0.000011572    0.000094240   -0.000061880
      3        8           0.000009439    0.000006109   -0.000009001
      4        8          -0.000000838    0.000087898   -0.000152865
      5        6           0.000199189   -0.000017791    0.000080319
      6        6           0.000229776    0.000111946    0.000133452
      7        6           0.000036120    0.000299814   -0.000153839
      8        6           0.000120989   -0.000054924    0.000108703
      9        6           0.000154116    0.000017334    0.000182722
     10        6           0.000156727   -0.000018315    0.000014832
     11        6           0.000132085    0.000041306    0.000034121
     12        6           0.000115177    0.000003164   -0.000021632
     13        6           0.000146071   -0.000013152   -0.000161706
     14        6           0.000071010   -0.000043098   -0.000024278
     15        6           0.000088758   -0.000061167   -0.000071169
     16        6           0.000074919   -0.000050832   -0.000049730
     17        6           0.000028093    0.000001448   -0.000055522
     18        6           0.000141550    0.000032404   -0.000103863
     19        6           0.000003243    0.000021001    0.000047509
     20        6           0.000248323    0.000066546   -0.000209110
     21        6           0.000109322    0.000042985   -0.000115861
     22        6          -0.000014518   -0.000020676   -0.000004453
     23        6           0.000019345    0.000009010   -0.000013669
     24        1          -0.000000102    0.000032079   -0.000015437
     25        1           0.000009587   -0.000011896    0.000013100
     26        1           0.000007262   -0.000006685   -0.000000332
     27        1           0.000010734   -0.000003817    0.000010266
     28        1          -0.000003196    0.000005026    0.000012011
     29        1           0.000019180    0.000006749    0.000023371
     30        1           0.000017463   -0.000016482   -0.000005078
     31        1           0.000013865   -0.000015713   -0.000012844
     32        1           0.000005360    0.000006736   -0.000003523
     33        1           0.000017011   -0.000000381    0.000006352
     34        1           0.000003858   -0.000005690   -0.000005778
     35        1           0.000005080   -0.000010501   -0.000010730
     36        1           0.000003999   -0.000006893   -0.000006558
     37        1          -0.000004085    0.000000301    0.000013358
     38        1           0.000040725    0.000002750   -0.000043030
     39        1           0.000015243    0.000005368   -0.000015394
     40       46           0.008614622   -0.004908624    0.006833035
     41        1           0.000297887   -0.000107701    0.000169379
     42        6           0.001992691   -0.000078935    0.000694389
     43        6           0.001292379    0.000329611    0.000328411
     44        1           0.000267231   -0.000076663    0.000103136
     45        6          -0.002135699    0.002082926   -0.002274153
     46        1          -0.000250850    0.000177645   -0.000246498
     47        6          -0.005069055    0.004581924   -0.004793730
     48        6          -0.002661059    0.002449912   -0.002625085
     49        1          -0.000339113    0.000273534   -0.000253998
     50        6           0.001168605    0.000334487   -0.000078908
     51        1           0.000233615   -0.000023386    0.000119315
     52        1           0.000100028    0.000053309    0.000020866
     53        6           0.000360446    0.000051264    0.000640521
     54        1           0.000037620    0.000011595    0.000146930
     55        1          -0.000001226   -0.000023751   -0.000012854
     56        1           0.000019387   -0.000003692    0.000028903
     57        1           0.000015632   -0.000023142    0.000058731
     58        6           0.000148550   -0.000067740    0.000095335
     59        6          -0.000773664   -0.001084801   -0.000285644
     60        6           0.000680626    0.000565138   -0.000233690
     61        7          -0.004500119   -0.005336415    0.002242210
     62        6          -0.001085321   -0.001056219    0.000738233
     63        1          -0.000032129    0.000032647    0.000041048
     64        6          -0.000418802   -0.000389768    0.000371533
     65        6          -0.000312285    0.000254683    0.000293165
     66        6          -0.000259555   -0.000515621   -0.000083288
     67        1          -0.000017719   -0.000103280    0.000007198
     68        6          -0.000058570    0.000342712    0.000173287
     69        1           0.000004995    0.000048774    0.000022000
     70        6          -0.000082362   -0.000221793   -0.000255579
     71        6           0.000073246    0.000079867   -0.000129989
     72        1           0.000002040   -0.000035912   -0.000033379
     73        1           0.000028519    0.000010435   -0.000016858
     74        1          -0.000078204   -0.000140252   -0.000273042
     75        1           0.000211857    0.000230015   -0.000063530
     76        1           0.000002682   -0.000000474   -0.000001908
     77        1          -0.000000811   -0.000001391    0.000000818
     78        6          -0.000008237    0.000225548   -0.000087849
     79        1          -0.000007307    0.000033104   -0.000016784
     80        6          -0.000078271    0.000090717   -0.000086805
     81        1          -0.000004751    0.000012197   -0.000008671
     82        1          -0.000019584    0.000004716   -0.000009284
     83        1          -0.000003766   -0.000001479    0.000000241
     84        6          -0.000035591    0.000226726   -0.000021351
     85        1          -0.000002625    0.000020426   -0.000005255
     86        1          -0.000002875    0.000016450    0.000002667
     87        1           0.000002770    0.000019554   -0.000000965
     88        6          -0.000003764   -0.000011643   -0.000004586
     89        1          -0.000001605   -0.000001423    0.000000166
     90        1           0.000000235   -0.000000220   -0.000001020
     91        1          -0.000000312   -0.000002791   -0.000001301
     92        6          -0.000011227   -0.000000258    0.000001811
     93        1          -0.000001558   -0.000000193   -0.000000590
     94        1          -0.000002033   -0.000001686    0.000000095
     95        1          -0.000001379    0.000000020    0.000000193
     96        6           0.000060762   -0.000033677   -0.000053566
     97        1           0.000004997   -0.000002367   -0.000004555
     98        1           0.000004212   -0.000002374   -0.000004629
     99        1           0.000006475   -0.000004758   -0.000004968
    100        6           0.000007469    0.000008091    0.000012747
    101        1           0.000001249    0.000000650    0.000002085
    102        1          -0.000001645    0.000003486    0.000003447
    103        1           0.000001932   -0.000001405    0.000004119
 -------------------------------------------------------------------
 Cartesian Forces:  Max     0.008614622 RMS     0.001019797
 Z-matrix is all fixed cartesians, so copy forces.
 Leave Link  716 at Mon Oct  6 14:24:53 2025, MaxMem=   104857600 cpu:               0.0 elap:               0.0
 (Enter /home/zhouoh/g16/l123.exe)
 IRC-IRC-IRC-IRC-IRC-IRC-IRC-IRC-IRC-IRC-IRC-IRC-IRC-IRC-IRC-IRC-IRC-IRC
 Pt  5 Step number   1 out of a maximum of  20
 Point Number:   5          Path Number:   1
   CHANGE IN THE REACTION COORDINATE =    0.28885
   NET REACTION COORDINATE UP TO THIS POINT =    1.44423
  # OF POINTS ALONG THE PATH =   5
  # OF STEPS =   1

 Calculating another point on the path.
 Point Number  6 in FORWARD path direction.
 Using LQA Reaction Path Following.
   LQA: T_Est iteration completed in    3 iterations.
 IRC-IRC-IRC-IRC-IRC-IRC-IRC-IRC-IRC-IRC-IRC-IRC-IRC-IRC-IRC-IRC-IRC-IRC
 Leave Link  123 at Mon Oct  6 14:24:53 2025, MaxMem=   104857600 cpu:               0.1 elap:               0.1
 (Enter /home/zhouoh/g16/l202.exe)
 Symmetry turned off by external request.
 Stoichiometry    C43H54NO3PPd
 Framework group  C1[X(C43H54NO3PPd)]
 Deg. of freedom   303
 Full point group                 C1      NOp   1
                          Input orientation:                          
 ---------------------------------------------------------------------
 Center     Atomic      Atomic             Coordinates (Angstroms)
 Number     Number       Type             X           Y           Z
 ---------------------------------------------------------------------
      1         15           0       -0.698474    0.952607   -1.177613
      2          8           0       -2.007158    3.229024   -1.694639
      3          8           0       -3.959998   -1.980510   -0.099137
      4          8           0       -0.957073    0.631602    2.424654
      5          6           0       -1.112200    0.011845   -2.735278
      6          6           0       -2.297304    1.289144   -0.395040
      7          6           0       -0.657099    2.709947   -1.784736
      8          6           0       -2.217559    0.662533   -3.565643
      9          6           0       -1.561189   -1.389631   -2.322906
     10          6           0        0.188942   -0.079101   -3.538454
     11          6           0       -2.783453    2.514412   -0.840256
     12          6           0       -3.024374    0.541511    0.531863
     13          6           0       -2.426930   -0.700928    1.096801
     14          6           0       -4.020026    2.992634   -0.432091
     15          6           0       -4.269099    1.009515    0.937219
     16          6           0       -4.757737    2.217593    0.449946
     17          6           0       -2.873068   -1.971312    0.715707
     18          6           0       -1.350411   -0.606317    1.981075
     19          6           0       -2.192279   -3.110574    1.139202
     20          6           0       -0.662219   -1.737141    2.404815
     21          6           0       -1.083962   -2.979801    1.965298
     22          6           0       -4.434820   -3.218605   -0.643726
     23          6           0       -1.791834    1.172076    3.478080
     24          1           0       -0.401672    2.710059   -2.845961
     25          1           0       -2.420393    0.035356   -4.438477
     26          1           0       -1.943229    1.653173   -3.928834
     27          1           0       -3.144170    0.752454   -2.995345
     28          1           0       -1.654056   -2.017147   -3.214954
     29          1           0       -2.531650   -1.353050   -1.828283
     30          1           0       -0.842132   -1.860703   -1.648850
     31          1           0        0.967477   -0.593303   -2.970544
     32          1           0        0.008069   -0.641894   -4.458337
     33          1           0        0.568522    0.906017   -3.820992
     34          1           0       -4.380607    3.945703   -0.794746
     35          1           0       -4.851983    0.430316    1.642076
     36          1           0       -5.726733    2.570684    0.779790
     37          1           0       -2.510472   -4.095574    0.833057
     38          1           0        0.187797   -1.622651    3.063238
     39          1           0       -0.552007   -3.868650    2.280343
     40         46           0        0.990685    0.027167    0.066798
     41          1           0        4.981429    3.953918   -1.179646
     42          6           0        4.375320    3.122827   -0.843149
     43          6           0        3.676049    3.201750    0.353642
     44          1           0        3.736742    4.098164    0.960212
     45          6           0        2.869027    2.154121    0.771570
     46          1           0        2.292319    2.256490    1.680992
     47          6           0        2.725509    1.029992   -0.037780
     48          6           0        3.504279    0.896946   -1.184119
     49          1           0        3.433028    0.011109   -1.799685
     50          6           0        4.306205    1.955100   -1.590713
     51          1           0        4.865190    1.868999   -2.515133
     52          1           0        3.329121   -0.966859    4.453167
     53          6           0        3.223149   -1.355250    3.437996
     54          1           0        2.452491   -2.132062    3.453446
     55          1           0        4.792146   -2.850110    3.487424
     56          1           0        1.885408    0.251128    2.868112
     57          1           0        5.345506   -1.236962    3.081722
     58          6           0        4.529181   -1.951273    2.924758
     59          6           0        2.799618   -0.227044    2.507595
     60          6           0        4.356093   -2.291036    1.471817
     61          7           0        2.562345   -0.708493    1.154319
     62          6           0        3.400179   -1.716579    0.713425
     63          1           0        5.123514   -2.148975   -1.338532
     64          6           0        3.115078   -2.305790   -0.623820
     65          6           0        4.123899   -2.499591   -1.563902
     66          6           0        1.828057   -2.750484   -0.920777
     67          1           0        1.046684   -2.646885   -0.174059
     68          6           0        3.851712   -3.116267   -2.777724
     69          1           0        4.645532   -3.252984   -3.501325
     70          6           0        1.556779   -3.373527   -2.129784
     71          6           0        2.566193   -3.552881   -3.065661
     72          1           0        0.554950   -3.727873   -2.339872
     73          1           0        2.353074   -4.035064   -4.011257
     74          1           0        3.593671    0.532819    2.518511
     75          1           0        4.900743   -3.127112    1.053118
     76          1           0       -2.802497    0.773892    3.342365
     77          1           0       -3.572200   -3.822531   -0.944192
     78          6           0        0.324283    3.611075   -1.044777
     79          1           0        1.297348    3.115837   -1.128178
     80          6           0       -0.028345    3.749489    0.430655
     81          1           0       -0.995924    4.243281    0.550650
     82          1           0       -0.071171    2.779281    0.930932
     83          1           0        0.723102    4.356757    0.938661
     84          6           0        0.411199    4.975630   -1.721092
     85          1           0       -0.550665    5.490426   -1.681051
     86          1           0        1.152361    5.599850   -1.219330
     87          1           0        0.705255    4.881506   -2.768581
     88          6           0       -5.233770   -2.845193   -1.875644
     89          1           0       -5.639968   -3.741172   -2.345945
     90          1           0       -6.062029   -2.191512   -1.598350
     91          1           0       -4.608397   -2.323296   -2.599389
     92          6           0       -5.279207   -3.959282    0.379012
     93          1           0       -5.614591   -4.913493   -0.029674
     94          1           0       -4.727508   -4.153519    1.297814
     95          1           0       -6.157955   -3.362273    0.627975
     96          6           0       -1.245793    0.736968    4.824564
     97          1           0       -1.870613    1.124019    5.631240
     98          1           0       -1.222675   -0.350670    4.902298
     99          1           0       -0.231467    1.118436    4.957016
    100          6           0       -1.817594    2.672964    3.300918
    101          1           0       -0.805112    3.077490    3.356248
    102          1           0       -2.246318    2.934225    2.333054
    103          1           0       -2.417444    3.132954    4.087749
 ---------------------------------------------------------------------
 Rotational constants (GHZ):           0.0782197           0.0588048           0.0524700
 Leave Link  202 at Mon Oct  6 14:24:53 2025, MaxMem=   104857600 cpu:               0.0 elap:               0.0
 (Enter /home/zhouoh/g16/l301.exe)
 Standard basis: STO-3G (5D, 7F)
 Ernie: Thresh=  0.10000D-02 Tol=  0.10000D-05 Strict=F.
   325 basis functions,   981 primitive gaussians,   327 cartesian basis functions
   202 alpha electrons      202 beta electrons
       nuclear repulsion energy      9285.1528056001 Hartrees.



 Warning!  P  atom    1 may be hypervalent but has no d functions.



 IExCor=    0 DFT=F Ex=HF Corr=None ExCW=0 ScaHFX=  1.000000
 ScaDFX=  1.000000  1.000000  1.000000  1.000000 ScalE2=  1.000000  1.000000
 IRadAn=      5 IRanWt=     -1 IRanGd=            0 ICorTp=0 IEmpDi=  4
 NAtoms=  103 NActive=  103 NUniq=  103 SFac= 1.00D+00 NAtFMM=   60 NAOKFM=T Big=T
 Integral buffers will be    131072 words long.
 Raffenetti 1 integral format.
 Two-electron integral symmetry is turned off.
 Leave Link  301 at Mon Oct  6 14:24:53 2025, MaxMem=   104857600 cpu:               0.0 elap:               0.0
 (Enter /home/zhouoh/g16/l402.exe)
 External calculation of energy and first derivatives.
 Running external command "python ../GauUMA_client.py R"
         input file       "/home/zhouoh/scratch/Gau-2814882.EIn"
         output file      "/home/zhouoh/scratch/Gau-2814882.EOu"
         message file     "/home/zhouoh/scratch/Gau-2814882.EMs"
         fchk file        "/home/zhouoh/scratch/Gau-2814882.EFC"
         mat. el file     "/home/zhouoh/scratch/Gau-2814882.EUF"
Sent job to server.
Received result from server:
SCF Done:  E(UMA) =  -2420.634084263573     A.U.
 Recovered energy= -2420.63408426     dipole=      0.000000000000      0.000000000000      0.000000000000
 Energy=    -2420.63408     NIter=   0.
 Dipole moment=       0.000000       0.000000       0.000000
 Leave Link  402 at Mon Oct  6 14:24:53 2025, MaxMem=   104857600 cpu:               0.0 elap:               0.1
 (Enter /home/zhouoh/g16/l716.exe)
 Dipole        = 0.00000000D+00 0.00000000D+00 0.00000000D+00
 -------------------------------------------------------------------
 Center     Atomic                   Forces (Hartrees/Bohr)
 Number     Number              X              Y              Z
 -------------------------------------------------------------------
      1       15           0.000543086    0.001164498   -0.000464023
      2        8          -0.000005170    0.000107307   -0.000074138
      3        8           0.000010426    0.000003830   -0.000012299
      4        8           0.000008119    0.000104342   -0.000173743
      5        6           0.000225982   -0.000012399    0.000099043
      6        6           0.000259072    0.000128286    0.000128117
      7        6           0.000047363    0.000315130   -0.000161423
      8        6           0.000144153   -0.000063029    0.000129124
      9        6           0.000185604    0.000021050    0.000206252
     10        6           0.000178997   -0.000022471    0.000022823
     11        6           0.000145292    0.000042863    0.000035809
     12        6           0.000140030    0.000007424   -0.000032657
     13        6           0.000163165   -0.000016686   -0.000172319
     14        6           0.000086526   -0.000048067   -0.000029017
     15        6           0.000106960   -0.000068510   -0.000085667
     16        6           0.000085790   -0.000060233   -0.000055946
     17        6           0.000036081    0.000004164   -0.000056087
     18        6           0.000154507    0.000032485   -0.000120652
     19        6           0.000006930    0.000021798    0.000050629
     20        6           0.000278314    0.000073974   -0.000238558
     21        6           0.000131289    0.000052553   -0.000137098
     22        6          -0.000013630   -0.000020700   -0.000002848
     23        6           0.000027369    0.000007383   -0.000023527
     24        1           0.000000659    0.000033978   -0.000016966
     25        1           0.000010633   -0.000013585    0.000014509
     26        1           0.000008488   -0.000007387    0.000000135
     27        1           0.000012972   -0.000004268    0.000012739
     28        1          -0.000003122    0.000006108    0.000013191
     29        1           0.000022092    0.000007305    0.000027434
     30        1           0.000021033   -0.000014200   -0.000002941
     31        1           0.000015316   -0.000017478   -0.000011427
     32        1           0.000005962    0.000007104   -0.000003996
     33        1           0.000019819   -0.000000509    0.000007424
     34        1           0.000003929   -0.000005578   -0.000006729
     35        1           0.000006491   -0.000012279   -0.000012861
     36        1           0.000005178   -0.000008167   -0.000007667
     37        1          -0.000004091    0.000000832    0.000014597
     38        1           0.000045128    0.000003183   -0.000049372
     39        1           0.000018292    0.000005830   -0.000018094
     40       46           0.009027144   -0.005295785    0.007324358
     41        1           0.000347585   -0.000133272    0.000199871
     42        6           0.002310018   -0.000106499    0.000799446
     43        6           0.001410033    0.000413069    0.000308632
     44        1           0.000294180   -0.000082535    0.000113955
     45        6          -0.002343375    0.002388079   -0.002547183
     46        1          -0.000262662    0.000191177   -0.000255561
     47        6          -0.005346587    0.004976324   -0.005162613
     48        6          -0.002975990    0.002823798   -0.002979742
     49        1          -0.000363530    0.000288025   -0.000282427
     50        6           0.001228972    0.000436436   -0.000153252
     51        1           0.000253047   -0.000021548    0.000120332
     52        1           0.000117367    0.000059216    0.000024964
     53        6           0.000438373    0.000050820    0.000765543
     54        1           0.000047723    0.000012319    0.000172065
     55        1           0.000003503   -0.000027107   -0.000015590
     56        1           0.000022406   -0.000006346    0.000035930
     57        1           0.000022284   -0.000024757    0.000063436
     58        6           0.000196739   -0.000065045    0.000116044
     59        6          -0.000870619   -0.001264934   -0.000264709
     60        6           0.000803096    0.000648653   -0.000233473
     61        7          -0.005085996   -0.006010519    0.002529332
     62        6          -0.001199194   -0.001215091    0.000827058
     63        1          -0.000036610    0.000036822    0.000045206
     64        6          -0.000472178   -0.000478727    0.000417924
     65        6          -0.000359420    0.000282801    0.000333896
     66        6          -0.000304611   -0.000612854   -0.000082240
     67        1          -0.000023400   -0.000113301    0.000004677
     68        6          -0.000067769    0.000404327    0.000186694
     69        1           0.000005946    0.000058482    0.000023448
     70        6          -0.000088642   -0.000262693   -0.000293247
     71        6           0.000088199    0.000097196   -0.000152989
     72        1           0.000002624   -0.000040305   -0.000038612
     73        1           0.000032395    0.000013426   -0.000020414
     74        1          -0.000087212   -0.000163993   -0.000310462
     75        1           0.000241983    0.000262425   -0.000068103
     76        1           0.000003424   -0.000000756   -0.000002384
     77        1          -0.000001107   -0.000001657    0.000000993
     78        6          -0.000020854    0.000271115   -0.000105322
     79        1          -0.000009563    0.000039456   -0.000020392
     80        6          -0.000095114    0.000112530   -0.000103029
     81        1          -0.000005717    0.000014456   -0.000010183
     82        1          -0.000022669    0.000005672   -0.000011966
     83        1          -0.000005350   -0.000000739    0.000000731
     84        6          -0.000051881    0.000274976   -0.000027840
     85        1          -0.000003546    0.000024543   -0.000005958
     86        1          -0.000004033    0.000020998    0.000002472
     87        1           0.000001798    0.000024169   -0.000001259
     88        6          -0.000004069   -0.000013622   -0.000005004
     89        1          -0.000001213   -0.000001181    0.000000187
     90        1          -0.000000034   -0.000000194   -0.000001024
     91        1          -0.000000089   -0.000002817   -0.000000919
     92        6          -0.000015025   -0.000001029    0.000002604
     93        1          -0.000001752    0.000000267   -0.000000502
     94        1          -0.000002076   -0.000001759    0.000000109
     95        1          -0.000001280   -0.000000144    0.000000226
     96        6           0.000070181   -0.000038914   -0.000063547
     97        1           0.000005648   -0.000003164   -0.000005111
     98        1           0.000005239   -0.000003111   -0.000005849
     99        1           0.000007497   -0.000005156   -0.000005902
    100        6           0.000008727    0.000008895    0.000014928
    101        1           0.000001495    0.000001261    0.000001979
    102        1          -0.000001762    0.000003812    0.000003492
    103        1           0.000002274   -0.000001858    0.000004500
 -------------------------------------------------------------------
 Cartesian Forces:  Max     0.009027144 RMS     0.001107329
 Z-matrix is all fixed cartesians, so copy forces.
 Leave Link  716 at Mon Oct  6 14:24:53 2025, MaxMem=   104857600 cpu:               0.0 elap:               0.0
 (Enter /home/zhouoh/g16/l123.exe)
 IRC-IRC-IRC-IRC-IRC-IRC-IRC-IRC-IRC-IRC-IRC-IRC-IRC-IRC-IRC-IRC-IRC-IRC
 Pt  6 Step number   1 out of a maximum of  20
 Point Number:   6          Path Number:   1
   CHANGE IN THE REACTION COORDINATE =    0.28885
   NET REACTION COORDINATE UP TO THIS POINT =    1.73308
  # OF POINTS ALONG THE PATH =   6
  # OF STEPS =   1

 Calculating another point on the path.
 Point Number  7 in FORWARD path direction.
 Using LQA Reaction Path Following.
   LQA: T_Est iteration completed in    3 iterations.
 IRC-IRC-IRC-IRC-IRC-IRC-IRC-IRC-IRC-IRC-IRC-IRC-IRC-IRC-IRC-IRC-IRC-IRC
 Leave Link  123 at Mon Oct  6 14:24:54 2025, MaxMem=   104857600 cpu:               0.1 elap:               0.1
 (Enter /home/zhouoh/g16/l202.exe)
 Symmetry turned off by external request.
 Stoichiometry    C43H54NO3PPd
 Framework group  C1[X(C43H54NO3PPd)]
 Deg. of freedom   303
 Full point group                 C1      NOp   1
                          Input orientation:                          
 ---------------------------------------------------------------------
 Center     Atomic      Atomic             Coordinates (Angstroms)
 Number     Number       Type             X           Y           Z
 ---------------------------------------------------------------------
      1         15           0       -0.697848    0.953885   -1.178100
      2          8           0       -2.007154    3.229240   -1.694799
      3          8           0       -3.959966   -1.980498   -0.099157
      4          8           0       -0.957052    0.631820    2.424270
      5          6           0       -1.111524    0.011801   -2.734982
      6          6           0       -2.296543    1.289480   -0.394655
      7          6           0       -0.656960    2.710850   -1.785194
      8          6           0       -2.217142    0.662363   -3.565260
      9          6           0       -1.560646   -1.389558   -2.322309
     10          6           0        0.189462   -0.079164   -3.538378
     11          6           0       -2.783019    2.514544   -0.840178
     12          6           0       -3.023968    0.541532    0.531762
     13          6           0       -2.426472   -0.700958    1.096293
     14          6           0       -4.019784    2.992494   -0.432170
     15          6           0       -4.268780    1.009313    0.936966
     16          6           0       -4.757481    2.217422    0.449777
     17          6           0       -2.872975   -1.971315    0.715539
     18          6           0       -1.349948   -0.606203    1.980742
     19          6           0       -2.192253   -3.110505    1.139346
     20          6           0       -0.661410   -1.736940    2.404122
     21          6           0       -1.083576   -2.979651    1.964897
     22          6           0       -4.434861   -3.218668   -0.643734
     23          6           0       -1.791748    1.172099    3.478013
     24          1           0       -0.401661    2.711086   -2.846441
     25          1           0       -2.419942    0.034887   -4.437858
     26          1           0       -1.942931    1.652894   -3.928813
     27          1           0       -3.143715    0.752314   -2.994911
     28          1           0       -1.654048   -2.016938   -3.214368
     29          1           0       -2.530895   -1.352792   -1.827314
     30          1           0       -0.841358   -1.861368   -1.648988
     31          1           0        0.968037   -0.593923   -2.971006
     32          1           0        0.008307   -0.641641   -4.458370
     33          1           0        0.569204    0.905948   -3.820698
     34          1           0       -4.380427    3.945478   -0.794967
     35          1           0       -4.851710    0.429906    1.641601
     36          1           0       -5.726546    2.570392    0.779521
     37          1           0       -2.510624   -4.095557    0.833550
     38          1           0        0.189367   -1.622501    3.061533
     39          1           0       -0.551359   -3.868413    2.279691
     40         46           0        0.993570    0.025462    0.069156
     41          1           0        4.994469    3.950518   -1.173171
     42          6           0        4.381953    3.122394   -0.840830
     43          6           0        3.680250    3.203102    0.354395
     44          1           0        3.747096    4.096615    0.964536
     45          6           0        2.862306    2.160746    0.764338
     46          1           0        2.282739    2.263264    1.672019
     47          6           0        2.710149    1.044190   -0.052538
     48          6           0        3.495595    0.904850   -1.192462
     49          1           0        3.419830    0.020719   -1.810258
     50          6           0        4.309845    1.956707   -1.591254
     51          1           0        4.874475    1.868603   -2.512011
     52          1           0        3.333369   -0.964718    4.454418
     53          6           0        3.224484   -1.355125    3.440288
     54          1           0        2.453921   -2.132053    3.459516
     55          1           0        4.792305   -2.851092    3.486872
     56          1           0        1.885668    0.250954    2.870002
     57          1           0        5.346366   -1.237738    3.083938
     58          6           0        4.529773   -1.951429    2.925106
     59          6           0        2.797012   -0.230816    2.506775
     60          6           0        4.358557   -2.289176    1.471308
     61          7           0        2.549833   -0.723407    1.160466
     62          6           0        3.396443   -1.719883    0.715801
     63          1           0        5.122149   -2.147701   -1.336901
     64          6           0        3.113731   -2.307232   -0.622604
     65          6           0        4.122856   -2.498790   -1.562946
     66          6           0        1.827169   -2.752277   -0.921010
     67          1           0        1.045908   -2.650982   -0.173838
     68          6           0        3.851517   -3.115076   -2.777197
     69          1           0        4.645748   -3.250885   -3.500544
     70          6           0        1.556522   -3.374306   -2.130632
     71          6           0        2.566455   -3.552592   -3.066109
     72          1           0        0.555006   -3.729285   -2.341291
     73          1           0        2.354209   -4.034573   -4.012010
     74          1           0        3.592156    0.528378    2.508213
     75          1           0        4.910213   -3.119380    1.050132
     76          1           0       -2.802392    0.773858    3.342261
     77          1           0       -3.572228   -3.822587   -0.944150
     78          6           0        0.324199    3.611879   -1.045083
     79          1           0        1.297330    3.117099   -1.128827
     80          6           0       -0.028628    3.749826    0.430353
     81          1           0       -0.996125    4.243787    0.550286
     82          1           0       -0.071923    2.779568    0.930508
     83          1           0        0.722881    4.356682    0.938662
     84          6           0        0.411030    4.976452   -1.721182
     85          1           0       -0.550806    5.491303   -1.681256
     86          1           0        1.152168    5.600540   -1.219258
     87          1           0        0.705296    4.882378   -2.768613
     88          6           0       -5.233781   -2.845232   -1.875655
     89          1           0       -5.640000   -3.741202   -2.345938
     90          1           0       -6.062028   -2.191528   -1.598389
     91          1           0       -4.608397   -2.323388   -2.599434
     92          6           0       -5.279251   -3.959283    0.379018
     93          1           0       -5.614647   -4.913476   -0.029686
     94          1           0       -4.727586   -4.153589    1.297825
     95          1           0       -6.157997   -3.362276    0.627985
     96          6           0       -1.245585    0.736855    4.824374
     97          1           0       -1.870415    1.123898    5.631041
     98          1           0       -1.222476   -0.350778    4.902095
     99          1           0       -0.231242    1.118231    4.956808
    100          6           0       -1.817565    2.672990    3.300960
    101          1           0       -0.805092    3.077516    3.356319
    102          1           0       -2.246393    2.934377    2.333169
    103          1           0       -2.417357    3.132870    4.087887
 ---------------------------------------------------------------------
 Rotational constants (GHZ):           0.0781940           0.0588131           0.0524676
 Leave Link  202 at Mon Oct  6 14:24:54 2025, MaxMem=   104857600 cpu:               0.0 elap:               0.0
 (Enter /home/zhouoh/g16/l301.exe)
 Standard basis: STO-3G (5D, 7F)
 Ernie: Thresh=  0.10000D-02 Tol=  0.10000D-05 Strict=F.
   325 basis functions,   981 primitive gaussians,   327 cartesian basis functions
   202 alpha electrons      202 beta electrons
       nuclear repulsion energy      9284.9883646836 Hartrees.



 Warning!  P  atom    1 may be hypervalent but has no d functions.



 IExCor=    0 DFT=F Ex=HF Corr=None ExCW=0 ScaHFX=  1.000000
 ScaDFX=  1.000000  1.000000  1.000000  1.000000 ScalE2=  1.000000  1.000000
 IRadAn=      5 IRanWt=     -1 IRanGd=            0 ICorTp=0 IEmpDi=  4
 NAtoms=  103 NActive=  103 NUniq=  103 SFac= 1.00D+00 NAtFMM=   60 NAOKFM=T Big=T
 Integral buffers will be    131072 words long.
 Raffenetti 1 integral format.
 Two-electron integral symmetry is turned off.
 Leave Link  301 at Mon Oct  6 14:24:54 2025, MaxMem=   104857600 cpu:               0.0 elap:               0.0
 (Enter /home/zhouoh/g16/l402.exe)
 External calculation of energy and first derivatives.
 Running external command "python ../GauUMA_client.py R"
         input file       "/home/zhouoh/scratch/Gau-2814882.EIn"
         output file      "/home/zhouoh/scratch/Gau-2814882.EOu"
         message file     "/home/zhouoh/scratch/Gau-2814882.EMs"
         fchk file        "/home/zhouoh/scratch/Gau-2814882.EFC"
         mat. el file     "/home/zhouoh/scratch/Gau-2814882.EUF"
Sent job to server.
Received result from server:
SCF Done:  E(UMA) =  -2420.635409911981     A.U.
 Recovered energy= -2420.63540991     dipole=      0.000000000000      0.000000000000      0.000000000000
 Energy=    -2420.63541     NIter=   0.
 Dipole moment=       0.000000       0.000000       0.000000
 Leave Link  402 at Mon Oct  6 14:24:54 2025, MaxMem=   104857600 cpu:               0.0 elap:               0.1
 (Enter /home/zhouoh/g16/l716.exe)
 Dipole        = 0.00000000D+00 0.00000000D+00 0.00000000D+00
 -------------------------------------------------------------------
 Center     Atomic                   Forces (Hartrees/Bohr)
 Number     Number              X              Y              Z
 -------------------------------------------------------------------
      1       15           0.000673540    0.001128544   -0.000362790
      2        8           0.000002260    0.000114735   -0.000085574
      3        8           0.000011997    0.000001273   -0.000014876
      4        8           0.000019067    0.000117325   -0.000191128
      5        6           0.000250404   -0.000006335    0.000118485
      6        6           0.000281652    0.000138009    0.000117384
      7        6           0.000058817    0.000318832   -0.000162708
      8        6           0.000163827   -0.000068531    0.000146077
      9        6           0.000214883    0.000025869    0.000226416
     10        6           0.000198470   -0.000027093    0.000032800
     11        6           0.000155769    0.000045277    0.000031880
     12        6           0.000163166    0.000011311   -0.000045532
     13        6           0.000172728   -0.000018816   -0.000177450
     14        6           0.000096865   -0.000049832   -0.000032673
     15        6           0.000121691   -0.000074160   -0.000098806
     16        6           0.000097605   -0.000068309   -0.000062731
     17        6           0.000043957    0.000007252   -0.000054370
     18        6           0.000165582    0.000034480   -0.000134135
     19        6           0.000012544    0.000023363    0.000051664
     20        6           0.000298620    0.000078133   -0.000260045
     21        6           0.000150140    0.000059748   -0.000155032
     22        6          -0.000013564   -0.000019535   -0.000000534
     23        6           0.000036221    0.000004153   -0.000034274
     24        1           0.000001368    0.000033260   -0.000016418
     25        1           0.000012033   -0.000014223    0.000017511
     26        1           0.000009695   -0.000007935    0.000000785
     27        1           0.000015357   -0.000004477    0.000014561
     28        1          -0.000001637    0.000006802    0.000014757
     29        1           0.000024657    0.000007484    0.000030403
     30        1           0.000024442   -0.000011729   -0.000000477
     31        1           0.000015903   -0.000018430   -0.000009793
     32        1           0.000006899    0.000007587   -0.000002736
     33        1           0.000022335   -0.000001208    0.000008683
     34        1           0.000004328   -0.000006314   -0.000006980
     35        1           0.000008301   -0.000013392   -0.000015003
     36        1           0.000005130   -0.000009096   -0.000008117
     37        1          -0.000004356    0.000000164    0.000014813
     38        1           0.000047952    0.000003445   -0.000053786
     39        1           0.000020546    0.000006493   -0.000020651
     40       46           0.009172245   -0.005498435    0.007574871
     41        1           0.000392125   -0.000156040    0.000226450
     42        6           0.002576694   -0.000132787    0.000880968
     43        6           0.001486012    0.000487824    0.000271233
     44        1           0.000310465   -0.000086702    0.000120200
     45        6          -0.002469023    0.002627417   -0.002755626
     46        1          -0.000266010    0.000200566   -0.000261713
     47        6          -0.005463463    0.005204584   -0.005362185
     48        6          -0.003195491    0.003129564   -0.003262345
     49        1          -0.000379052    0.000302648   -0.000304558
     50        6           0.001245683    0.000552906   -0.000238725
     51        1           0.000261161   -0.000019868    0.000117480
     52        1           0.000133871    0.000066278    0.000028235
     53        6           0.000525210    0.000037410    0.000892056
     54        1           0.000058947    0.000011995    0.000196339
     55        1           0.000008984   -0.000029477   -0.000018886
     56        1           0.000026039   -0.000011457    0.000044502
     57        1           0.000029272   -0.000026406    0.000065529
     58        6           0.000256942   -0.000058295    0.000143777
     59        6          -0.000962780   -0.001436541   -0.000239138
     60        6           0.000889848    0.000740753   -0.000229546
     61        7          -0.005561870   -0.006514692    0.002764209
     62        6          -0.001286861   -0.001372826    0.000894770
     63        1          -0.000040242    0.000040344    0.000048899
     64        6          -0.000516818   -0.000568093    0.000460049
     65        6          -0.000399713    0.000299533    0.000370108
     66        6          -0.000347304   -0.000703648   -0.000080794
     67        1          -0.000029518   -0.000121099    0.000001368
     68        6          -0.000074743    0.000462877    0.000194524
     69        1           0.000005951    0.000068458    0.000024503
     70        6          -0.000094049   -0.000300680   -0.000325704
     71        6           0.000104111    0.000115780   -0.000176042
     72        1           0.000003341   -0.000043548   -0.000043914
     73        1           0.000036076    0.000017228   -0.000023370
     74        1          -0.000095016   -0.000190209   -0.000342453
     75        1           0.000264926    0.000294836   -0.000071391
     76        1           0.000004264   -0.000000898   -0.000002978
     77        1          -0.000000774   -0.000002247    0.000001075
     78        6          -0.000037461    0.000315197   -0.000121982
     79        1          -0.000011103    0.000046355   -0.000023576
     80        6          -0.000111797    0.000134902   -0.000118542
     81        1          -0.000006892    0.000016543   -0.000011505
     82        1          -0.000025428    0.000007116   -0.000014516
     83        1          -0.000006893    0.000000817    0.000001176
     84        6          -0.000073007    0.000322631   -0.000035552
     85        1          -0.000005440    0.000028290   -0.000006599
     86        1          -0.000005889    0.000024150    0.000002272
     87        1           0.000000282    0.000028884   -0.000002178
     88        6          -0.000003530   -0.000014323   -0.000004200
     89        1          -0.000001297   -0.000001726   -0.000000191
     90        1           0.000000230   -0.000000380   -0.000001038
     91        1           0.000000189   -0.000002558   -0.000000775
     92        6          -0.000017842   -0.000001115    0.000003037
     93        1          -0.000002068    0.000000259   -0.000000581
     94        1          -0.000001919   -0.000001854    0.000000573
     95        1          -0.000001162   -0.000000096    0.000000266
     96        6           0.000079335   -0.000044411   -0.000074808
     97        1           0.000006254   -0.000003551   -0.000005050
     98        1           0.000006166   -0.000003370   -0.000007225
     99        1           0.000008273   -0.000005464   -0.000006494
    100        6           0.000010741    0.000009161    0.000015357
    101        1           0.000001345    0.000001417    0.000001865
    102        1          -0.000001777    0.000004059    0.000003678
    103        1           0.000002055   -0.000002116    0.000005213
 -------------------------------------------------------------------
 Cartesian Forces:  Max     0.009172245 RMS     0.001163635
 Z-matrix is all fixed cartesians, so copy forces.
 Leave Link  716 at Mon Oct  6 14:24:54 2025, MaxMem=   104857600 cpu:               0.0 elap:               0.0
 (Enter /home/zhouoh/g16/l123.exe)
 IRC-IRC-IRC-IRC-IRC-IRC-IRC-IRC-IRC-IRC-IRC-IRC-IRC-IRC-IRC-IRC-IRC-IRC
 Pt  7 Step number   1 out of a maximum of  20
 Point Number:   7          Path Number:   1
   CHANGE IN THE REACTION COORDINATE =    0.28886
   NET REACTION COORDINATE UP TO THIS POINT =    2.02194
  # OF POINTS ALONG THE PATH =   7
  # OF STEPS =   1

 Calculating another point on the path.
 Point Number  8 in FORWARD path direction.
 Using LQA Reaction Path Following.
   LQA: T_Est iteration completed in    3 iterations.
 IRC-IRC-IRC-IRC-IRC-IRC-IRC-IRC-IRC-IRC-IRC-IRC-IRC-IRC-IRC-IRC-IRC-IRC
 Leave Link  123 at Mon Oct  6 14:24:54 2025, MaxMem=   104857600 cpu:               0.1 elap:               0.1
 (Enter /home/zhouoh/g16/l202.exe)
 Symmetry turned off by external request.
 Stoichiometry    C43H54NO3PPd
 Framework group  C1[X(C43H54NO3PPd)]
 Deg. of freedom   303
 Full point group                 C1      NOp   1
                          Input orientation:                          
 ---------------------------------------------------------------------
 Center     Atomic      Atomic             Coordinates (Angstroms)
 Number     Number       Type             X           Y           Z
 ---------------------------------------------------------------------
      1         15           0       -0.697123    0.955039   -1.178444
      2          8           0       -2.007136    3.229457   -1.694973
      3          8           0       -3.959932   -1.980491   -0.099179
      4          8           0       -0.957009    0.632049    2.423873
      5          6           0       -1.110825    0.011777   -2.734649
      6          6           0       -2.295769    1.289817   -0.394324
      7          6           0       -0.656796    2.711702   -1.785623
      8          6           0       -2.216695    0.662189   -3.564851
      9          6           0       -1.560055   -1.389476   -2.321692
     10          6           0        0.190003   -0.079236   -3.538274
     11          6           0       -2.782582    2.514678   -0.840121
     12          6           0       -3.023527    0.541563    0.531632
     13          6           0       -2.426016   -0.700989    1.095803
     14          6           0       -4.019529    2.992358   -0.432255
     15          6           0       -4.268438    1.009107    0.936690
     16          6           0       -4.757212    2.217241    0.449601
     17          6           0       -2.872869   -1.971311    0.715385
     18          6           0       -1.349483   -0.606093    1.980394
     19          6           0       -2.192214   -3.110437    1.139482
     20          6           0       -0.660600   -1.736735    2.403417
     21          6           0       -1.083164   -2.979494    1.964471
     22          6           0       -4.434899   -3.218726   -0.643735
     23          6           0       -1.791643    1.172113    3.477921
     24          1           0       -0.401622    2.712050   -2.846896
     25          1           0       -2.419482    0.034411   -4.437208
     26          1           0       -1.942611    1.652612   -3.928775
     27          1           0       -3.143218    0.752179   -2.994439
     28          1           0       -1.653985   -2.016733   -3.213759
     29          1           0       -2.530092   -1.352541   -1.826321
     30          1           0       -0.840522   -1.861908   -1.649043
     31          1           0        0.968587   -0.594542   -2.971386
     32          1           0        0.008567   -0.641404   -4.458375
     33          1           0        0.569932    0.905863   -3.820382
     34          1           0       -4.380248    3.945254   -0.795187
     35          1           0       -4.851408    0.429475    1.641095
     36          1           0       -5.726352    2.570081    0.779247
     37          1           0       -2.510762   -4.095541    0.834027
     38          1           0        0.190955   -1.622354    3.059792
     39          1           0       -0.550675   -3.868170    2.279001
     40         46           0        0.996314    0.023806    0.071437
     41          1           0        5.008285    3.946786   -1.166281
     42          6           0        4.388902    3.121930   -0.838421
     43          6           0        3.684384    3.204559    0.354988
     44          1           0        3.757392    4.095027    0.968814
     45          6           0        2.855651    2.167564    0.756986
     46          1           0        2.273760    2.270016    1.663277
     47          6           0        2.695528    1.058156   -0.066909
     48          6           0        3.486838    0.913082   -1.201054
     49          1           0        3.407018    0.030468   -1.820811
     50          6           0        4.313276    1.958506   -1.592003
     51          1           0        4.883438    1.868295   -2.509102
     52          1           0        3.337924   -0.962431    4.455761
     53          6           0        3.225986   -1.355048    3.442782
     54          1           0        2.455606   -2.132132    3.466086
     55          1           0        4.792673   -2.852104    3.486235
     56          1           0        1.885961    0.250663    2.872050
     57          1           0        5.347400   -1.238516    3.086143
     58          6           0        4.530505   -1.951552    2.925506
     59          6           0        2.794316   -0.234843    2.506093
     60          6           0        4.361080   -2.287154    1.470844
     61          7           0        2.536974   -0.738586    1.166781
     62          6           0        3.392706   -1.723417    0.718214
     63          1           0        5.120731   -2.146390   -1.335229
     64          6           0        3.112331   -2.308837   -0.621341
     65          6           0        4.121769   -2.497995   -1.561945
     66          6           0        1.826217   -2.754216   -0.921230
     67          1           0        1.044977   -2.655081   -0.173728
     68          6           0        3.851315   -3.113794   -2.776681
     69          1           0        4.645965   -3.248575   -3.499785
     70          6           0        1.556267   -3.375143   -2.131521
     71          6           0        2.566743   -3.552268   -3.066595
     72          1           0        0.555070   -3.730729   -2.342810
     73          1           0        2.355398   -4.033985   -4.012835
     74          1           0        3.590547    0.523531    2.497575
     75          1           0        4.919965   -3.111226    1.047169
     76          1           0       -2.802266    0.773817    3.342136
     77          1           0       -3.572258   -3.822649   -0.944106
     78          6           0        0.324072    3.612757   -1.045419
     79          1           0        1.297277    3.118492   -1.129541
     80          6           0       -0.028940    3.750209    0.430026
     81          1           0       -0.996360    4.244332    0.549900
     82          1           0       -0.072719    2.779879    0.930023
     83          1           0        0.722611    4.356660    0.938672
     84          6           0        0.410805    4.977357   -1.721289
     85          1           0       -0.551003    5.492263   -1.681472
     86          1           0        1.151922    5.601311   -1.219198
     87          1           0        0.705277    4.883353   -2.768667
     88          6           0       -5.233789   -2.845270   -1.875665
     89          1           0       -5.640026   -3.741234   -2.345934
     90          1           0       -6.062025   -2.191543   -1.598425
     91          1           0       -4.608391   -2.323472   -2.599468
     92          6           0       -5.279299   -3.959284    0.379027
     93          1           0       -5.614709   -4.913458   -0.029698
     94          1           0       -4.727664   -4.153656    1.297838
     95          1           0       -6.158040   -3.362276    0.627997
     96          6           0       -1.245364    0.736734    4.824165
     97          1           0       -1.870199    1.123762    5.630835
     98          1           0       -1.222259   -0.350895    4.901862
     99          1           0       -0.231004    1.118026    4.956585
    100          6           0       -1.817533    2.673013    3.301001
    101          1           0       -0.805072    3.077551    3.356385
    102          1           0       -2.246464    2.934526    2.333284
    103          1           0       -2.417272    3.132774    4.088030
 ---------------------------------------------------------------------
 Rotational constants (GHZ):           0.0781671           0.0588210           0.0524648
 Leave Link  202 at Mon Oct  6 14:24:54 2025, MaxMem=   104857600 cpu:               0.0 elap:               0.0
 (Enter /home/zhouoh/g16/l301.exe)
 Standard basis: STO-3G (5D, 7F)
 Ernie: Thresh=  0.10000D-02 Tol=  0.10000D-05 Strict=F.
   325 basis functions,   981 primitive gaussians,   327 cartesian basis functions
   202 alpha electrons      202 beta electrons
       nuclear repulsion energy      9284.7559575511 Hartrees.



 Warning!  P  atom    1 may be hypervalent but has no d functions.



 IExCor=    0 DFT=F Ex=HF Corr=None ExCW=0 ScaHFX=  1.000000
 ScaDFX=  1.000000  1.000000  1.000000  1.000000 ScalE2=  1.000000  1.000000
 IRadAn=      5 IRanWt=     -1 IRanGd=            0 ICorTp=0 IEmpDi=  4
 NAtoms=  103 NActive=  103 NUniq=  103 SFac= 1.00D+00 NAtFMM=   60 NAOKFM=T Big=T
 Integral buffers will be    131072 words long.
 Raffenetti 1 integral format.
 Two-electron integral symmetry is turned off.
 Leave Link  301 at Mon Oct  6 14:24:54 2025, MaxMem=   104857600 cpu:               0.0 elap:               0.0
 (Enter /home/zhouoh/g16/l402.exe)
 External calculation of energy and first derivatives.
 Running external command "python ../GauUMA_client.py R"
         input file       "/home/zhouoh/scratch/Gau-2814882.EIn"
         output file      "/home/zhouoh/scratch/Gau-2814882.EOu"
         message file     "/home/zhouoh/scratch/Gau-2814882.EMs"
         fchk file        "/home/zhouoh/scratch/Gau-2814882.EFC"
         mat. el file     "/home/zhouoh/scratch/Gau-2814882.EUF"
Sent job to server.
Received result from server:
SCF Done:  E(UMA) =  -2420.6368069158457     A.U.
 Recovered energy= -2420.63680692     dipole=      0.000000000000      0.000000000000      0.000000000000
 Energy=    -2420.63681     NIter=   0.
 Dipole moment=       0.000000       0.000000       0.000000
 Leave Link  402 at Mon Oct  6 14:24:54 2025, MaxMem=   104857600 cpu:               0.0 elap:               0.1
 (Enter /home/zhouoh/g16/l716.exe)
 Dipole        = 0.00000000D+00 0.00000000D+00 0.00000000D+00
 -------------------------------------------------------------------
 Center     Atomic                   Forces (Hartrees/Bohr)
 Number     Number              X              Y              Z
 -------------------------------------------------------------------
      1       15           0.000785913    0.001072409   -0.000250698
      2        8           0.000011282    0.000115394   -0.000096611
      3        8           0.000015228    0.000000144   -0.000015238
      4        8           0.000031006    0.000126702   -0.000205087
      5        6           0.000273414   -0.000000734    0.000137746
      6        6           0.000299437    0.000142149    0.000106410
      7        6           0.000070233    0.000317464   -0.000159250
      8        6           0.000183069   -0.000069900    0.000163898
      9        6           0.000242324    0.000031737    0.000245170
     10        6           0.000215833   -0.000031040    0.000046429
     11        6           0.000163484    0.000047545    0.000024343
     12        6           0.000183256    0.000014105   -0.000057831
     13        6           0.000177628   -0.000017717   -0.000179500
     14        6           0.000104619   -0.000050157   -0.000036501
     15        6           0.000135407   -0.000078404   -0.000111729
     16        6           0.000106198   -0.000074468   -0.000068597
     17        6           0.000047946    0.000009192   -0.000053560
     18        6           0.000175719    0.000037502   -0.000144693
     19        6           0.000018366    0.000023413    0.000049643
     20        6           0.000311620    0.000080407   -0.000274234
     21        6           0.000165509    0.000064316   -0.000169266
     22        6          -0.000011911   -0.000019573    0.000001718
     23        6           0.000045018    0.000001407   -0.000045652
     24        1           0.000002061    0.000030653   -0.000015571
     25        1           0.000013429   -0.000015768    0.000019046
     26        1           0.000010799   -0.000008595    0.000001455
     27        1           0.000017382   -0.000004440    0.000016237
     28        1           0.000001102    0.000007157    0.000016791
     29        1           0.000027012    0.000007469    0.000032368
     30        1           0.000026924   -0.000009728    0.000001482
     31        1           0.000016102   -0.000018952   -0.000008503
     32        1           0.000007921    0.000007364   -0.000001315
     33        1           0.000024534   -0.000002018    0.000009901
     34        1           0.000004682   -0.000006734   -0.000007125
     35        1           0.000009470   -0.000014518   -0.000016315
     36        1           0.000005952   -0.000010094   -0.000008714
     37        1          -0.000003836    0.000000900    0.000015088
     38        1           0.000048881    0.000003597   -0.000056613
     39        1           0.000022395    0.000007088   -0.000022573
     40       46           0.009166566   -0.005568827    0.007656095
     41        1           0.000427058   -0.000178606    0.000249915
     42        6           0.002797001   -0.000153880    0.000940400
     43        6           0.001530970    0.000545154    0.000225111
     44        1           0.000319270   -0.000088844    0.000123986
     45        6          -0.002533076    0.002798606   -0.002908016
     46        1          -0.000264485    0.000208879   -0.000268420
     47        6          -0.005483005    0.005314668   -0.005450079
     48        6          -0.003341606    0.003368622   -0.003474131
     49        1          -0.000388900    0.000319544   -0.000323347
     50        6           0.001228050    0.000667392   -0.000323400
     51        1           0.000262590   -0.000017333    0.000110328
     52        1           0.000148662    0.000074012    0.000030213
     53        6           0.000614186    0.000019027    0.001010288
     54        1           0.000071431    0.000009896    0.000220495
     55        1           0.000015467   -0.000031193   -0.000023082
     56        1           0.000030040   -0.000019449    0.000053174
     57        1           0.000037200   -0.000027559    0.000065915
     58        6           0.000323473   -0.000046809    0.000172421
     59        6          -0.001051113   -0.001597428   -0.000209679
     60        6           0.000940496    0.000836881   -0.000219682
     61        7          -0.005913299   -0.006888024    0.002953922
     62        6          -0.001372820   -0.001506133    0.000950297
     63        1          -0.000044824    0.000043039    0.000051970
     64        6          -0.000557920   -0.000653325    0.000493251
     65        6          -0.000432272    0.000306462    0.000403079
     66        6          -0.000388246   -0.000787820   -0.000080941
     67        1          -0.000034911   -0.000128067   -0.000002325
     68        6          -0.000079730    0.000518263    0.000198961
     69        1           0.000006286    0.000078286    0.000024365
     70        6          -0.000097414   -0.000336185   -0.000355683
     71        6           0.000118797    0.000135981   -0.000196706
     72        1           0.000003726   -0.000046170   -0.000049334
     73        1           0.000039167    0.000021196   -0.000027291
     74        1          -0.000103976   -0.000214861   -0.000367402
     75        1           0.000280734    0.000325874   -0.000074541
     76        1           0.000004885   -0.000001241   -0.000003839
     77        1          -0.000001206   -0.000002319    0.000001426
     78        6          -0.000056051    0.000356315   -0.000138656
     79        1          -0.000013025    0.000053867   -0.000026469
     80        6          -0.000128780    0.000159547   -0.000132992
     81        1          -0.000008083    0.000018334   -0.000012587
     82        1          -0.000027709    0.000009080   -0.000017058
     83        1          -0.000009102    0.000002421    0.000001078
     84        6          -0.000100518    0.000369108   -0.000044830
     85        1          -0.000007413    0.000031889   -0.000006995
     86        1          -0.000008209    0.000027580    0.000001952
     87        1          -0.000001750    0.000032593   -0.000002345
     88        6          -0.000002430   -0.000015111   -0.000003544
     89        1          -0.000001020   -0.000001508   -0.000000023
     90        1          -0.000000027   -0.000000277   -0.000001007
     91        1           0.000000541   -0.000002374   -0.000000642
     92        6          -0.000017805   -0.000000961    0.000004310
     93        1          -0.000002508   -0.000000090   -0.000000674
     94        1          -0.000002546   -0.000001807   -0.000000000
     95        1          -0.000001987    0.000000553    0.000000580
     96        6           0.000088176   -0.000049250   -0.000083837
     97        1           0.000007381   -0.000004487   -0.000006360
     98        1           0.000007053   -0.000004000   -0.000008466
     99        1           0.000008656   -0.000005836   -0.000007474
    100        6           0.000012029    0.000008305    0.000015035
    101        1           0.000001572    0.000001782    0.000001740
    102        1          -0.000001604    0.000004319    0.000003993
    103        1           0.000002494   -0.000002971    0.000005014
 -------------------------------------------------------------------
 Cartesian Forces:  Max     0.009166566 RMS     0.001197734
 Z-matrix is all fixed cartesians, so copy forces.
 Leave Link  716 at Mon Oct  6 14:24:54 2025, MaxMem=   104857600 cpu:               0.0 elap:               0.0
 (Enter /home/zhouoh/g16/l123.exe)
 IRC-IRC-IRC-IRC-IRC-IRC-IRC-IRC-IRC-IRC-IRC-IRC-IRC-IRC-IRC-IRC-IRC-IRC
 Pt  8 Step number   1 out of a maximum of  20
 Point Number:   8          Path Number:   1
   CHANGE IN THE REACTION COORDINATE =    0.28886
   NET REACTION COORDINATE UP TO THIS POINT =    2.31080
  # OF POINTS ALONG THE PATH =   8
  # OF STEPS =   1

 Calculating another point on the path.
 Point Number  9 in FORWARD path direction.
 Using LQA Reaction Path Following.
   LQA: T_Est iteration completed in    3 iterations.
 IRC-IRC-IRC-IRC-IRC-IRC-IRC-IRC-IRC-IRC-IRC-IRC-IRC-IRC-IRC-IRC-IRC-IRC
 Leave Link  123 at Mon Oct  6 14:24:54 2025, MaxMem=   104857600 cpu:               0.1 elap:               0.1
 (Enter /home/zhouoh/g16/l202.exe)
 Symmetry turned off by external request.
 Stoichiometry    C43H54NO3PPd
 Framework group  C1[X(C43H54NO3PPd)]
 Deg. of freedom   303
 Full point group                 C1      NOp   1
                          Input orientation:                          
 ---------------------------------------------------------------------
 Center     Atomic      Atomic             Coordinates (Angstroms)
 Number     Number       Type             X           Y           Z
 ---------------------------------------------------------------------
      1         15           0       -0.696315    0.956088   -1.178657
      2          8           0       -2.007103    3.229664   -1.695164
      3          8           0       -3.959894   -1.980487   -0.099202
      4          8           0       -0.956941    0.632287    2.423465
      5          6           0       -1.110097    0.011773   -2.734277
      6          6           0       -2.294984    1.290154   -0.394037
      7          6           0       -0.656609    2.712511   -1.786024
      8          6           0       -2.216211    0.662015   -3.564413
      9          6           0       -1.559414   -1.389383   -2.321050
     10          6           0        0.190569   -0.079315   -3.538136
     11          6           0       -2.782144    2.514810   -0.840085
     12          6           0       -3.023055    0.541602    0.531476
     13          6           0       -2.425563   -0.701017    1.095330
     14          6           0       -4.019263    2.992227   -0.432347
     15          6           0       -4.268074    1.008898    0.936393
     16          6           0       -4.756931    2.217052    0.449415
     17          6           0       -2.872755   -1.971302    0.715241
     18          6           0       -1.349014   -0.605983    1.980032
     19          6           0       -2.192160   -3.110369    1.139606
     20          6           0       -0.659795   -1.736530    2.402706
     21          6           0       -1.082731   -2.979333    1.964026
     22          6           0       -4.434931   -3.218780   -0.643730
     23          6           0       -1.791520    1.172118    3.477803
     24          1           0       -0.401556    2.712930   -2.847324
     25          1           0       -2.419003    0.033926   -4.436525
     26          1           0       -1.942265    1.652329   -3.928720
     27          1           0       -3.142679    0.752049   -2.993928
     28          1           0       -1.653848   -2.016530   -3.213123
     29          1           0       -2.529247   -1.352300   -1.825312
     30          1           0       -0.839636   -1.862345   -1.649017
     31          1           0        0.969136   -0.595158   -2.971690
     32          1           0        0.008849   -0.641185   -4.458342
     33          1           0        0.570704    0.905763   -3.820044
     34          1           0       -4.380071    3.945034   -0.795408
     35          1           0       -4.851081    0.429029    1.640563
     36          1           0       -5.726147    2.569753    0.778969
     37          1           0       -2.510883   -4.095523    0.834483
     38          1           0        0.192531   -1.622214    3.058048
     39          1           0       -0.549963   -3.867923    2.278283
     40         46           0        0.998946    0.022200    0.073646
     41          1           0        5.022761    3.942737   -1.159029
     42          6           0        4.396126    3.121435   -0.835941
     43          6           0        3.688451    3.206085    0.355433
     44          1           0        3.767563    4.093385    0.973032
     45          6           0        2.849092    2.174522    0.749537
     46          1           0        2.265283    2.276770    1.654696
     47          6           0        2.681528    1.071846   -0.080916
     48          6           0        3.478051    0.921597   -1.209846
     49          1           0        3.394505    0.040411   -1.831432
     50          6           0        4.316495    1.960494   -1.592947
     51          1           0        4.892026    1.868081   -2.506432
     52          1           0        3.342779   -0.959960    4.457178
     53          6           0        3.227668   -1.355025    3.445478
     54          1           0        2.457585   -2.132327    3.473183
     55          1           0        4.793264   -2.853143    3.485492
     56          1           0        1.886249    0.250179    2.874268
     57          1           0        5.348632   -1.239295    3.088300
     58          6           0        4.531389   -1.951633    2.925959
     59          6           0        2.791501   -0.239141    2.505536
     60          6           0        4.363605   -2.284948    1.470427
     61          7           0        2.523844   -0.753962    1.173251
     62          6           0        3.388911   -1.727162    0.720669
     63          1           0        5.119252   -2.145040   -1.333510
     64          6           0        3.110867   -2.310598   -0.620037
     65          6           0        4.120638   -2.497215   -1.560896
     66          6           0        1.825195   -2.756302   -0.921446
     67          1           0        1.043895   -2.659217   -0.173727
     68          6           0        3.851107   -3.112418   -2.776174
     69          1           0        4.646181   -3.246042   -3.499053
     70          6           0        1.556012   -3.376041   -2.132457
     71          6           0        2.567060   -3.551902   -3.067120
     72          1           0        0.555142   -3.732206   -2.344442
     73          1           0        2.356644   -4.033283   -4.013742
     74          1           0        3.588782    0.518280    2.486640
     75          1           0        4.929907   -3.102613    1.044193
     76          1           0       -2.802121    0.773766    3.341991
     77          1           0       -3.572290   -3.822717   -0.944057
     78          6           0        0.323898    3.613711   -1.045785
     79          1           0        1.297190    3.120040   -1.130321
     80          6           0       -0.029287    3.750645    0.429675
     81          1           0       -0.996634    4.244918    0.549494
     82          1           0       -0.073555    2.780226    0.929480
     83          1           0        0.722288    4.356702    0.938680
     84          6           0        0.410511    4.978347   -1.721417
     85          1           0       -0.551268    5.493306   -1.681701
     86          1           0        1.151610    5.602169   -1.219154
     87          1           0        0.705188    4.884418   -2.768742
     88          6           0       -5.233794   -2.845309   -1.875671
     89          1           0       -5.640046   -3.741266   -2.345929
     90          1           0       -6.062019   -2.191559   -1.598458
     91          1           0       -4.608377   -2.323550   -2.599492
     92          6           0       -5.279348   -3.959285    0.379039
     93          1           0       -5.614778   -4.913438   -0.029710
     94          1           0       -4.727745   -4.153722    1.297853
     95          1           0       -6.158084   -3.362270    0.628013
     96          6           0       -1.245128    0.736604    4.823939
     97          1           0       -1.869967    1.123610    5.630615
     98          1           0       -1.222022   -0.351023    4.901599
     99          1           0       -0.230753    1.117820    4.956342
    100          6           0       -1.817498    2.673033    3.301039
    101          1           0       -0.805049    3.077592    3.356444
    102          1           0       -2.246529    2.934675    2.333396
    103          1           0       -2.417187    3.132663    4.088174
 ---------------------------------------------------------------------
 Rotational constants (GHZ):           0.0781391           0.0588286           0.0524615
 Leave Link  202 at Mon Oct  6 14:24:54 2025, MaxMem=   104857600 cpu:               0.0 elap:               0.0
 (Enter /home/zhouoh/g16/l301.exe)
 Standard basis: STO-3G (5D, 7F)
 Ernie: Thresh=  0.10000D-02 Tol=  0.10000D-05 Strict=F.
   325 basis functions,   981 primitive gaussians,   327 cartesian basis functions
   202 alpha electrons      202 beta electrons
       nuclear repulsion energy      9284.4658381190 Hartrees.



 Warning!  P  atom    1 may be hypervalent but has no d functions.



 IExCor=    0 DFT=F Ex=HF Corr=None ExCW=0 ScaHFX=  1.000000
 ScaDFX=  1.000000  1.000000  1.000000  1.000000 ScalE2=  1.000000  1.000000
 IRadAn=      5 IRanWt=     -1 IRanGd=            0 ICorTp=0 IEmpDi=  4
 NAtoms=  103 NActive=  103 NUniq=  103 SFac= 1.00D+00 NAtFMM=   60 NAOKFM=T Big=T
 Integral buffers will be    131072 words long.
 Raffenetti 1 integral format.
 Two-electron integral symmetry is turned off.
 Leave Link  301 at Mon Oct  6 14:24:54 2025, MaxMem=   104857600 cpu:               0.0 elap:               0.0
 (Enter /home/zhouoh/g16/l402.exe)
 External calculation of energy and first derivatives.
 Running external command "python ../GauUMA_client.py R"
         input file       "/home/zhouoh/scratch/Gau-2814882.EIn"
         output file      "/home/zhouoh/scratch/Gau-2814882.EOu"
         message file     "/home/zhouoh/scratch/Gau-2814882.EMs"
         fchk file        "/home/zhouoh/scratch/Gau-2814882.EFC"
         mat. el file     "/home/zhouoh/scratch/Gau-2814882.EUF"
Sent job to server.
Received result from server:
SCF Done:  E(UMA) =  -2420.6382519689887     A.U.
 Recovered energy= -2420.63825197     dipole=      0.000000000000      0.000000000000      0.000000000000
 Energy=    -2420.63825     NIter=   0.
 Dipole moment=       0.000000       0.000000       0.000000
 Leave Link  402 at Mon Oct  6 14:24:54 2025, MaxMem=   104857600 cpu:               0.0 elap:               0.1
 (Enter /home/zhouoh/g16/l716.exe)
 Dipole        = 0.00000000D+00 0.00000000D+00 0.00000000D+00
 -------------------------------------------------------------------
 Center     Atomic                   Forces (Hartrees/Bohr)
 Number     Number              X              Y              Z
 -------------------------------------------------------------------
      1       15           0.000882453    0.001011026   -0.000137466
      2        8           0.000020981    0.000110745   -0.000107923
      3        8           0.000018105   -0.000001055   -0.000015073
      4        8           0.000043440    0.000132785   -0.000216018
      5        6           0.000294944    0.000004726    0.000157440
      6        6           0.000313114    0.000142587    0.000097589
      7        6           0.000080731    0.000313210   -0.000154385
      8        6           0.000202069   -0.000070550    0.000179610
      9        6           0.000267691    0.000037851    0.000262436
     10        6           0.000232021   -0.000034044    0.000061441
     11        6           0.000168944    0.000047973    0.000015936
     12        6           0.000200707    0.000016228   -0.000068230
     13        6           0.000180277   -0.000014754   -0.000179782
     14        6           0.000111786   -0.000051252   -0.000040608
     15        6           0.000146524   -0.000082007   -0.000123443
     16        6           0.000113770   -0.000078655   -0.000074752
     17        6           0.000050647    0.000009583   -0.000052496
     18        6           0.000185143    0.000040100   -0.000153295
     19        6           0.000024783    0.000025870    0.000045800
     20        6           0.000318106    0.000081624   -0.000282354
     21        6           0.000176791    0.000067594   -0.000180281
     22        6          -0.000009727   -0.000017838    0.000003552
     23        6           0.000053980   -0.000002104   -0.000056461
     24        1           0.000002648    0.000027700   -0.000014469
     25        1           0.000015257   -0.000016250    0.000021959
     26        1           0.000012059   -0.000009044    0.000002362
     27        1           0.000018925   -0.000004231    0.000017964
     28        1           0.000004207    0.000007197    0.000018662
     29        1           0.000029093    0.000007422    0.000033830
     30        1           0.000029115   -0.000008255    0.000003923
     31        1           0.000016809   -0.000019483   -0.000006863
     32        1           0.000008882    0.000006774    0.000000043
     33        1           0.000026499   -0.000002887    0.000011110
     34        1           0.000004645   -0.000006420   -0.000007509
     35        1           0.000010957   -0.000015087   -0.000017795
     36        1           0.000006548   -0.000010888   -0.000009193
     37        1          -0.000003657    0.000000212    0.000014510
     38        1           0.000048696    0.000003551   -0.000058013
     39        1           0.000023971    0.000007305   -0.000023828
     40       46           0.009071621   -0.005555839    0.007623376
     41        1           0.000456159   -0.000197067    0.000269013
     42        6           0.002968277   -0.000175655    0.000984261
     43        6           0.001553511    0.000579911    0.000176347
     44        1           0.000323113   -0.000091104    0.000125901
     45        6          -0.002553503    0.002912990   -0.003016703
     46        1          -0.000260214    0.000217094   -0.000275076
     47        6          -0.005434695    0.005325877   -0.005448656
     48        6          -0.003435288    0.003549599   -0.003624871
     49        1          -0.000394523    0.000337832   -0.000340006
     50        6           0.001186790    0.000770686   -0.000402341
     51        1           0.000258581   -0.000014004    0.000101933
     52        1           0.000161859    0.000082287    0.000031293
     53        6           0.000700931   -0.000000209    0.001115404
     54        1           0.000084838    0.000006937    0.000243516
     55        1           0.000022674   -0.000031881   -0.000027630
     56        1           0.000030029   -0.000028751    0.000062263
     57        1           0.000044717   -0.000028827    0.000064884
     58        6           0.000392649   -0.000029884    0.000198649
     59        6          -0.001134958   -0.001744432   -0.000174902
     60        6           0.000950849    0.000934863   -0.000210627
     61        7          -0.006153450   -0.007124450    0.003092458
     62        6          -0.001443789   -0.001623428    0.000993467
     63        1          -0.000048609    0.000045780    0.000055263
     64        6          -0.000598255   -0.000730465    0.000518518
     65        6          -0.000461151    0.000306531    0.000434190
     66        6          -0.000427161   -0.000865726   -0.000082579
     67        1          -0.000039665   -0.000134359   -0.000005927
     68        6          -0.000082772    0.000569030    0.000200192
     69        1           0.000006059    0.000087893    0.000024488
     70        6          -0.000100678   -0.000370511   -0.000384930
     71        6           0.000132390    0.000156783   -0.000218450
     72        1           0.000004242   -0.000048462   -0.000054519
     73        1           0.000042259    0.000026167   -0.000030151
     74        1          -0.000114554   -0.000236411   -0.000385920
     75        1           0.000290876    0.000352694   -0.000077869
     76        1           0.000005556   -0.000001756   -0.000004865
     77        1          -0.000001090   -0.000002451    0.000001627
     78        6          -0.000076997    0.000397926   -0.000154234
     79        1          -0.000013722    0.000060851   -0.000029105
     80        6          -0.000146799    0.000185679   -0.000146675
     81        1          -0.000009470    0.000020035   -0.000013592
     82        1          -0.000029588    0.000011406   -0.000019396
     83        1          -0.000011397    0.000004553    0.000000862
     84        6          -0.000133347    0.000412648   -0.000054841
     85        1          -0.000010249    0.000036028   -0.000007771
     86        1          -0.000011187    0.000030915    0.000001373
     87        1          -0.000004348    0.000036716   -0.000003340
     88        6          -0.000000448   -0.000015268   -0.000002341
     89        1          -0.000000855   -0.000001502   -0.000000064
     90        1           0.000000019   -0.000000363   -0.000000881
     91        1           0.000000725   -0.000002408   -0.000000307
     92        6          -0.000020835   -0.000000515    0.000005003
     93        1          -0.000002486    0.000000520   -0.000000491
     94        1          -0.000001995   -0.000001838    0.000000788
     95        1          -0.000001101    0.000000201    0.000000420
     96        6           0.000096175   -0.000054059   -0.000094773
     97        1           0.000007984   -0.000005098   -0.000006495
     98        1           0.000007974   -0.000004609   -0.000009571
     99        1           0.000009295   -0.000006015   -0.000008201
    100        6           0.000014419    0.000007051    0.000014066
    101        1           0.000001601    0.000001841    0.000001476
    102        1          -0.000001415    0.000004317    0.000003884
    103        1           0.000002482   -0.000003541    0.000005256
 -------------------------------------------------------------------
 Cartesian Forces:  Max     0.009071621 RMS     0.001214718
 Z-matrix is all fixed cartesians, so copy forces.
 Leave Link  716 at Mon Oct  6 14:24:54 2025, MaxMem=   104857600 cpu:               0.0 elap:               0.0
 (Enter /home/zhouoh/g16/l123.exe)
 IRC-IRC-IRC-IRC-IRC-IRC-IRC-IRC-IRC-IRC-IRC-IRC-IRC-IRC-IRC-IRC-IRC-IRC
 Pt  9 Step number   1 out of a maximum of  20
 Point Number:   9          Path Number:   1
   CHANGE IN THE REACTION COORDINATE =    0.28886
   NET REACTION COORDINATE UP TO THIS POINT =    2.59966
  # OF POINTS ALONG THE PATH =   9
  # OF STEPS =   1

 Calculating another point on the path.
 Point Number 10 in FORWARD path direction.
 Using LQA Reaction Path Following.
   LQA: T_Est iteration completed in    3 iterations.
 IRC-IRC-IRC-IRC-IRC-IRC-IRC-IRC-IRC-IRC-IRC-IRC-IRC-IRC-IRC-IRC-IRC-IRC
 Leave Link  123 at Mon Oct  6 14:24:54 2025, MaxMem=   104857600 cpu:               0.1 elap:               0.1
 (Enter /home/zhouoh/g16/l202.exe)
 Symmetry turned off by external request.
 Stoichiometry    C43H54NO3PPd
 Framework group  C1[X(C43H54NO3PPd)]
 Deg. of freedom   303
 Full point group                 C1      NOp   1
                          Input orientation:                          
 ---------------------------------------------------------------------
 Center     Atomic      Atomic             Coordinates (Angstroms)
 Number     Number       Type             X           Y           Z
 ---------------------------------------------------------------------
      1         15           0       -0.695432    0.957052   -1.178753
      2          8           0       -2.007055    3.229858   -1.695373
      3          8           0       -3.959853   -1.980485   -0.099225
      4          8           0       -0.956850    0.632531    2.423047
      5          6           0       -1.109333    0.011784   -2.733862
      6          6           0       -2.294185    1.290488   -0.393783
      7          6           0       -0.656399    2.713287   -1.786401
      8          6           0       -2.215688    0.661843   -3.563943
      9          6           0       -1.558723   -1.389279   -2.320378
     10          6           0        0.191164   -0.079402   -3.537964
     11          6           0       -2.781703    2.514937   -0.840070
     12          6           0       -3.022552    0.541646    0.531300
     13          6           0       -2.425111   -0.701042    1.094870
     14          6           0       -4.018986    2.992097   -0.432450
     15          6           0       -4.267691    1.008686    0.936072
     16          6           0       -4.756638    2.216855    0.449219
     17          6           0       -2.872634   -1.971288    0.715106
     18          6           0       -1.348535   -0.605873    1.979655
     19          6           0       -2.192092   -3.110301    1.139715
     20          6           0       -0.658998   -1.736325    2.401994
     21          6           0       -1.082282   -2.979169    1.963565
     22          6           0       -4.434957   -3.218828   -0.643720
     23          6           0       -1.791377    1.172114    3.477659
     24          1           0       -0.401464    2.713726   -2.847730
     25          1           0       -2.418494    0.033430   -4.435800
     26          1           0       -1.941886    1.652045   -3.928643
     27          1           0       -3.142095    0.751928   -2.993377
     28          1           0       -1.653633   -2.016327   -3.212455
     29          1           0       -2.528359   -1.352064   -1.824287
     30          1           0       -0.838705   -1.862697   -1.648907
     31          1           0        0.969693   -0.595774   -2.971925
     32          1           0        0.009154   -0.640983   -4.458270
     33          1           0        0.571522    0.905647   -3.819680
     34          1           0       -4.379893    3.944816   -0.795634
     35          1           0       -4.850728    0.428570    1.640005
     36          1           0       -5.725932    2.569412    0.778682
     37          1           0       -2.510985   -4.095503    0.834917
     38          1           0        0.194083   -1.622083    3.056320
     39          1           0       -0.549231   -3.867673    2.277546
     40         46           0        1.001488    0.020638    0.075789
     41          1           0        5.037846    3.938368   -1.151428
     42          6           0        4.403598    3.120899   -0.833401
     43          6           0        3.692464    3.207639    0.355743
     44          1           0        3.777601    4.091654    0.977202
     45          6           0        2.842634    2.181584    0.741996
     46          1           0        2.257188    2.283586    1.646196
     47          6           0        2.668044    1.085222   -0.094567
     48          6           0        3.469242    0.930368   -1.218806
     49          1           0        3.382180    0.050620   -1.842230
     50          6           0        4.319506    1.962657   -1.594065
     51          1           0        4.900219    1.867958   -2.503997
     52          1           0        3.347931   -0.957268    4.458647
     53          6           0        3.229534   -1.355048    3.448366
     54          1           0        2.459887   -2.132654    3.480824
     55          1           0        4.794082   -2.854201    3.484632
     56          1           0        1.886470    0.249431    2.876664
     57          1           0        5.350072   -1.240072    3.090378
     58          6           0        4.532427   -1.951662    2.926455
     59          6           0        2.788538   -0.243710    2.505098
     60          6           0        4.366077   -2.282545    1.470052
     61          7           0        2.510524   -0.769442    1.179846
     62          6           0        3.385031   -1.731102    0.723159
     63          1           0        5.117703   -2.143640   -1.331728
     64          6           0        3.109327   -2.312508   -0.618701
     65          6           0        4.119461   -2.496453   -1.559791
     66          6           0        1.824098   -2.758540   -0.921663
     67          1           0        1.042663   -2.663430   -0.173828
     68          6           0        3.850897   -3.110946   -2.775676
     69          1           0        4.646399   -3.243277   -3.498344
     70          6           0        1.555754   -3.377005   -2.133448
     71          6           0        2.567404   -3.551488   -3.067689
     72          1           0        0.555222   -3.733730   -2.346197
     73          1           0        2.357951   -4.032451   -4.014739
     74          1           0        3.586782    0.512659    2.475463
     75          1           0        4.939957   -3.093529    1.041176
     76          1           0       -2.801955    0.773702    3.341820
     77          1           0       -3.572320   -3.822787   -0.944003
     78          6           0        0.323673    3.614752   -1.046183
     79          1           0        1.297073    3.121762   -1.131166
     80          6           0       -0.029672    3.751142    0.429295
     81          1           0       -0.996954    4.245548    0.549065
     82          1           0       -0.074431    2.780619    0.928883
     83          1           0        0.721903    4.356819    0.938684
     84          6           0        0.410134    4.979429   -1.721569
     85          1           0       -0.551616    5.494443   -1.681950
     86          1           0        1.151215    5.603120   -1.219132
     87          1           0        0.705014    4.885585   -2.768844
     88          6           0       -5.233793   -2.845346   -1.875674
     89          1           0       -5.640060   -3.741299   -2.345924
     90          1           0       -6.062010   -2.191576   -1.598488
     91          1           0       -4.608355   -2.323623   -2.599507
     92          6           0       -5.279399   -3.959284    0.379053
     93          1           0       -5.614850   -4.913416   -0.029720
     94          1           0       -4.727821   -4.153783    1.297870
     95          1           0       -6.158125   -3.362259    0.628030
     96          6           0       -1.244878    0.736464    4.823692
     97          1           0       -1.869716    1.123439    5.630384
     98          1           0       -1.221763   -0.351162    4.901305
     99          1           0       -0.230488    1.117615    4.956080
    100          6           0       -1.817457    2.673048    3.301072
    101          1           0       -0.805021    3.077637    3.356496
    102          1           0       -2.246586    2.934819    2.333504
    103          1           0       -2.417101    3.132537    4.088318
 ---------------------------------------------------------------------
 Rotational constants (GHZ):           0.0781102           0.0588360           0.0524578
 Leave Link  202 at Mon Oct  6 14:24:54 2025, MaxMem=   104857600 cpu:               0.0 elap:               0.0
 (Enter /home/zhouoh/g16/l301.exe)
 Standard basis: STO-3G (5D, 7F)
 Ernie: Thresh=  0.10000D-02 Tol=  0.10000D-05 Strict=F.
   325 basis functions,   981 primitive gaussians,   327 cartesian basis functions
   202 alpha electrons      202 beta electrons
       nuclear repulsion energy      9284.1290830989 Hartrees.



 Warning!  P  atom    1 may be hypervalent but has no d functions.



 IExCor=    0 DFT=F Ex=HF Corr=None ExCW=0 ScaHFX=  1.000000
 ScaDFX=  1.000000  1.000000  1.000000  1.000000 ScalE2=  1.000000  1.000000
 IRadAn=      5 IRanWt=     -1 IRanGd=            0 ICorTp=0 IEmpDi=  4
 NAtoms=  103 NActive=  103 NUniq=  103 SFac= 1.00D+00 NAtFMM=   60 NAOKFM=T Big=T
 Integral buffers will be    131072 words long.
 Raffenetti 1 integral format.
 Two-electron integral symmetry is turned off.
 Leave Link  301 at Mon Oct  6 14:24:54 2025, MaxMem=   104857600 cpu:               0.0 elap:               0.0
 (Enter /home/zhouoh/g16/l402.exe)
 External calculation of energy and first derivatives.
 Running external command "python ../GauUMA_client.py R"
         input file       "/home/zhouoh/scratch/Gau-2814882.EIn"
         output file      "/home/zhouoh/scratch/Gau-2814882.EOu"
         message file     "/home/zhouoh/scratch/Gau-2814882.EMs"
         fchk file        "/home/zhouoh/scratch/Gau-2814882.EFC"
         mat. el file     "/home/zhouoh/scratch/Gau-2814882.EUF"
Sent job to server.
Received result from server:
SCF Done:  E(UMA) =  -2420.6397231671076     A.U.
 Recovered energy= -2420.63972317     dipole=      0.000000000000      0.000000000000      0.000000000000
 Energy=    -2420.63972     NIter=   0.
 Dipole moment=       0.000000       0.000000       0.000000
 Leave Link  402 at Mon Oct  6 14:24:54 2025, MaxMem=   104857600 cpu:               0.0 elap:               0.1
 (Enter /home/zhouoh/g16/l716.exe)
 Dipole        = 0.00000000D+00 0.00000000D+00 0.00000000D+00
 -------------------------------------------------------------------
 Center     Atomic                   Forces (Hartrees/Bohr)
 Number     Number              X              Y              Z
 -------------------------------------------------------------------
      1       15           0.000965964    0.000949927   -0.000027821
      2        8           0.000029647    0.000102093   -0.000119920
      3        8           0.000019735   -0.000001541   -0.000014712
      4        8           0.000056527    0.000136773   -0.000224425
      5        6           0.000315636    0.000010429    0.000176686
      6        6           0.000324602    0.000141511    0.000091258
      7        6           0.000090520    0.000307141   -0.000149047
      8        6           0.000221403   -0.000070184    0.000196436
      9        6           0.000291701    0.000042946    0.000279381
     10        6           0.000247653   -0.000036968    0.000076892
     11        6           0.000174181    0.000047283    0.000007054
     12        6           0.000212104    0.000017800   -0.000076375
     13        6           0.000182348   -0.000012405   -0.000177809
     14        6           0.000116074   -0.000051445   -0.000045357
     15        6           0.000156195   -0.000084744   -0.000134259
     16        6           0.000121111   -0.000082064   -0.000081326
     17        6           0.000053497    0.000011188   -0.000050875
     18        6           0.000192972    0.000041715   -0.000160701
     19        6           0.000031003    0.000026559    0.000040194
     20        6           0.000318288    0.000081160   -0.000286184
     21        6           0.000185395    0.000069896   -0.000187640
     22        6          -0.000007839   -0.000016430    0.000006308
     23        6           0.000062132   -0.000005839   -0.000066981
     24        1           0.000003355    0.000024765   -0.000013184
     25        1           0.000016745   -0.000016889    0.000023875
     26        1           0.000013421   -0.000009152    0.000003238
     27        1           0.000020746   -0.000003968    0.000019310
     28        1           0.000007279    0.000007298    0.000020429
     29        1           0.000030485    0.000007407    0.000034749
     30        1           0.000030674   -0.000006614    0.000006104
     31        1           0.000017243   -0.000019669   -0.000005372
     32        1           0.000009944    0.000006437    0.000002086
     33        1           0.000028232   -0.000003690    0.000012374
     34        1           0.000005547   -0.000007217   -0.000007635
     35        1           0.000012017   -0.000015616   -0.000019026
     36        1           0.000006804   -0.000011299   -0.000009542
     37        1          -0.000003030    0.000000501    0.000013871
     38        1           0.000048108    0.000003349   -0.000057572
     39        1           0.000024647    0.000007540   -0.000024721
     40       46           0.008884844   -0.005490005    0.007501464
     41        1           0.000476679   -0.000214676    0.000284750
     42        6           0.003097067   -0.000200529    0.001015610
     43        6           0.001556509    0.000592186    0.000129500
     44        1           0.000322393   -0.000093773    0.000126093
     45        6          -0.002540021    0.002981238   -0.003083424
     46        1          -0.000253740    0.000224413   -0.000279626
     47        6          -0.005315702    0.005228931   -0.005351749
     48        6          -0.003484823    0.003678057   -0.003728629
     49        1          -0.000395904    0.000355589   -0.000352397
     50        6           0.001123488    0.000857905   -0.000472364
     51        1           0.000250180   -0.000010386    0.000091677
     52        1           0.000173151    0.000090890    0.000031886
     53        6           0.000781060   -0.000016104    0.001200924
     54        1           0.000098491    0.000003582    0.000263904
     55        1           0.000030567   -0.000031713   -0.000032549
     56        1           0.000026440   -0.000039208    0.000070934
     57        1           0.000052752   -0.000028925    0.000062317
     58        6           0.000458193   -0.000007646    0.000218390
     59        6          -0.001214132   -0.001870358   -0.000133307
     60        6           0.000929216    0.001025549   -0.000202023
     61        7          -0.006271070   -0.007214212    0.003163054
     62        6          -0.001503385   -0.001714847    0.001023127
     63        1          -0.000052895    0.000047971    0.000058157
     64        6          -0.000639137   -0.000797202    0.000537238
     65        6          -0.000486452    0.000302079    0.000461955
     66        6          -0.000463555   -0.000938492   -0.000086204
     67        1          -0.000043921   -0.000139631   -0.000009334
     68        6          -0.000085283    0.000615615    0.000200688
     69        1           0.000006178    0.000097067    0.000024231
     70        6          -0.000102935   -0.000403646   -0.000412575
     71        6           0.000146142    0.000179448   -0.000239445
     72        1           0.000004482   -0.000050878   -0.000059698
     73        1           0.000044758    0.000030794   -0.000034087
     74        1          -0.000126271   -0.000252542   -0.000395571
     75        1           0.000293938    0.000374852   -0.000079932
     76        1           0.000005974   -0.000002263   -0.000005732
     77        1          -0.000000714   -0.000002586    0.000001797
     78        6          -0.000099057    0.000438738   -0.000168951
     79        1          -0.000014297    0.000067260   -0.000031048
     80        6          -0.000166138    0.000214090   -0.000160217
     81        1          -0.000011348    0.000021891   -0.000014574
     82        1          -0.000030945    0.000013559   -0.000021503
     83        1          -0.000013637    0.000007312    0.000000513
     84        6          -0.000171551    0.000456163   -0.000066876
     85        1          -0.000013128    0.000039539   -0.000008591
     86        1          -0.000014587    0.000034355    0.000000605
     87        1          -0.000007677    0.000040811   -0.000004253
     88        6           0.000001098   -0.000014828   -0.000001130
     89        1          -0.000000491   -0.000001514   -0.000000021
     90        1           0.000000658   -0.000000664   -0.000000957
     91        1           0.000000913   -0.000002279   -0.000000095
     92        6          -0.000019801    0.000000679    0.000006556
     93        1          -0.000002768    0.000000274   -0.000000547
     94        1          -0.000002541   -0.000001598    0.000000141
     95        1          -0.000001392    0.000000612    0.000000642
     96        6           0.000103545   -0.000058786   -0.000103493
     97        1           0.000008984   -0.000006106   -0.000007590
     98        1           0.000008850   -0.000004968   -0.000010748
     99        1           0.000009562   -0.000006190   -0.000009158
    100        6           0.000017349    0.000005072    0.000013159
    101        1           0.000001427    0.000001869    0.000001364
    102        1          -0.000001458    0.000004435    0.000003018
    103        1           0.000002799   -0.000004245    0.000004942
 -------------------------------------------------------------------
 Cartesian Forces:  Max     0.008884844 RMS     0.001214940
 Z-matrix is all fixed cartesians, so copy forces.
 Leave Link  716 at Mon Oct  6 14:24:54 2025, MaxMem=   104857600 cpu:               0.0 elap:               0.0
 (Enter /home/zhouoh/g16/l123.exe)
 IRC-IRC-IRC-IRC-IRC-IRC-IRC-IRC-IRC-IRC-IRC-IRC-IRC-IRC-IRC-IRC-IRC-IRC
 Pt 10 Step number   1 out of a maximum of  20
 Point Number:  10          Path Number:   1
   CHANGE IN THE REACTION COORDINATE =    0.28886
   NET REACTION COORDINATE UP TO THIS POINT =    2.88852
  # OF POINTS ALONG THE PATH =  10
  # OF STEPS =   1

 Maximum number of steps reached.
 Calculation of FORWARD path complete.
 Beginning calculation of the REVERSE path.
 
 Calculating another point on the path.
 Point Number  1 in REVERSE path direction.
 Using LQA Reaction Path Following.
 IRC-IRC-IRC-IRC-IRC-IRC-IRC-IRC-IRC-IRC-IRC-IRC-IRC-IRC-IRC-IRC-IRC-IRC
 Leave Link  123 at Mon Oct  6 14:24:55 2025, MaxMem=   104857600 cpu:               0.0 elap:               0.0
 (Enter /home/zhouoh/g16/l202.exe)
 Symmetry turned off by external request.
 Stoichiometry    C43H54NO3PPd
 Framework group  C1[X(C43H54NO3PPd)]
 Deg. of freedom   303
 Full point group                 C1      NOp   1
                          Input orientation:                          
 ---------------------------------------------------------------------
 Center     Atomic      Atomic             Coordinates (Angstroms)
 Number     Number       Type             X           Y           Z
 ---------------------------------------------------------------------
      1         15           0       -0.699587    0.942015   -1.171463
      2          8           0       -2.007003    3.227727   -1.693699
      3          8           0       -3.960128   -1.980708   -0.099022
      4          8           0       -0.956870    0.630243    2.427073
      5          6           0       -1.116112    0.012534   -2.736413
      6          6           0       -2.301401    1.286839   -0.398361
      7          6           0       -0.657564    2.703315   -1.781499
      8          6           0       -2.219697    0.663410   -3.567639
      9          6           0       -1.563927   -1.389917   -2.326517
     10          6           0        0.185778   -0.078788   -3.538642
     11          6           0       -2.785868    2.513433   -0.840979
     12          6           0       -3.026281    0.541670    0.532017
     13          6           0       -2.429794   -0.700650    1.100227
     14          6           0       -4.021137    2.993433   -0.431584
     15          6           0       -4.270642    1.010778    0.938552
     16          6           0       -4.759150    2.218521    0.450968
     17          6           0       -2.873430   -1.971170    0.716921
     18          6           0       -1.353397   -0.607083    1.982995
     19          6           0       -2.192229   -3.111040    1.138244
     20          6           0       -0.667080   -1.738186    2.408676
     21          6           0       -1.085789   -2.980587    1.967302
     22          6           0       -4.434489   -3.218125   -0.643579
     23          6           0       -1.792089    1.171870    3.478101
     24          1           0       -0.401485    2.703586   -2.842763
     25          1           0       -2.423374    0.038380   -4.442178
     26          1           0       -1.944937    1.654884   -3.928514
     27          1           0       -3.146445    0.753185   -2.997429
     28          1           0       -1.654105   -2.018510   -3.218443
     29          1           0       -2.535474   -1.354564   -1.833778
     30          1           0       -0.845915   -1.854526   -1.647155
     31          1           0        0.963590   -0.589172   -2.966384
     32          1           0        0.006822   -0.643684   -4.457949
     33          1           0        0.564584    0.906338   -3.822631
     34          1           0       -4.381532    3.946981   -0.793437
     35          1           0       -4.853248    0.432477    1.644557
     36          1           0       -5.727820    2.572218    0.781344
     37          1           0       -2.509285   -4.095732    0.829985
     38          1           0        0.179086   -1.623287    3.072279
     39          1           0       -0.555231   -3.870002    2.283612
     40         46           0        0.967235    0.038976    0.049431
     41          1           0        4.910685    3.967556   -1.213045
     42          6           0        4.337297    3.123106   -0.854947
     43          6           0        3.645673    3.193178    0.345992
     44          1           0        3.665475    4.105462    0.931294
     45          6           0        2.913847    2.112964    0.817764
     46          1           0        2.367194    2.212401    1.744872
     47          6           0        2.847303    0.929072    0.072723
     48          6           0        3.557289    0.849329   -1.133160
     49          1           0        3.526548   -0.050629   -1.727980
     50          6           0        4.275730    1.944329   -1.588623
     51          1           0        4.796474    1.867144   -2.535874
     52          1           0        3.302518   -0.980301    4.445137
     53          6           0        3.215556   -1.356010    3.423699
     54          1           0        2.444728   -2.131712    3.415840
     55          1           0        4.793515   -2.842856    3.489500
     56          1           0        1.882888    0.251361    2.854591
     57          1           0        5.341256   -1.230668    3.067445
     58          6           0        4.526861   -1.948892    2.922493
     59          6           0        2.816812   -0.202681    2.516272
     60          6           0        4.340288   -2.301673    1.475392
     61          7           0        2.647250   -0.607311    1.115096
     62          6           0        3.429621   -1.696828    0.696150
     63          1           0        5.131424   -2.156558   -1.349021
     64          6           0        3.123097   -2.298288   -0.631500
     65          6           0        4.129802   -2.504583   -1.570041
     66          6           0        1.832964   -2.741382   -0.918747
     67          1           0        1.049247   -2.618986   -0.177365
     68          6           0        3.852843   -3.122778   -2.781619
     69          1           0        4.644198   -3.263943   -3.506872
     70          6           0        1.558653   -3.369607   -2.124723
     71          6           0        2.564907   -3.554490   -3.063397
     72          1           0        0.554851   -3.719433   -2.331743
     73          1           0        2.346454   -4.037176   -4.007461
     74          1           0        3.600400    0.561170    2.588301
     75          1           0        4.835412   -3.177824    1.076946
     76          1           0       -2.802888    0.774096    3.342723
     77          1           0       -3.572143   -3.822337   -0.944439
     78          6           0        0.324093    3.607016   -1.043343
     79          1           0        1.296535    3.109171   -1.125184
     80          6           0       -0.027027    3.748007    0.432231
     81          1           0       -0.995140    4.240780    0.552538
     82          1           0       -0.067562    2.777546    0.932274
     83          1           0        0.723660    4.357997    0.939036
     84          6           0        0.411708    4.971663   -1.720692
     85          1           0       -0.550222    5.486338   -1.679918
     86          1           0        1.153115    5.596908   -1.220082
     87          1           0        0.704156    4.877385   -2.768695
     88          6           0       -5.233648   -2.844937   -1.875534
     89          1           0       -5.639394   -3.741026   -2.346175
     90          1           0       -6.062175   -2.191660   -1.598011
     91          1           0       -4.608332   -2.322276   -2.598720
     92          6           0       -5.279004   -3.959263    0.379001
     93          1           0       -5.614362   -4.913582   -0.029614
     94          1           0       -4.727054   -4.152992    1.297771
     95          1           0       -6.157738   -3.362181    0.627919
     96          6           0       -1.247022    0.737546    4.825579
     97          1           0       -1.871951    1.124228    5.632398
     98          1           0       -1.223499   -0.350146    4.902990
     99          1           0       -0.232929    1.120080    4.958436
    100          6           0       -1.817772    2.672832    3.300604
    101          1           0       -0.805281    3.077630    3.355664
    102          1           0       -2.245880    2.933161    2.332279
    103          1           0       -2.418063    3.133329    4.086925
 ---------------------------------------------------------------------
 Rotational constants (GHZ):           0.0783814           0.0587458           0.0524797
 Leave Link  202 at Mon Oct  6 14:24:55 2025, MaxMem=   104857600 cpu:               0.0 elap:               0.0
 (Enter /home/zhouoh/g16/l301.exe)
 Standard basis: STO-3G (5D, 7F)
 Ernie: Thresh=  0.10000D-02 Tol=  0.10000D-05 Strict=F.
   325 basis functions,   981 primitive gaussians,   327 cartesian basis functions
   202 alpha electrons      202 beta electrons
       nuclear repulsion energy      9285.2770119248 Hartrees.



 Warning!  P  atom    1 may be hypervalent but has no d functions.



 IExCor=    0 DFT=F Ex=HF Corr=None ExCW=0 ScaHFX=  1.000000
 ScaDFX=  1.000000  1.000000  1.000000  1.000000 ScalE2=  1.000000  1.000000
 IRadAn=      5 IRanWt=     -1 IRanGd=            0 ICorTp=0 IEmpDi=  4
 NAtoms=  103 NActive=  103 NUniq=  103 SFac= 1.00D+00 NAtFMM=   60 NAOKFM=T Big=T
 Integral buffers will be    131072 words long.
 Raffenetti 1 integral format.
 Two-electron integral symmetry is turned off.
 Leave Link  301 at Mon Oct  6 14:24:55 2025, MaxMem=   104857600 cpu:               0.0 elap:               0.0
 (Enter /home/zhouoh/g16/l402.exe)
 External calculation of energy and first derivatives.
 Running external command "python ../GauUMA_client.py R"
         input file       "/home/zhouoh/scratch/Gau-2814882.EIn"
         output file      "/home/zhouoh/scratch/Gau-2814882.EOu"
         message file     "/home/zhouoh/scratch/Gau-2814882.EMs"
         fchk file        "/home/zhouoh/scratch/Gau-2814882.EFC"
         mat. el file     "/home/zhouoh/scratch/Gau-2814882.EUF"
Sent job to server.
Received result from server:
SCF Done:  E(UMA) =  -2420.6297837304655     A.U.
 Recovered energy= -2420.62978373     dipole=      0.000000000000      0.000000000000      0.000000000000
 Energy=    -2420.62978     NIter=   0.
 Dipole moment=       0.000000       0.000000       0.000000
 Leave Link  402 at Mon Oct  6 14:24:55 2025, MaxMem=   104857600 cpu:               0.0 elap:               0.1
 (Enter /home/zhouoh/g16/l716.exe)
 Dipole        = 0.00000000D+00 0.00000000D+00 0.00000000D+00
 -------------------------------------------------------------------
 Center     Atomic                   Forces (Hartrees/Bohr)
 Number     Number              X              Y              Z
 -------------------------------------------------------------------
      1       15           0.000050220   -0.000323572    0.000242731
      2        8           0.000000109   -0.000015384    0.000013072
      3        8          -0.000003297   -0.000003841    0.000001047
      4        8           0.000003615   -0.000026592    0.000049100
      5        6          -0.000046970    0.000007201   -0.000008324
      6        6          -0.000026354   -0.000039461   -0.000029978
      7        6          -0.000016413   -0.000088791    0.000032437
      8        6          -0.000024063    0.000005819   -0.000023219
      9        6          -0.000027574    0.000000238   -0.000043995
     10        6          -0.000039987    0.000003225   -0.000003011
     11        6          -0.000018950   -0.000009236   -0.000009540
     12        6          -0.000024432    0.000007634   -0.000000489
     13        6          -0.000031103    0.000010464    0.000031870
     14        6          -0.000008100    0.000007810    0.000008262
     15        6          -0.000013983    0.000015531    0.000015042
     16        6          -0.000017163    0.000009717    0.000013155
     17        6          -0.000007975   -0.000000713    0.000015206
     18        6          -0.000035525   -0.000005413    0.000022898
     19        6           0.000000389   -0.000002611   -0.000011131
     20        6          -0.000057739   -0.000011496    0.000042050
     21        6          -0.000017263   -0.000006752    0.000021391
     22        6           0.000002792    0.000005728    0.000004035
     23        6          -0.000001657    0.000000447   -0.000000812
     24        1           0.000000400   -0.000000991    0.000000452
     25        1          -0.000005659    0.000001979   -0.000002723
     26        1          -0.000000720    0.000000935   -0.000001713
     27        1          -0.000001102    0.000003748   -0.000001273
     28        1           0.000002552   -0.000004410   -0.000001247
     29        1          -0.000003525   -0.000002838   -0.000006737
     30        1          -0.000002587    0.000003826    0.000001895
     31        1          -0.000004907   -0.000000695    0.000001983
     32        1          -0.000000326    0.000001522   -0.000001497
     33        1          -0.000001626    0.000001067    0.000002222
     34        1          -0.000000476    0.000001501    0.000001278
     35        1          -0.000001574    0.000001904    0.000001834
     36        1          -0.000001678    0.000001393    0.000001958
     37        1           0.000000550   -0.000001100   -0.000002126
     38        1          -0.000008416   -0.000000074    0.000005733
     39        1          -0.000003085   -0.000001254    0.000003430
     40       46          -0.002929289    0.001255976   -0.002032405
     41        1          -0.000064548    0.000002138   -0.000025455
     42        6          -0.000464900   -0.000084019   -0.000103750
     43        6          -0.000432981   -0.000163613   -0.000068977
     44        1          -0.000081641   -0.000018281   -0.000035509
     45        6           0.000519988   -0.000511611    0.000529221
     46        1           0.000087944   -0.000034137    0.000058864
     47        6           0.001672347   -0.002115989    0.002076527
     48        6           0.000544768   -0.000622253    0.000637798
     49        1           0.000097773   -0.000041565    0.000062208
     50        6          -0.000454465   -0.000197461    0.000085974
     51        1          -0.000087282   -0.000017481   -0.000000051
     52        1          -0.000031026   -0.000010970   -0.000014902
     53        6          -0.000105793    0.000006795   -0.000231408
     54        1          -0.000008862    0.000006931   -0.000042612
     55        1           0.000006082    0.000009142    0.000000894
     56        1          -0.000000839   -0.000010085   -0.000023810
     57        1          -0.000006098    0.000008464   -0.000013419
     58        6          -0.000022759    0.000041907   -0.000037370
     59        6           0.000216151    0.000375637    0.000096774
     60        6          -0.000255732   -0.000100628    0.000019522
     61        7           0.001637697    0.002438902   -0.001072267
     62        6           0.000437749    0.000283176   -0.000273244
     63        1           0.000008022   -0.000007391   -0.000010281
     64        6           0.000078542    0.000086915   -0.000096911
     65        6           0.000061856   -0.000055066   -0.000077139
     66        6           0.000053282    0.000085733    0.000019521
     67        1           0.000009359    0.000034437   -0.000010414
     68        6           0.000014018   -0.000072551   -0.000051127
     69        1          -0.000002001   -0.000009366   -0.000004511
     70        6           0.000027227    0.000035067    0.000058525
     71        6          -0.000013155   -0.000021750    0.000022041
     72        1          -0.000000630    0.000008596    0.000007891
     73        1          -0.000005450   -0.000001382    0.000003684
     74        1          -0.000012967    0.000007550    0.000083732
     75        1          -0.000095587   -0.000031590    0.000036821
     76        1           0.000001731   -0.000003558   -0.000001723
     77        1           0.000002309    0.000003853   -0.000000970
     78        6          -0.000010930   -0.000040853    0.000010630
     79        1          -0.000004673   -0.000010129    0.000002297
     80        6           0.000015781   -0.000011705    0.000015357
     81        1           0.000001715   -0.000001921    0.000001905
     82        1           0.000001460   -0.000003874   -0.000001223
     83        1           0.000001114    0.000003305    0.000001621
     84        6           0.000006349   -0.000040604    0.000004017
     85        1           0.000000033   -0.000003612   -0.000002267
     86        1          -0.000001625    0.000000595    0.000001604
     87        1           0.000001254   -0.000003494    0.000000295
     88        6           0.000002527    0.000003039    0.000001455
     89        1          -0.000003684    0.000000129    0.000002546
     90        1           0.000002794    0.000003805   -0.000000087
     91        1           0.000001215   -0.000003540   -0.000001129
     92        6           0.000004217   -0.000002564   -0.000001796
     93        1           0.000000090   -0.000000193   -0.000000196
     94        1           0.000000422    0.000000469    0.000000161
     95        1          -0.000000022    0.000000421   -0.000000040
     96        6          -0.000015249    0.000005547    0.000010434
     97        1           0.000001306    0.000003230    0.000001308
     98        1          -0.000004016    0.000000068    0.000001823
     99        1          -0.000000975   -0.000002134    0.000000183
    100        6          -0.000007562   -0.000002361   -0.000003767
    101        1           0.000000830    0.000000344   -0.000001773
    102        1          -0.000000612   -0.000001196    0.000000260
    103        1           0.000000996    0.000000274   -0.000000631
 -------------------------------------------------------------------
 Cartesian Forces:  Max     0.002929289 RMS     0.000356606
 Z-matrix is all fixed cartesians, so copy forces.
 Leave Link  716 at Mon Oct  6 14:24:55 2025, MaxMem=   104857600 cpu:               0.0 elap:               0.0
 (Enter /home/zhouoh/g16/l123.exe)
 IRC-IRC-IRC-IRC-IRC-IRC-IRC-IRC-IRC-IRC-IRC-IRC-IRC-IRC-IRC-IRC-IRC-IRC
 Pt 11 Step number   1 out of a maximum of  20
 Point Number:   1          Path Number:   2
   CHANGE IN THE REACTION COORDINATE =    0.28893
   NET REACTION COORDINATE UP TO THIS POINT =    0.28893
  # OF POINTS ALONG THE PATH =  11
  # OF STEPS =   1

 Calculating another point on the path.
 Point Number  2 in REVERSE path direction.
 Using LQA Reaction Path Following.
   LQA: T_Est iteration completed in    3 iterations.
 IRC-IRC-IRC-IRC-IRC-IRC-IRC-IRC-IRC-IRC-IRC-IRC-IRC-IRC-IRC-IRC-IRC-IRC
 Leave Link  123 at Mon Oct  6 14:24:55 2025, MaxMem=   104857600 cpu:               0.1 elap:               0.1
 (Enter /home/zhouoh/g16/l202.exe)
 Symmetry turned off by external request.
 Stoichiometry    C43H54NO3PPd
 Framework group  C1[X(C43H54NO3PPd)]
 Deg. of freedom   303
 Full point group                 C1      NOp   1
                          Input orientation:                          
 ---------------------------------------------------------------------
 Center     Atomic      Atomic             Coordinates (Angstroms)
 Number     Number       Type             X           Y           Z
 ---------------------------------------------------------------------
      1         15           0       -0.699396    0.940794   -1.170583
      2          8           0       -2.007025    3.227636   -1.693609
      3          8           0       -3.960151   -1.980738   -0.099006
      4          8           0       -0.956824    0.630074    2.427383
      5          6           0       -1.116518    0.012641   -2.736488
      6          6           0       -2.301697    1.286592   -0.398743
      7          6           0       -0.657642    2.702582   -1.781201
      8          6           0       -2.219905    0.663462   -3.567856
      9          6           0       -1.564155   -1.389935   -2.326897
     10          6           0        0.185429   -0.078759   -3.538660
     11          6           0       -2.786073    2.513333   -0.841036
     12          6           0       -3.026428    0.541734    0.531996
     13          6           0       -2.430083   -0.700587    1.100575
     14          6           0       -4.021213    2.993510   -0.431508
     15          6           0       -4.270777    1.010919    0.938680
     16          6           0       -4.759296    2.218608    0.451082
     17          6           0       -2.873461   -1.971141    0.717049
     18          6           0       -1.353722   -0.607145    1.983166
     19          6           0       -2.192224   -3.111087    1.138145
     20          6           0       -0.667583   -1.738275    2.409022
     21          6           0       -1.085942   -2.980653    1.967484
     22          6           0       -4.434442   -3.218060   -0.643557
     23          6           0       -1.792108    1.171841    3.478076
     24          1           0       -0.401518    2.703080   -2.842500
     25          1           0       -2.423915    0.038634   -4.442520
     26          1           0       -1.945024    1.654967   -3.928608
     27          1           0       -3.146592    0.753438   -2.997555
     28          1           0       -1.653990   -2.018751   -3.218767
     29          1           0       -2.535846   -1.354760   -1.834416
     30          1           0       -0.846263   -1.853672   -1.646833
     31          1           0        0.963033   -0.588962   -2.965963
     32          1           0        0.006662   -0.643617   -4.458085
     33          1           0        0.564349    0.906386   -3.822507
     34          1           0       -4.381603    3.947097   -0.793302
     35          1           0       -4.853368    0.432668    1.644771
     36          1           0       -5.727952    2.572349    0.781490
     37          1           0       -2.509183   -4.095762    0.829725
     38          1           0        0.178211   -1.623298    3.073135
     39          1           0       -0.555568   -3.870147    2.283959
     40         46           0        0.964113    0.040238    0.047333
     41          1           0        4.904214    3.967714   -1.215623
     42          6           0        4.333406    3.122430   -0.855644
     43          6           0        3.641517    3.191400    0.344960
     44          1           0        3.655730    4.105209    0.928007
     45          6           0        2.918573    2.107520    0.823037
     46          1           0        2.376386    2.207692    1.752577
     47          6           0        2.863756    0.913002    0.089540
     48          6           0        3.562246    0.843402   -1.126914
     49          1           0        3.537100   -0.057486   -1.720149
     50          6           0        4.271046    1.942360   -1.587707
     51          1           0        4.786744    1.865366   -2.537698
     52          1           0        3.298702   -0.981319    4.443405
     53          6           0        3.214475   -1.355920    3.421347
     54          1           0        2.443717   -2.131498    3.410828
     55          1           0        4.793726   -2.841843    3.489323
     56          1           0        1.881877    0.250994    2.852142
     57          1           0        5.340748   -1.229664    3.065698
     58          6           0        4.526631   -1.948333    2.922062
     59          6           0        2.818826   -0.199031    2.517198
     60          6           0        4.337708   -2.302442    1.475723
     61          7           0        2.660392   -0.590483    1.108258
     62          6           0        3.433631   -1.693767    0.693369
     63          1           0        5.132161   -2.157205   -1.350246
     64          6           0        3.123849   -2.297454   -0.632508
     65          6           0        4.130356   -2.505093   -1.570747
     66          6           0        1.833408   -2.740617   -0.918534
     67          1           0        1.049236   -2.615451   -0.178087
     68          6           0        3.852965   -3.123427   -2.782090
     69          1           0        4.644078   -3.264968   -3.507505
     70          6           0        1.558880   -3.369327   -2.124218
     71          6           0        2.564824   -3.554672   -3.063212
     72          1           0        0.554850   -3.718554   -2.330966
     73          1           0        2.345829   -4.037311   -4.007161
     74          1           0        3.600302    0.565524    2.598663
     75          1           0        4.825226   -3.184353    1.080294
     76          1           0       -2.802902    0.774070    3.342735
     77          1           0       -3.572110   -3.822275   -0.944476
     78          6           0        0.323997    3.606653   -1.043250
     79          1           0        1.296297    3.108383   -1.124911
     80          6           0       -0.026915    3.747902    0.432363
     81          1           0       -0.995061    4.240618    0.552733
     82          1           0       -0.067310    2.777329    0.932223
     83          1           0        0.723698    4.358162    0.939102
     84          6           0        0.411766    4.971327   -1.720663
     85          1           0       -0.550217    5.485929   -1.680035
     86          1           0        1.153022    5.596811   -1.220039
     87          1           0        0.704231    4.877053   -2.768676
     88          6           0       -5.233629   -2.844912   -1.875520
     89          1           0       -5.639620   -3.740991   -2.345993
     90          1           0       -6.061973   -2.191397   -1.598002
     91          1           0       -4.608241   -2.322459   -2.598782
     92          6           0       -5.278973   -3.959274    0.378992
     93          1           0       -5.614328   -4.913603   -0.029625
     94          1           0       -4.727000   -4.152931    1.297764
     95          1           0       -6.157709   -3.362181    0.627896
     96          6           0       -1.247155    0.737590    4.825676
     97          1           0       -1.871925    1.124428    5.632552
     98          1           0       -1.223822   -0.350112    4.903119
     99          1           0       -0.232999    1.120059    4.958492
    100          6           0       -1.817812    2.672815    3.300566
    101          1           0       -0.805310    3.077650    3.355492
    102          1           0       -2.245927    2.933027    2.332224
    103          1           0       -2.418077    3.133370    4.086889
 ---------------------------------------------------------------------
 Rotational constants (GHZ):           0.0784072           0.0587405           0.0524832
 Leave Link  202 at Mon Oct  6 14:24:55 2025, MaxMem=   104857600 cpu:               0.0 elap:               0.0
 (Enter /home/zhouoh/g16/l301.exe)
 Standard basis: STO-3G (5D, 7F)
 Ernie: Thresh=  0.10000D-02 Tol=  0.10000D-05 Strict=F.
   325 basis functions,   981 primitive gaussians,   327 cartesian basis functions
   202 alpha electrons      202 beta electrons
       nuclear repulsion energy      9285.5368699019 Hartrees.



 Warning!  P  atom    1 may be hypervalent but has no d functions.



 IExCor=    0 DFT=F Ex=HF Corr=None ExCW=0 ScaHFX=  1.000000
 ScaDFX=  1.000000  1.000000  1.000000  1.000000 ScalE2=  1.000000  1.000000
 IRadAn=      5 IRanWt=     -1 IRanGd=            0 ICorTp=0 IEmpDi=  4
 NAtoms=  103 NActive=  103 NUniq=  103 SFac= 1.00D+00 NAtFMM=   60 NAOKFM=T Big=T
 Integral buffers will be    131072 words long.
 Raffenetti 1 integral format.
 Two-electron integral symmetry is turned off.
 Leave Link  301 at Mon Oct  6 14:24:55 2025, MaxMem=   104857600 cpu:               0.0 elap:               0.0
 (Enter /home/zhouoh/g16/l402.exe)
 External calculation of energy and first derivatives.
 Running external command "python ../GauUMA_client.py R"
         input file       "/home/zhouoh/scratch/Gau-2814882.EIn"
         output file      "/home/zhouoh/scratch/Gau-2814882.EOu"
         message file     "/home/zhouoh/scratch/Gau-2814882.EMs"
         fchk file        "/home/zhouoh/scratch/Gau-2814882.EFC"
         mat. el file     "/home/zhouoh/scratch/Gau-2814882.EUF"
Sent job to server.
Received result from server:
SCF Done:  E(UMA) =  -2420.6305095514444     A.U.
 Recovered energy= -2420.63050955     dipole=      0.000000000000      0.000000000000      0.000000000000
 Energy=    -2420.63051     NIter=   0.
 Dipole moment=       0.000000       0.000000       0.000000
 Leave Link  402 at Mon Oct  6 14:24:55 2025, MaxMem=   104857600 cpu:               0.0 elap:               0.1
 (Enter /home/zhouoh/g16/l716.exe)
 Dipole        = 0.00000000D+00 0.00000000D+00 0.00000000D+00
 -------------------------------------------------------------------
 Center     Atomic                   Forces (Hartrees/Bohr)
 Number     Number              X              Y              Z
 -------------------------------------------------------------------
      1       15           0.000150815   -0.000697152    0.000536642
      2        8          -0.000001949   -0.000022773    0.000030124
      3        8          -0.000006510   -0.000008007    0.000006461
      4        8           0.000009959   -0.000053031    0.000095244
      5        6          -0.000086575    0.000022217   -0.000019455
      6        6          -0.000055298   -0.000077164   -0.000075484
      7        6          -0.000028205   -0.000169333    0.000064478
      8        6          -0.000049181    0.000009999   -0.000050978
      9        6          -0.000052358    0.000000700   -0.000087849
     10        6          -0.000081129    0.000006836   -0.000004300
     11        6          -0.000039117   -0.000011939   -0.000021385
     12        6          -0.000039853    0.000016995   -0.000005025
     13        6          -0.000068543    0.000018875    0.000062517
     14        6          -0.000015200    0.000014682    0.000019601
     15        6          -0.000026565    0.000031714    0.000029042
     16        6          -0.000035289    0.000019117    0.000027343
     17        6          -0.000009735    0.000001014    0.000024685
     18        6          -0.000066524   -0.000006075    0.000048285
     19        6           0.000000480   -0.000005750   -0.000019976
     20        6          -0.000109933   -0.000022805    0.000079089
     21        6          -0.000036491   -0.000017741    0.000041159
     22        6           0.000010569    0.000014504    0.000005337
     23        6          -0.000003516   -0.000005011   -0.000004459
     24        1           0.000000314   -0.000007463    0.000003527
     25        1          -0.000009004    0.000004913   -0.000007252
     26        1          -0.000001873    0.000001867   -0.000000987
     27        1          -0.000004039    0.000004096   -0.000002195
     28        1           0.000003385   -0.000007794   -0.000003640
     29        1          -0.000006615   -0.000001979   -0.000011439
     30        1          -0.000005116    0.000008139    0.000003554
     31        1          -0.000009823    0.000002228    0.000004715
     32        1          -0.000000686   -0.000001126   -0.000001923
     33        1          -0.000006273    0.000001565    0.000001654
     34        1          -0.000000675    0.000001682    0.000002678
     35        1          -0.000002559    0.000003988    0.000004133
     36        1          -0.000002165    0.000001624    0.000002634
     37        1           0.000000361   -0.000001234   -0.000003510
     38        1          -0.000013561    0.000000069    0.000011828
     39        1          -0.000005726   -0.000001914    0.000005598
     40       46          -0.006702822    0.002496856   -0.004350157
     41        1          -0.000116313    0.000001301   -0.000047512
     42        6          -0.000976773   -0.000317199   -0.000172209
     43        6          -0.001037374   -0.000459102   -0.000129612
     44        1          -0.000174771   -0.000037952   -0.000071072
     45        6           0.001047380   -0.001247987    0.001181499
     46        1           0.000187902   -0.000072687    0.000133153
     47        6           0.003868558   -0.005741492    0.005423059
     48        6           0.001041654   -0.001521047    0.001520478
     49        1           0.000197695   -0.000100053    0.000117250
     50        6          -0.001081269   -0.000457290    0.000248698
     51        1          -0.000190599   -0.000038195   -0.000000564
     52        1          -0.000069335   -0.000018033   -0.000034455
     53        6          -0.000267075    0.000066723   -0.000615607
     54        1          -0.000024145    0.000011417   -0.000096378
     55        1           0.000011098    0.000020173   -0.000001464
     56        1          -0.000009613   -0.000021472   -0.000063587
     57        1          -0.000012217    0.000019216   -0.000034025
     58        6          -0.000076271    0.000136880   -0.000112441
     59        6           0.000481009    0.000949080    0.000166858
     60        6          -0.000648633   -0.000158349    0.000032994
     61        7           0.004126165    0.006742903   -0.003186629
     62        6           0.000957015    0.000767890   -0.000704530
     63        1           0.000013436   -0.000009793   -0.000020817
     64        6           0.000154906    0.000192892   -0.000240082
     65        6           0.000118759   -0.000114300   -0.000163823
     66        6           0.000092509    0.000168064    0.000035187
     67        1           0.000009716    0.000063139   -0.000011674
     68        6           0.000030596   -0.000148923   -0.000108111
     69        1          -0.000002418   -0.000018371   -0.000010605
     70        6           0.000056400    0.000055888    0.000115831
     71        6          -0.000022268   -0.000043693    0.000042170
     72        1           0.000000156    0.000015236    0.000012729
     73        1          -0.000010668   -0.000002430    0.000004943
     74        1          -0.000036628    0.000022973    0.000196839
     75        1          -0.000215822   -0.000072044    0.000075094
     76        1          -0.000000629    0.000000359    0.000000424
     77        1           0.000000076   -0.000000032   -0.000000814
     78        6          -0.000025377   -0.000082199    0.000018600
     79        1          -0.000005748   -0.000016543    0.000004743
     80        6           0.000026975   -0.000019574    0.000029646
     81        1           0.000001746   -0.000003962    0.000004058
     82        1           0.000004487   -0.000008565   -0.000003003
     83        1           0.000000931    0.000004965    0.000001748
     84        6           0.000012670   -0.000075968    0.000008415
     85        1           0.000001361   -0.000005103   -0.000001951
     86        1          -0.000000589    0.000000235    0.000001886
     87        1          -0.000000035   -0.000006485   -0.000000758
     88        6           0.000004125    0.000005697    0.000004039
     89        1          -0.000002669    0.000000455    0.000002216
     90        1           0.000002892    0.000003486    0.000000285
     91        1           0.000001076   -0.000001847   -0.000000577
     92        6           0.000006098   -0.000000719   -0.000001822
     93        1           0.000000804   -0.000000538   -0.000000097
     94        1           0.000000340    0.000001017   -0.000000178
     95        1           0.000000681   -0.000000094   -0.000000429
     96        6          -0.000029746    0.000009471    0.000020158
     97        1          -0.000000170    0.000002232    0.000002446
     98        1          -0.000004023    0.000000732    0.000001973
     99        1          -0.000001547    0.000000425    0.000001882
    100        6          -0.000007867   -0.000004562   -0.000009882
    101        1          -0.000000541    0.000000054   -0.000002344
    102        1          -0.000000810   -0.000002208   -0.000001197
    103        1          -0.000000235    0.000000523   -0.000001361
 -------------------------------------------------------------------
 Cartesian Forces:  Max     0.006742903 RMS     0.000880072
 Z-matrix is all fixed cartesians, so copy forces.
 Leave Link  716 at Mon Oct  6 14:24:55 2025, MaxMem=   104857600 cpu:               0.0 elap:               0.0
 (Enter /home/zhouoh/g16/l123.exe)
 IRC-IRC-IRC-IRC-IRC-IRC-IRC-IRC-IRC-IRC-IRC-IRC-IRC-IRC-IRC-IRC-IRC-IRC
 Pt 12 Step number   1 out of a maximum of  20
 Point Number:   2          Path Number:   2
   CHANGE IN THE REACTION COORDINATE =    0.28870
   NET REACTION COORDINATE UP TO THIS POINT =    0.57763
  # OF POINTS ALONG THE PATH =  12
  # OF STEPS =   1

 Calculating another point on the path.
 Point Number  3 in REVERSE path direction.
 Using LQA Reaction Path Following.
   LQA: T_Est iteration completed in    3 iterations.
 IRC-IRC-IRC-IRC-IRC-IRC-IRC-IRC-IRC-IRC-IRC-IRC-IRC-IRC-IRC-IRC-IRC-IRC
 Leave Link  123 at Mon Oct  6 14:24:55 2025, MaxMem=   104857600 cpu:               0.1 elap:               0.1
 (Enter /home/zhouoh/g16/l202.exe)
 Symmetry turned off by external request.
 Stoichiometry    C43H54NO3PPd
 Framework group  C1[X(C43H54NO3PPd)]
 Deg. of freedom   303
 Full point group                 C1      NOp   1
                          Input orientation:                          
 ---------------------------------------------------------------------
 Center     Atomic      Atomic             Coordinates (Angstroms)
 Number     Number       Type             X           Y           Z
 ---------------------------------------------------------------------
      1         15           0       -0.699177    0.939841   -1.169853
      2          8           0       -2.007052    3.227597   -1.693539
      3          8           0       -3.960169   -1.980767   -0.098995
      4          8           0       -0.956788    0.629946    2.427626
      5          6           0       -1.116824    0.012738   -2.736552
      6          6           0       -2.301900    1.286396   -0.399064
      7          6           0       -0.657712    2.702021   -1.780988
      8          6           0       -2.220064    0.663483   -3.568038
      9          6           0       -1.564318   -1.389939   -2.327194
     10          6           0        0.185158   -0.078739   -3.538684
     11          6           0       -2.786221    2.513274   -0.841083
     12          6           0       -3.026526    0.541796    0.531962
     13          6           0       -2.430295   -0.700532    1.100828
     14          6           0       -4.021261    2.993567   -0.431445
     15          6           0       -4.270873    1.011030    0.938778
     16          6           0       -4.759410    2.218667    0.451173
     17          6           0       -2.873476   -1.971116    0.717137
     18          6           0       -1.353970   -0.607180    1.983288
     19          6           0       -2.192222   -3.111121    1.138072
     20          6           0       -0.667954   -1.738343    2.409263
     21          6           0       -1.086049   -2.980704    1.967617
     22          6           0       -4.434403   -3.218006   -0.643539
     23          6           0       -1.792117    1.171822    3.478042
     24          1           0       -0.401548    2.702735   -2.842323
     25          1           0       -2.424351    0.038886   -4.442861
     26          1           0       -1.945110    1.655047   -3.928628
     27          1           0       -3.146707    0.753584   -2.997656
     28          1           0       -1.653943   -2.018964   -3.219010
     29          1           0       -2.536110   -1.354870   -1.834895
     30          1           0       -0.846518   -1.852967   -1.646564
     31          1           0        0.962606   -0.588724   -2.965591
     32          1           0        0.006569   -0.643629   -4.458185
     33          1           0        0.564126    0.906427   -3.822456
     34          1           0       -4.381665    3.947182   -0.793189
     35          1           0       -4.853461    0.432822    1.644942
     36          1           0       -5.728062    2.572432    0.781597
     37          1           0       -2.509130   -4.095790    0.829564
     38          1           0        0.177543   -1.623297    3.073792
     39          1           0       -0.555843   -3.870276    2.284227
     40         46           0        0.961427    0.041174    0.045641
     41          1           0        4.899384    3.967350   -1.217355
     42          6           0        4.330338    3.121547   -0.856010
     43          6           0        3.637785    3.189427    0.344127
     44          1           0        3.646971    4.104359    0.925398
     45          6           0        2.922047    2.102467    0.827321
     46          1           0        2.384605    2.204229    1.759397
     47          6           0        2.878332    0.895069    0.107076
     48          6           0        3.565629    0.838029   -1.121246
     49          1           0        3.546066   -0.063025   -1.714104
     50          6           0        4.266721    1.940431   -1.586522
     51          1           0        4.777801    1.863231   -2.538916
     52          1           0        3.295157   -0.981623    4.441361
     53          6           0        3.213447   -1.355735    3.418926
     54          1           0        2.442837   -2.131280    3.406468
     55          1           0        4.793941   -2.840959    3.488949
     56          1           0        1.880693    0.250546    2.849605
     57          1           0        5.340294   -1.228733    3.064121
     58          6           0        4.526421   -1.947765    2.921633
     59          6           0        2.820420   -0.195502    2.517659
     60          6           0        4.335055   -2.302655    1.475928
     61          7           0        2.673334   -0.571643    1.099767
     62          6           0        3.436947   -1.690708    0.690605
     63          1           0        5.132678   -2.157573   -1.351275
     64          6           0        3.124368   -2.296791   -0.633416
     65          6           0        4.130752   -2.505477   -1.571303
     66          6           0        1.833706   -2.740101   -0.918388
     67          1           0        1.049149   -2.612497   -0.178756
     68          6           0        3.853063   -3.123919   -2.782465
     69          1           0        4.643990   -3.265737   -3.508003
     70          6           0        1.559057   -3.369161   -2.123845
     71          6           0        2.564779   -3.554804   -3.063085
     72          1           0        0.554850   -3.717880   -2.330399
     73          1           0        2.345368   -4.037375   -4.006960
     74          1           0        3.599835    0.569470    2.608531
     75          1           0        4.815456   -3.189730    1.083099
     76          1           0       -2.802920    0.774078    3.342759
     77          1           0       -3.572105   -3.822259   -0.944506
     78          6           0        0.323908    3.606391   -1.043193
     79          1           0        1.296073    3.107717   -1.124679
     80          6           0       -0.026835    3.747834    0.432456
     81          1           0       -0.995023    4.240477    0.552900
     82          1           0       -0.067081    2.777116    0.932087
     83          1           0        0.723713    4.358319    0.939159
     84          6           0        0.411812    4.971094   -1.720639
     85          1           0       -0.550192    5.485678   -1.680092
     86          1           0        1.152986    5.596763   -1.220034
     87          1           0        0.704230    4.876812   -2.768683
     88          6           0       -5.233614   -2.844893   -1.875510
     89          1           0       -5.639720   -3.740973   -2.345904
     90          1           0       -6.061867   -2.191262   -1.597983
     91          1           0       -4.608190   -2.322515   -2.598782
     92          6           0       -5.278953   -3.959278    0.378986
     93          1           0       -5.614300   -4.913620   -0.029631
     94          1           0       -4.726963   -4.152869    1.297761
     95          1           0       -6.157690   -3.362176    0.627875
     96          6           0       -1.247250    0.737620    4.825742
     97          1           0       -1.871930    1.124506    5.632674
     98          1           0       -1.224001   -0.350091    4.903173
     99          1           0       -0.233076    1.120129    4.958573
    100          6           0       -1.817835    2.672805    3.300533
    101          1           0       -0.805328    3.077675    3.355364
    102          1           0       -2.245935    2.932912    2.332167
    103          1           0       -2.418104    3.133403    4.086845
 ---------------------------------------------------------------------
 Rotational constants (GHZ):           0.0784346           0.0587378           0.0524881
 Leave Link  202 at Mon Oct  6 14:24:55 2025, MaxMem=   104857600 cpu:               0.0 elap:               0.0
 (Enter /home/zhouoh/g16/l301.exe)
 Standard basis: STO-3G (5D, 7F)
 Ernie: Thresh=  0.10000D-02 Tol=  0.10000D-05 Strict=F.
   325 basis functions,   981 primitive gaussians,   327 cartesian basis functions
   202 alpha electrons      202 beta electrons
       nuclear repulsion energy      9286.0320144958 Hartrees.



 Warning!  P  atom    1 may be hypervalent but has no d functions.



 IExCor=    0 DFT=F Ex=HF Corr=None ExCW=0 ScaHFX=  1.000000
 ScaDFX=  1.000000  1.000000  1.000000  1.000000 ScalE2=  1.000000  1.000000
 IRadAn=      5 IRanWt=     -1 IRanGd=            0 ICorTp=0 IEmpDi=  4
 NAtoms=  103 NActive=  103 NUniq=  103 SFac= 1.00D+00 NAtFMM=   60 NAOKFM=T Big=T
 Integral buffers will be    131072 words long.
 Raffenetti 1 integral format.
 Two-electron integral symmetry is turned off.
 Leave Link  301 at Mon Oct  6 14:24:55 2025, MaxMem=   104857600 cpu:               0.0 elap:               0.0
 (Enter /home/zhouoh/g16/l402.exe)
 External calculation of energy and first derivatives.
 Running external command "python ../GauUMA_client.py R"
         input file       "/home/zhouoh/scratch/Gau-2814882.EIn"
         output file      "/home/zhouoh/scratch/Gau-2814882.EOu"
         message file     "/home/zhouoh/scratch/Gau-2814882.EMs"
         fchk file        "/home/zhouoh/scratch/Gau-2814882.EFC"
         mat. el file     "/home/zhouoh/scratch/Gau-2814882.EUF"
Sent job to server.
Received result from server:
SCF Done:  E(UMA) =  -2420.63200328471     A.U.
 Recovered energy= -2420.63200328     dipole=      0.000000000000      0.000000000000      0.000000000000
 Energy=    -2420.63200     NIter=   0.
 Dipole moment=       0.000000       0.000000       0.000000
 Leave Link  402 at Mon Oct  6 14:24:55 2025, MaxMem=   104857600 cpu:               0.0 elap:               0.1
 (Enter /home/zhouoh/g16/l716.exe)
 Dipole        = 0.00000000D+00 0.00000000D+00 0.00000000D+00
 -------------------------------------------------------------------
 Center     Atomic                   Forces (Hartrees/Bohr)
 Number     Number              X              Y              Z
 -------------------------------------------------------------------
      1       15           0.000287825   -0.001075297    0.000851001
      2        8          -0.000017179   -0.000024970    0.000046065
      3        8          -0.000008721   -0.000015627    0.000012352
      4        8           0.000021082   -0.000085073    0.000144533
      5        6          -0.000132342    0.000038850   -0.000030640
      6        6          -0.000082876   -0.000105361   -0.000128275
      7        6          -0.000036191   -0.000239438    0.000090482
      8        6          -0.000073825    0.000009130   -0.000082910
      9        6          -0.000072227    0.000003089   -0.000133676
     10        6          -0.000120973    0.000007890   -0.000010016
     11        6          -0.000054787   -0.000016661   -0.000030381
     12        6          -0.000049766    0.000031796   -0.000015697
     13        6          -0.000101482    0.000029611    0.000094796
     14        6          -0.000024388    0.000022948    0.000034147
     15        6          -0.000038389    0.000045225    0.000045463
     16        6          -0.000051528    0.000028705    0.000039210
     17        6          -0.000006235    0.000007543    0.000034141
     18        6          -0.000101126   -0.000010268    0.000068423
     19        6           0.000000917   -0.000013658   -0.000027715
     20        6          -0.000164408   -0.000029442    0.000108920
     21        6          -0.000051725   -0.000026106    0.000056918
     22        6           0.000016250    0.000022556    0.000009106
     23        6          -0.000005986   -0.000006137   -0.000009153
     24        1          -0.000001471   -0.000011328    0.000008045
     25        1          -0.000011880    0.000007353   -0.000010388
     26        1          -0.000003164    0.000002731   -0.000000249
     27        1          -0.000004520    0.000004591   -0.000003659
     28        1           0.000004529   -0.000009295   -0.000003336
     29        1          -0.000008076   -0.000001502   -0.000014848
     30        1          -0.000006955    0.000015326    0.000006033
     31        1          -0.000013348    0.000007539    0.000008973
     32        1          -0.000000912   -0.000001986   -0.000001834
     33        1          -0.000008524    0.000000419    0.000002336
     34        1          -0.000000836    0.000002304    0.000003802
     35        1          -0.000002027    0.000005851    0.000004725
     36        1          -0.000002898    0.000001887    0.000002820
     37        1           0.000000433   -0.000000627   -0.000004373
     38        1          -0.000023718    0.000000320    0.000020674
     39        1          -0.000008412   -0.000003921    0.000008220
     40       46          -0.011227276    0.003526523   -0.006786907
     41        1          -0.000146703   -0.000008593   -0.000059990
     42        6          -0.001461348   -0.000610927   -0.000189287
     43        6          -0.001833391   -0.001032220   -0.000248175
     44        1          -0.000286357   -0.000049073   -0.000090124
     45        6           0.001549209   -0.002479966    0.001922170
     46        1           0.000281039   -0.000106603    0.000212853
     47        6           0.006949733   -0.009881431    0.009427327
     48        6           0.001390098   -0.002696563    0.002852665
     49        1           0.000285264   -0.000169270    0.000168852
     50        6          -0.002016077   -0.000906171    0.000619992
     51        1          -0.000302376   -0.000072126   -0.000017417
     52        1          -0.000119516   -0.000003995   -0.000072658
     53        6          -0.000501353    0.000154678   -0.001249477
     54        1          -0.000035004    0.000008984   -0.000148247
     55        1           0.000012914    0.000028086   -0.000012245
     56        1          -0.000045799   -0.000027864   -0.000116837
     57        1          -0.000016428    0.000032090   -0.000059339
     58        6          -0.000147943    0.000291417   -0.000220553
     59        6           0.000730470    0.001760347    0.000104239
     60        6          -0.001315144   -0.000008235    0.000052907
     61        7           0.007558054    0.012169418   -0.005799901
     62        6           0.001492869    0.001593244   -0.001391780
     63        1           0.000012890   -0.000006516   -0.000030389
     64        6           0.000193124    0.000288503   -0.000438166
     65        6           0.000174782   -0.000180540   -0.000259975
     66        6           0.000126922    0.000229625    0.000058683
     67        1           0.000006464    0.000093382   -0.000020116
     68        6           0.000053598   -0.000225075   -0.000162745
     69        1          -0.000003049   -0.000023408   -0.000014771
     70        6           0.000080176    0.000056133    0.000160500
     71        6          -0.000029091   -0.000062660    0.000063811
     72        1          -0.000001047    0.000021250    0.000014737
     73        1          -0.000013948   -0.000001416    0.000005621
     74        1          -0.000060333    0.000099983    0.000329973
     75        1          -0.000356225   -0.000142749    0.000097048
     76        1          -0.000000663    0.000000838   -0.000000098
     77        1           0.000000503   -0.000000260   -0.000000649
     78        6          -0.000037835   -0.000120307    0.000024673
     79        1          -0.000009585   -0.000019958    0.000007906
     80        6           0.000036506   -0.000026779    0.000042320
     81        1           0.000000972   -0.000006058    0.000005998
     82        1           0.000009619   -0.000011090   -0.000005558
     83        1           0.000000876    0.000003631    0.000001007
     84        6           0.000023312   -0.000103393    0.000011405
     85        1           0.000001186   -0.000006071   -0.000001612
     86        1          -0.000000979   -0.000002549    0.000000758
     87        1           0.000000102   -0.000007637    0.000000002
     88        6           0.000005702    0.000007915    0.000005800
     89        1          -0.000002098    0.000000830    0.000002248
     90        1           0.000002832    0.000003560    0.000000530
     91        1           0.000001583   -0.000000993   -0.000000142
     92        6           0.000008130   -0.000001088   -0.000003657
     93        1           0.000001110   -0.000000197    0.000000348
     94        1           0.000000680    0.000001692    0.000000036
     95        1           0.000000127    0.000000358   -0.000000446
     96        6          -0.000042509    0.000014014    0.000029097
     97        1          -0.000000575    0.000001233    0.000002843
     98        1          -0.000004023    0.000000415    0.000001963
     99        1          -0.000002656    0.000002155    0.000002078
    100        6          -0.000008999   -0.000004841   -0.000015218
    101        1          -0.000001598    0.000000072   -0.000003658
    102        1          -0.000000241   -0.000002926   -0.000002205
    103        1          -0.000000816    0.000000188   -0.000002088
 -------------------------------------------------------------------
 Cartesian Forces:  Max     0.012169418 RMS     0.001524325
 Z-matrix is all fixed cartesians, so copy forces.
 Leave Link  716 at Mon Oct  6 14:24:55 2025, MaxMem=   104857600 cpu:               0.0 elap:               0.0
 (Enter /home/zhouoh/g16/l123.exe)
 IRC-IRC-IRC-IRC-IRC-IRC-IRC-IRC-IRC-IRC-IRC-IRC-IRC-IRC-IRC-IRC-IRC-IRC
 Pt 13 Step number   1 out of a maximum of  20
 Point Number:   3          Path Number:   2
   CHANGE IN THE REACTION COORDINATE =    0.28872
   NET REACTION COORDINATE UP TO THIS POINT =    0.86636
  # OF POINTS ALONG THE PATH =  13
  # OF STEPS =   1

 Calculating another point on the path.
 Point Number  4 in REVERSE path direction.
 Using LQA Reaction Path Following.
   LQA: T_Est iteration completed in    3 iterations.
 IRC-IRC-IRC-IRC-IRC-IRC-IRC-IRC-IRC-IRC-IRC-IRC-IRC-IRC-IRC-IRC-IRC-IRC
 Leave Link  123 at Mon Oct  6 14:24:55 2025, MaxMem=   104857600 cpu:               0.1 elap:               0.1
 (Enter /home/zhouoh/g16/l202.exe)
 Symmetry turned off by external request.
 Stoichiometry    C43H54NO3PPd
 Framework group  C1[X(C43H54NO3PPd)]
 Deg. of freedom   303
 Full point group                 C1      NOp   1
                          Input orientation:                          
 ---------------------------------------------------------------------
 Center     Atomic      Atomic             Coordinates (Angstroms)
 Number     Number       Type             X           Y           Z
 ---------------------------------------------------------------------
      1         15           0       -0.698951    0.939046   -1.169220
      2          8           0       -2.007085    3.227577   -1.693479
      3          8           0       -3.960183   -1.980795   -0.098980
      4          8           0       -0.956754    0.629831    2.427832
      5          6           0       -1.117075    0.012825   -2.736606
      6          6           0       -2.302055    1.286229   -0.399339
      7          6           0       -0.657773    2.701571   -1.780820
      8          6           0       -2.220196    0.663490   -3.568199
      9          6           0       -1.564443   -1.389937   -2.327441
     10          6           0        0.184934   -0.078726   -3.538709
     11          6           0       -2.786336    2.513233   -0.841123
     12          6           0       -3.026603    0.541858    0.531926
     13          6           0       -2.430470   -0.700479    1.101026
     14          6           0       -4.021299    2.993613   -0.431386
     15          6           0       -4.270948    1.011120    0.938861
     16          6           0       -4.759505    2.218713    0.451248
     17          6           0       -2.873479   -1.971092    0.717203
     18          6           0       -1.354175   -0.607204    1.983392
     19          6           0       -2.192220   -3.111152    1.138016
     20          6           0       -0.668263   -1.738397    2.409453
     21          6           0       -1.086134   -2.980746    1.967722
     22          6           0       -4.434369   -3.217959   -0.643522
     23          6           0       -1.792125    1.171809    3.478011
     24          1           0       -0.401585    2.702485   -2.842185
     25          1           0       -2.424699    0.039089   -4.443165
     26          1           0       -1.945188    1.655114   -3.928633
     27          1           0       -3.146801    0.753684   -2.997742
     28          1           0       -1.653925   -2.019158   -3.219194
     29          1           0       -2.536298   -1.354933   -1.835254
     30          1           0       -0.846705   -1.852392   -1.646359
     31          1           0        0.962262   -0.588498   -2.965278
     32          1           0        0.006512   -0.643662   -4.458270
     33          1           0        0.563938    0.906455   -3.822419
     34          1           0       -4.381715    3.947249   -0.793096
     35          1           0       -4.853534    0.432942    1.645078
     36          1           0       -5.728160    2.572489    0.781674
     37          1           0       -2.509105   -4.095813    0.829454
     38          1           0        0.176963   -1.623290    3.074363
     39          1           0       -0.556067   -3.870391    2.284437
     40         46           0        0.958974    0.041906    0.044188
     41          1           0        4.895670    3.966576   -1.218502
     42          6           0        4.327699    3.120468   -0.856207
     43          6           0        3.634262    3.187277    0.343482
     44          1           0        3.639223    4.103127    0.923299
     45          6           0        2.924906    2.097509    0.831104
     46          1           0        2.391572    2.201467    1.765269
     47          6           0        2.892098    0.876529    0.124850
     48          6           0        3.568195    0.832855   -1.115717
     49          1           0        3.553324   -0.067637   -1.709309
     50          6           0        4.262616    1.938482   -1.585170
     51          1           0        4.769740    1.861037   -2.539620
     52          1           0        3.291958   -0.981446    4.439097
     53          6           0        3.212449   -1.355423    3.416409
     54          1           0        2.442056   -2.131024    3.402687
     55          1           0        4.794055   -2.840173    3.488426
     56          1           0        1.879356    0.250100    2.846886
     57          1           0        5.339889   -1.227905    3.062653
     58          6           0        4.526167   -1.947170    2.921177
     59          6           0        2.821754   -0.192004    2.517753
     60          6           0        4.332334   -2.302455    1.476017
     61          7           0        2.686108   -0.551842    1.090440
     62          6           0        3.439832   -1.687489    0.687782
     63          1           0        5.133023   -2.157713   -1.352132
     64          6           0        3.124730   -2.296221   -0.634294
     65          6           0        4.131064   -2.505806   -1.571785
     66          6           0        1.833923   -2.739718   -0.918276
     67          1           0        1.049063   -2.610055   -0.179322
     68          6           0        3.853162   -3.124336   -2.782775
     69          1           0        4.643936   -3.266322   -3.508416
     70          6           0        1.559200   -3.369070   -2.123554
     71          6           0        2.564746   -3.554913   -3.062979
     72          1           0        0.554852   -3.717351   -2.329994
     73          1           0        2.345015   -4.037386   -4.006818
     74          1           0        3.599078    0.573307    2.617558
     75          1           0        4.806430   -3.194000    1.085328
     76          1           0       -2.802934    0.774091    3.342770
     77          1           0       -3.572101   -3.822251   -0.944524
     78          6           0        0.323830    3.606181   -1.043153
     79          1           0        1.295880    3.107170   -1.124479
     80          6           0       -0.026770    3.747782    0.432531
     81          1           0       -0.995002    4.240348    0.553052
     82          1           0       -0.066862    2.776908    0.931920
     83          1           0        0.723739    4.358439    0.939202
     84          6           0        0.411855    4.970915   -1.720617
     85          1           0       -0.550156    5.485511   -1.680129
     86          1           0        1.152974    5.596721   -1.220027
     87          1           0        0.704227    4.876632   -2.768690
     88          6           0       -5.233602   -2.844878   -1.875501
     89          1           0       -5.639771   -3.740964   -2.345851
     90          1           0       -6.061800   -2.191179   -1.597966
     91          1           0       -4.608152   -2.322533   -2.598766
     92          6           0       -5.278939   -3.959280    0.378980
     93          1           0       -5.614281   -4.913634   -0.029633
     94          1           0       -4.726936   -4.152818    1.297760
     95          1           0       -6.157677   -3.362170    0.627858
     96          6           0       -1.247324    0.737644    4.825793
     97          1           0       -1.871937    1.124542    5.632775
     98          1           0       -1.224115   -0.350078    4.903202
     99          1           0       -0.233143    1.120216    4.958635
    100          6           0       -1.817852    2.672798    3.300504
    101          1           0       -0.805342    3.077696    3.355265
    102          1           0       -2.245927    2.932823    2.332117
    103          1           0       -2.418133    3.133422    4.086807
 ---------------------------------------------------------------------
 Rotational constants (GHZ):           0.0784634           0.0587366           0.0524940
 Leave Link  202 at Mon Oct  6 14:24:55 2025, MaxMem=   104857600 cpu:               0.0 elap:               0.0
 (Enter /home/zhouoh/g16/l301.exe)
 Standard basis: STO-3G (5D, 7F)
 Ernie: Thresh=  0.10000D-02 Tol=  0.10000D-05 Strict=F.
   325 basis functions,   981 primitive gaussians,   327 cartesian basis functions
   202 alpha electrons      202 beta electrons
       nuclear repulsion energy      9286.6608360687 Hartrees.



 Warning!  P  atom    1 may be hypervalent but has no d functions.



 IExCor=    0 DFT=F Ex=HF Corr=None ExCW=0 ScaHFX=  1.000000
 ScaDFX=  1.000000  1.000000  1.000000  1.000000 ScalE2=  1.000000  1.000000
 IRadAn=      5 IRanWt=     -1 IRanGd=            0 ICorTp=0 IEmpDi=  4
 NAtoms=  103 NActive=  103 NUniq=  103 SFac= 1.00D+00 NAtFMM=   60 NAOKFM=T Big=T
 Integral buffers will be    131072 words long.
 Raffenetti 1 integral format.
 Two-electron integral symmetry is turned off.
 Leave Link  301 at Mon Oct  6 14:24:55 2025, MaxMem=   104857600 cpu:               0.0 elap:               0.0
 (Enter /home/zhouoh/g16/l402.exe)
 External calculation of energy and first derivatives.
 Running external command "python ../GauUMA_client.py R"
         input file       "/home/zhouoh/scratch/Gau-2814882.EIn"
         output file      "/home/zhouoh/scratch/Gau-2814882.EOu"
         message file     "/home/zhouoh/scratch/Gau-2814882.EMs"
         fchk file        "/home/zhouoh/scratch/Gau-2814882.EFC"
         mat. el file     "/home/zhouoh/scratch/Gau-2814882.EUF"
Sent job to server.
Received result from server:
SCF Done:  E(UMA) =  -2420.6342900588793     A.U.
 Recovered energy= -2420.63429006     dipole=      0.000000000000      0.000000000000      0.000000000000
 Energy=    -2420.63429     NIter=   0.
 Dipole moment=       0.000000       0.000000       0.000000
 Leave Link  402 at Mon Oct  6 14:24:55 2025, MaxMem=   104857600 cpu:               0.0 elap:               0.1
 (Enter /home/zhouoh/g16/l716.exe)
 Dipole        = 0.00000000D+00 0.00000000D+00 0.00000000D+00
 -------------------------------------------------------------------
 Center     Atomic                   Forces (Hartrees/Bohr)
 Number     Number              X              Y              Z
 -------------------------------------------------------------------
      1       15           0.000396880   -0.001370880    0.001114442
      2        8          -0.000037247   -0.000030164    0.000060259
      3        8          -0.000007137   -0.000024521    0.000022497
      4        8           0.000032718   -0.000118519    0.000190931
      5        6          -0.000169101    0.000051441   -0.000039943
      6        6          -0.000101256   -0.000127413   -0.000179536
      7        6          -0.000038856   -0.000291069    0.000111518
      8        6          -0.000094032    0.000007112   -0.000111067
      9        6          -0.000084771    0.000005031   -0.000171515
     10        6          -0.000156000    0.000006547   -0.000020674
     11        6          -0.000068873   -0.000024381   -0.000034181
     12        6          -0.000064548    0.000045215   -0.000024845
     13        6          -0.000123621    0.000040217    0.000118654
     14        6          -0.000029354    0.000029938    0.000046540
     15        6          -0.000047051    0.000058054    0.000060867
     16        6          -0.000064630    0.000035876    0.000049992
     17        6          -0.000001605    0.000019400    0.000038670
     18        6          -0.000135968   -0.000007235    0.000082973
     19        6          -0.000004303   -0.000021916   -0.000032204
     20        6          -0.000209649   -0.000031302    0.000133236
     21        6          -0.000062871   -0.000038833    0.000063895
     22        6           0.000022688    0.000029508    0.000013094
     23        6          -0.000010476   -0.000005943   -0.000013796
     24        1          -0.000004047   -0.000016478    0.000011653
     25        1          -0.000014889    0.000009878   -0.000013059
     26        1          -0.000004881    0.000002474    0.000000579
     27        1          -0.000005404    0.000005352   -0.000005531
     28        1           0.000004068   -0.000010468   -0.000004493
     29        1          -0.000010380   -0.000001705   -0.000017864
     30        1          -0.000009555    0.000023415    0.000007461
     31        1          -0.000016706    0.000012747    0.000014027
     32        1          -0.000001574   -0.000002127   -0.000001664
     33        1          -0.000010604   -0.000000329    0.000003430
     34        1          -0.000001439    0.000002991    0.000005220
     35        1          -0.000003035    0.000006896    0.000006393
     36        1          -0.000004887    0.000002457    0.000003514
     37        1           0.000002023   -0.000001178   -0.000006792
     38        1          -0.000036878    0.000000011    0.000034498
     39        1          -0.000011762   -0.000005330    0.000011105
     40       46          -0.015443557    0.004189823   -0.008864434
     41        1          -0.000197053   -0.000035831   -0.000070043
     42        6          -0.001919871   -0.000933674   -0.000128997
     43        6          -0.002565931   -0.001697587   -0.000358159
     44        1          -0.000430910   -0.000078308   -0.000111418
     45        6           0.002004951   -0.003882995    0.002569588
     46        1           0.000363812   -0.000130093    0.000305153
     47        6           0.010328796   -0.012569852    0.012507096
     48        6           0.001600431   -0.003823196    0.004362744
     49        1           0.000379907   -0.000251110    0.000221273
     50        6          -0.002943919   -0.001468959    0.001064379
     51        1          -0.000444983   -0.000126253   -0.000031941
     52        1          -0.000178079    0.000022744   -0.000132974
     53        6          -0.000738703    0.000295542   -0.001930894
     54        1          -0.000047725    0.000015603   -0.000209297
     55        1           0.000002896    0.000039578   -0.000029235
     56        1          -0.000080512   -0.000028123   -0.000185077
     57        1          -0.000024822    0.000046822   -0.000093092
     58        6          -0.000227490    0.000457223   -0.000357153
     59        6           0.000896989    0.002603281   -0.000088396
     60        6          -0.002014278    0.000272940    0.000041119
     61        7           0.010855121    0.016394040   -0.007649086
     62        6           0.001913972    0.002548064   -0.002156697
     63        1           0.000012934   -0.000002044   -0.000047147
     64        6           0.000217163    0.000389660   -0.000641511
     65        6           0.000223634   -0.000241298   -0.000362857
     66        6           0.000149107    0.000278769    0.000078055
     67        1          -0.000001454    0.000126352   -0.000027538
     68        6           0.000080010   -0.000298722   -0.000203535
     69        1          -0.000002340   -0.000031456   -0.000021531
     70        6           0.000098361    0.000042352    0.000193281
     71        6          -0.000031181   -0.000079606    0.000082591
     72        1          -0.000002021    0.000027912    0.000017999
     73        1          -0.000019183    0.000000114    0.000006681
     74        1          -0.000084964    0.000206067    0.000483414
     75        1          -0.000523284   -0.000201097    0.000113173
     76        1          -0.000000768    0.000001479   -0.000001147
     77        1           0.000000921    0.000000339   -0.000000305
     78        6          -0.000049193   -0.000148833    0.000027538
     79        1          -0.000013095   -0.000023196    0.000012329
     80        6           0.000046566   -0.000035776    0.000053188
     81        1           0.000000119   -0.000008798    0.000008058
     82        1           0.000013958   -0.000010760   -0.000008043
     83        1           0.000000616    0.000001172    0.000000097
     84        6           0.000032046   -0.000124516    0.000015139
     85        1           0.000001008   -0.000007656   -0.000001157
     86        1          -0.000000859   -0.000006058   -0.000000023
     87        1           0.000001184   -0.000009242    0.000000634
     88        6           0.000008208    0.000009923    0.000006891
     89        1          -0.000001639    0.000001048    0.000002492
     90        1           0.000003075    0.000003702    0.000000887
     91        1           0.000002152   -0.000000317    0.000000602
     92        6           0.000009004   -0.000000557   -0.000004389
     93        1           0.000001331   -0.000000459    0.000000416
     94        1           0.000001155    0.000002442   -0.000000113
     95        1           0.000000873    0.000000322   -0.000000587
     96        6          -0.000050322    0.000017511    0.000034470
     97        1          -0.000000867    0.000000868    0.000004577
     98        1          -0.000004867    0.000000197    0.000002179
     99        1          -0.000004323    0.000004266    0.000002560
    100        6          -0.000009869   -0.000004662   -0.000018600
    101        1          -0.000002214    0.000000526   -0.000005243
    102        1           0.000000384   -0.000004101   -0.000003062
    103        1          -0.000001390   -0.000000306   -0.000003198
 -------------------------------------------------------------------
 Cartesian Forces:  Max     0.016394040 RMS     0.002072252
 Z-matrix is all fixed cartesians, so copy forces.
 Leave Link  716 at Mon Oct  6 14:24:55 2025, MaxMem=   104857600 cpu:               0.0 elap:               0.0
 (Enter /home/zhouoh/g16/l123.exe)
 IRC-IRC-IRC-IRC-IRC-IRC-IRC-IRC-IRC-IRC-IRC-IRC-IRC-IRC-IRC-IRC-IRC-IRC
 Pt 14 Step number   1 out of a maximum of  20
 Point Number:   4          Path Number:   2
   CHANGE IN THE REACTION COORDINATE =    0.28883
   NET REACTION COORDINATE UP TO THIS POINT =    1.15518
  # OF POINTS ALONG THE PATH =  14
  # OF STEPS =   1

 Calculating another point on the path.
 Point Number  5 in REVERSE path direction.
 Using LQA Reaction Path Following.
   LQA: T_Est iteration completed in    3 iterations.
 IRC-IRC-IRC-IRC-IRC-IRC-IRC-IRC-IRC-IRC-IRC-IRC-IRC-IRC-IRC-IRC-IRC-IRC
 Leave Link  123 at Mon Oct  6 14:24:56 2025, MaxMem=   104857600 cpu:               0.1 elap:               0.1
 (Enter /home/zhouoh/g16/l202.exe)
 Symmetry turned off by external request.
 Stoichiometry    C43H54NO3PPd
 Framework group  C1[X(C43H54NO3PPd)]
 Deg. of freedom   303
 Full point group                 C1      NOp   1
                          Input orientation:                          
 ---------------------------------------------------------------------
 Center     Atomic      Atomic             Coordinates (Angstroms)
 Number     Number       Type             X           Y           Z
 ---------------------------------------------------------------------
      1         15           0       -0.698724    0.938303   -1.168610
      2          8           0       -2.007125    3.227554   -1.693420
      3          8           0       -3.960193   -1.980823   -0.098959
      4          8           0       -0.956718    0.629713    2.428036
      5          6           0       -1.117309    0.012904   -2.736658
      6          6           0       -2.302196    1.286067   -0.399601
      7          6           0       -0.657830    2.701163   -1.780666
      8          6           0       -2.220320    0.663492   -3.568352
      9          6           0       -1.564554   -1.389932   -2.327672
     10          6           0        0.184721   -0.078719   -3.538739
     11          6           0       -2.786438    2.513191   -0.841159
     12          6           0       -3.026684    0.541919    0.531887
     13          6           0       -2.430634   -0.700425    1.101198
     14          6           0       -4.021333    2.993656   -0.431324
     15          6           0       -4.271016    1.011205    0.938944
     16          6           0       -4.759594    2.218757    0.451320
     17          6           0       -2.873475   -1.971061    0.717259
     18          6           0       -1.354370   -0.607220    1.983495
     19          6           0       -2.192227   -3.111184    1.137970
     20          6           0       -0.668558   -1.738443    2.409632
     21          6           0       -1.086215   -2.980793    1.967810
     22          6           0       -4.434335   -3.217915   -0.643502
     23          6           0       -1.792138    1.171798    3.477985
     24          1           0       -0.401638    2.702244   -2.842054
     25          1           0       -2.424992    0.039256   -4.443441
     26          1           0       -1.945267    1.655173   -3.928634
     27          1           0       -3.146893    0.753765   -2.997831
     28          1           0       -1.653921   -2.019340   -3.219357
     29          1           0       -2.536454   -1.354975   -1.835559
     30          1           0       -0.846870   -1.851898   -1.646206
     31          1           0        0.961953   -0.588277   -2.964998
     32          1           0        0.006467   -0.643707   -4.458350
     33          1           0        0.563760    0.906476   -3.822385
     34          1           0       -4.381757    3.947309   -0.793008
     35          1           0       -4.853600    0.433045    1.645201
     36          1           0       -5.728258    2.572537    0.781737
     37          1           0       -2.509074   -4.095838    0.829339
     38          1           0        0.176355   -1.623288    3.074973
     39          1           0       -0.556271   -3.870500    2.284626
     40         46           0        0.956518    0.042548    0.042795
     41          1           0        4.892112    3.965521   -1.219483
     42          6           0        4.325051    3.119138   -0.856295
     43          6           0        3.630677    3.184837    0.342959
     44          1           0        3.631568    4.101605    0.921368
     45          6           0        2.927729    2.092227    0.834840
     46          1           0        2.397738    2.198824    1.770589
     47          6           0        2.906585    0.858805    0.142406
     48          6           0        3.570560    0.827513   -1.109775
     49          1           0        3.559663   -0.071998   -1.704786
     50          6           0        4.258426    1.936300   -1.583617
     51          1           0        4.761756    1.858653   -2.540080
     52          1           0        3.288818   -0.980972    4.436575
     53          6           0        3.211392   -1.354941    3.413666
     54          1           0        2.441238   -2.130626    3.398969
     55          1           0        4.793970   -2.839385    3.487776
     56          1           0        1.877819    0.249720    2.843728
     57          1           0        5.339472   -1.227082    3.061100
     58          6           0        4.525827   -1.946497    2.920629
     59          6           0        2.822993   -0.188324    2.517573
     60          6           0        4.329430   -2.301957    1.476003
     61          7           0        2.699203   -0.532111    1.081231
     62          6           0        3.442595   -1.683872    0.684734
     63          1           0        5.133290   -2.157721   -1.352977
     64          6           0        3.125021   -2.295639   -0.635226
     65          6           0        4.131360   -2.506131   -1.572286
     66          6           0        1.834109   -2.739357   -0.918171
     67          1           0        1.048980   -2.607826   -0.179823
     68          6           0        3.853275   -3.124758   -2.783063
     69          1           0        4.643903   -3.266876   -3.508807
     70          6           0        1.559331   -3.369024   -2.123290
     71          6           0        2.564712   -3.555024   -3.062872
     72          1           0        0.554852   -3.716882   -2.329661
     73          1           0        2.344687   -4.037372   -4.006697
     74          1           0        3.598057    0.577450    2.626249
     75          1           0        4.797460   -3.197702    1.087197
     76          1           0       -2.802951    0.774112    3.342764
     77          1           0       -3.572092   -3.822243   -0.944533
     78          6           0        0.323755    3.605987   -1.043117
     79          1           0        1.295708    3.106701   -1.124285
     80          6           0       -0.026708    3.747729    0.432602
     81          1           0       -0.994985    4.240212    0.553200
     82          1           0       -0.066649    2.776709    0.931759
     83          1           0        0.723775    4.358530    0.939237
     84          6           0        0.411898    4.970749   -1.720594
     85          1           0       -0.550114    5.485373   -1.680151
     86          1           0        1.152980    5.596658   -1.220013
     87          1           0        0.704236    4.876474   -2.768691
     88          6           0       -5.233589   -2.844865   -1.875491
     89          1           0       -5.639798   -3.740957   -2.345813
     90          1           0       -6.061750   -2.191120   -1.597948
     91          1           0       -4.608119   -2.322534   -2.598741
     92          6           0       -5.278926   -3.959281    0.378975
     93          1           0       -5.614265   -4.913647   -0.029633
     94          1           0       -4.726911   -4.152771    1.297758
     95          1           0       -6.157663   -3.362162    0.627847
     96          6           0       -1.247393    0.737667    4.825839
     97          1           0       -1.871948    1.124560    5.632872
     98          1           0       -1.224203   -0.350068    4.903225
     99          1           0       -0.233209    1.120308    4.958685
    100          6           0       -1.817866    2.672791    3.300478
    101          1           0       -0.805357    3.077718    3.355180
    102          1           0       -2.245915    2.932744    2.332069
    103          1           0       -2.418166    3.133432    4.086768
 ---------------------------------------------------------------------
 Rotational constants (GHZ):           0.0784939           0.0587360           0.0525004
 Leave Link  202 at Mon Oct  6 14:24:56 2025, MaxMem=   104857600 cpu:               0.0 elap:               0.0
 (Enter /home/zhouoh/g16/l301.exe)
 Standard basis: STO-3G (5D, 7F)
 Ernie: Thresh=  0.10000D-02 Tol=  0.10000D-05 Strict=F.
   325 basis functions,   981 primitive gaussians,   327 cartesian basis functions
   202 alpha electrons      202 beta electrons
       nuclear repulsion energy      9287.3377852738 Hartrees.



 Warning!  P  atom    1 may be hypervalent but has no d functions.



 IExCor=    0 DFT=F Ex=HF Corr=None ExCW=0 ScaHFX=  1.000000
 ScaDFX=  1.000000  1.000000  1.000000  1.000000 ScalE2=  1.000000  1.000000
 IRadAn=      5 IRanWt=     -1 IRanGd=            0 ICorTp=0 IEmpDi=  4
 NAtoms=  103 NActive=  103 NUniq=  103 SFac= 1.00D+00 NAtFMM=   60 NAOKFM=T Big=T
 Integral buffers will be    131072 words long.
 Raffenetti 1 integral format.
 Two-electron integral symmetry is turned off.
 Leave Link  301 at Mon Oct  6 14:24:56 2025, MaxMem=   104857600 cpu:               0.0 elap:               0.0
 (Enter /home/zhouoh/g16/l402.exe)
 External calculation of energy and first derivatives.
 Running external command "python ../GauUMA_client.py R"
         input file       "/home/zhouoh/scratch/Gau-2814882.EIn"
         output file      "/home/zhouoh/scratch/Gau-2814882.EOu"
         message file     "/home/zhouoh/scratch/Gau-2814882.EMs"
         fchk file        "/home/zhouoh/scratch/Gau-2814882.EFC"
         mat. el file     "/home/zhouoh/scratch/Gau-2814882.EUF"
Sent job to server.
Received result from server:
SCF Done:  E(UMA) =  -2420.6371323261683     A.U.
 Recovered energy= -2420.63713233     dipole=      0.000000000000      0.000000000000      0.000000000000
 Energy=    -2420.63713     NIter=   0.
 Dipole moment=       0.000000       0.000000       0.000000
 Leave Link  402 at Mon Oct  6 14:24:56 2025, MaxMem=   104857600 cpu:               0.0 elap:               0.1
 (Enter /home/zhouoh/g16/l716.exe)
 Dipole        = 0.00000000D+00 0.00000000D+00 0.00000000D+00
 -------------------------------------------------------------------
 Center     Atomic                   Forces (Hartrees/Bohr)
 Number     Number              X              Y              Z
 -------------------------------------------------------------------
      1       15           0.000451902   -0.001588015    0.001317348
      2        8          -0.000051452   -0.000042799    0.000071694
      3        8          -0.000003503   -0.000030188    0.000034278
      4        8           0.000041178   -0.000144215    0.000230430
      5        6          -0.000194587    0.000057200   -0.000048885
      6        6          -0.000124606   -0.000147320   -0.000217603
      7        6          -0.000036720   -0.000324750    0.000131924
      8        6          -0.000108989    0.000007713   -0.000127703
      9        6          -0.000095702    0.000006808   -0.000198134
     10        6          -0.000183108    0.000005012   -0.000030765
     11        6          -0.000080404   -0.000035329   -0.000035581
     12        6          -0.000072864    0.000053432   -0.000032921
     13        6          -0.000142988    0.000054135    0.000130971
     14        6          -0.000033205    0.000034612    0.000056928
     15        6          -0.000058395    0.000069042    0.000074321
     16        6          -0.000075029    0.000042449    0.000059432
     17        6          -0.000005705    0.000028438    0.000039573
     18        6          -0.000160036   -0.000002722    0.000090765
     19        6          -0.000001286   -0.000027524   -0.000032979
     20        6          -0.000245183   -0.000034907    0.000153222
     21        6          -0.000075280   -0.000050510    0.000065516
     22        6           0.000028077    0.000034680    0.000015379
     23        6          -0.000015192   -0.000005461   -0.000014566
     24        1          -0.000005599   -0.000023112    0.000014511
     25        1          -0.000017754    0.000011237   -0.000016467
     26        1          -0.000006712    0.000002929   -0.000000026
     27        1          -0.000007629    0.000006057   -0.000007801
     28        1           0.000002995   -0.000011765   -0.000008104
     29        1          -0.000012046   -0.000002550   -0.000021953
     30        1          -0.000012577    0.000029911    0.000008032
     31        1          -0.000020998    0.000016445    0.000016367
     32        1          -0.000002858   -0.000002650   -0.000003077
     33        1          -0.000013148   -0.000000508    0.000003076
     34        1          -0.000001836    0.000004119    0.000006623
     35        1          -0.000004227    0.000008240    0.000008658
     36        1          -0.000007446    0.000003777    0.000004667
     37        1           0.000001475   -0.000001710   -0.000008164
     38        1          -0.000050371   -0.000001848    0.000047733
     39        1          -0.000014490   -0.000007680    0.000013349
     40       46          -0.018610841    0.004598059   -0.010406325
     41        1          -0.000279339   -0.000073875   -0.000083701
     42        6          -0.002369077   -0.001273353   -0.000032349
     43        6          -0.003107664   -0.002242362   -0.000412362
     44        1          -0.000578807   -0.000122520   -0.000145028
     45        6           0.002486995   -0.004944531    0.003135278
     46        1           0.000424752   -0.000175315    0.000377141
     47        6           0.013133040   -0.013215190    0.013952564
     48        6           0.001912215   -0.004672331    0.005586648
     49        1           0.000454046   -0.000329028    0.000308376
     50        6          -0.003642557   -0.002011927    0.001431328
     51        1          -0.000597995   -0.000181727   -0.000032747
     52        1          -0.000233033    0.000039561   -0.000190299
     53        6          -0.000938174    0.000504800   -0.002465699
     54        1          -0.000066014    0.000038365   -0.000285798
     55        1          -0.000017814    0.000056858   -0.000048256
     56        1          -0.000109004   -0.000030254   -0.000264012
     57        1          -0.000035525    0.000063084   -0.000125460
     58        6          -0.000337855    0.000630425   -0.000518441
     59        6           0.001010350    0.003265765   -0.000301533
     60        6          -0.002551712    0.000516914   -0.000059280
     61        7           0.013220742    0.018230977   -0.008141212
     62        6           0.002230881    0.003389894   -0.002742676
     63        1           0.000014986    0.000001366   -0.000066131
     64        6           0.000241189    0.000523952   -0.000826072
     65        6           0.000262746   -0.000292484   -0.000471480
     66        6           0.000165530    0.000343302    0.000093311
     67        1          -0.000006882    0.000159069   -0.000029959
     68        6           0.000109932   -0.000376620   -0.000241862
     69        1          -0.000002717   -0.000042506   -0.000028985
     70        6           0.000109917    0.000024069    0.000215678
     71        6          -0.000040354   -0.000100499    0.000099907
     72        1          -0.000001470    0.000033921    0.000022730
     73        1          -0.000026079    0.000000899    0.000008387
     74        1          -0.000110609    0.000297199    0.000616062
     75        1          -0.000685938   -0.000231193    0.000132709
     76        1          -0.000001889    0.000001926   -0.000001526
     77        1           0.000001476    0.000001046   -0.000000537
     78        6          -0.000057829   -0.000167804    0.000029223
     79        1          -0.000013975   -0.000028107    0.000016524
     80        6           0.000054074   -0.000046972    0.000060949
     81        1           0.000000911   -0.000011407    0.000010342
     82        1           0.000016669   -0.000010051   -0.000008811
     83        1           0.000001150    0.000000472   -0.000000075
     84        6           0.000036912   -0.000141996    0.000018418
     85        1           0.000002118   -0.000009722   -0.000000990
     86        1          -0.000000453   -0.000008587   -0.000000391
     87        1           0.000002057   -0.000011573    0.000001645
     88        6           0.000011262    0.000011525    0.000008165
     89        1          -0.000001111    0.000001156    0.000002883
     90        1           0.000003516    0.000003941    0.000001298
     91        1           0.000002858    0.000000549    0.000001228
     92        6           0.000009637   -0.000000301   -0.000004969
     93        1           0.000001585   -0.000000434    0.000000391
     94        1           0.000001823    0.000002817    0.000000498
     95        1           0.000001392    0.000000392   -0.000000656
     96        6          -0.000057215    0.000020933    0.000040822
     97        1          -0.000000777    0.000000602    0.000005650
     98        1          -0.000005644    0.000000759    0.000002332
     99        1          -0.000006053    0.000006087    0.000002986
    100        6          -0.000010187   -0.000004438   -0.000022151
    101        1          -0.000002454    0.000000885   -0.000006483
    102        1           0.000000924   -0.000005092   -0.000003744
    103        1          -0.000002338   -0.000000043   -0.000003559
 -------------------------------------------------------------------
 Cartesian Forces:  Max     0.018610841 RMS     0.002406982
 Z-matrix is all fixed cartesians, so copy forces.
 Leave Link  716 at Mon Oct  6 14:24:56 2025, MaxMem=   104857600 cpu:               0.0 elap:               0.0
 (Enter /home/zhouoh/g16/l123.exe)
 IRC-IRC-IRC-IRC-IRC-IRC-IRC-IRC-IRC-IRC-IRC-IRC-IRC-IRC-IRC-IRC-IRC-IRC
 Pt 15 Step number   1 out of a maximum of  20
 Point Number:   5          Path Number:   2
   CHANGE IN THE REACTION COORDINATE =    0.28885
   NET REACTION COORDINATE UP TO THIS POINT =    1.44404
  # OF POINTS ALONG THE PATH =  15
  # OF STEPS =   1

 Calculating another point on the path.
 Point Number  6 in REVERSE path direction.
 Using LQA Reaction Path Following.
   LQA: T_Est iteration completed in    3 iterations.
 IRC-IRC-IRC-IRC-IRC-IRC-IRC-IRC-IRC-IRC-IRC-IRC-IRC-IRC-IRC-IRC-IRC-IRC
 Leave Link  123 at Mon Oct  6 14:24:56 2025, MaxMem=   104857600 cpu:               0.1 elap:               0.1
 (Enter /home/zhouoh/g16/l202.exe)
 Symmetry turned off by external request.
 Stoichiometry    C43H54NO3PPd
 Framework group  C1[X(C43H54NO3PPd)]
 Deg. of freedom   303
 Full point group                 C1      NOp   1
                          Input orientation:                          
 ---------------------------------------------------------------------
 Center     Atomic      Atomic             Coordinates (Angstroms)
 Number     Number       Type             X           Y           Z
 ---------------------------------------------------------------------
      1         15           0       -0.698502    0.937549   -1.167977
      2          8           0       -2.007169    3.227518   -1.693357
      3          8           0       -3.960200   -1.980852   -0.098928
      4          8           0       -0.956681    0.629585    2.428252
      5          6           0       -1.117545    0.012978   -2.736714
      6          6           0       -2.302351    1.285893   -0.399872
      7          6           0       -0.657882    2.700761   -1.780502
      8          6           0       -2.220450    0.663496   -3.568507
      9          6           0       -1.564669   -1.389926   -2.327910
     10          6           0        0.184498   -0.078715   -3.538779
     11          6           0       -2.786542    2.513140   -0.841194
     12          6           0       -3.026773    0.541982    0.531847
     13          6           0       -2.430804   -0.700360    1.101359
     14          6           0       -4.021368    2.993699   -0.431255
     15          6           0       -4.271089    1.011292    0.939035
     16          6           0       -4.759687    2.218807    0.451395
     17          6           0       -2.873475   -1.971023    0.717311
     18          6           0       -1.354567   -0.607230    1.983599
     19          6           0       -2.192233   -3.111217    1.137927
     20          6           0       -0.668865   -1.738488    2.409818
     21          6           0       -1.086303   -2.980850    1.967891
     22          6           0       -4.434299   -3.217872   -0.643482
     23          6           0       -1.792157    1.171789    3.477965
     24          1           0       -0.401700    2.701947   -2.841909
     25          1           0       -2.425264    0.039411   -4.443710
     26          1           0       -1.945360    1.655232   -3.928642
     27          1           0       -3.147002    0.753842   -2.997939
     28          1           0       -1.653913   -2.019516   -3.219525
     29          1           0       -2.536617   -1.355014   -1.835875
     30          1           0       -0.847047   -1.851435   -1.646078
     31          1           0        0.961642   -0.588055   -2.964742
     32          1           0        0.006417   -0.643757   -4.458433
     33          1           0        0.563565    0.906495   -3.822365
     34          1           0       -4.381791    3.947374   -0.792912
     35          1           0       -4.853668    0.433155    1.645336
     36          1           0       -5.728362    2.572591    0.781802
     37          1           0       -2.509056   -4.095860    0.829227
     38          1           0        0.175654   -1.623313    3.075687
     39          1           0       -0.556482   -3.870616    2.284817
     40         46           0        0.953945    0.043170    0.041362
     41          1           0        4.887862    3.964270   -1.220662
     42          6           0        4.322098    3.117488   -0.856296
     43          6           0        3.626880    3.182081    0.342508
     44          1           0        3.623127    4.099886    0.919283
     45          6           0        2.930883    2.086482    0.838838
     46          1           0        2.403761    2.195742    1.775873
     47          6           0        2.922467    0.842644    0.159440
     48          6           0        3.573164    0.821810   -1.103181
     49          1           0        3.565911   -0.076745   -1.699592
     50          6           0        4.253985    1.933753   -1.581857
     51          1           0        4.753021    1.855938   -2.540577
     52          1           0        3.285397   -0.980398    4.433814
     53          6           0        3.210213   -1.354226    3.410642
     54          1           0        2.440229   -2.129926    3.394680
     55          1           0        4.793613   -2.838475    3.486994
     56          1           0        1.875980    0.249342    2.839837
     57          1           0        5.338962   -1.226143    3.059310
     58          6           0        4.525357   -1.945676    2.919927
     59          6           0        2.824245   -0.184353    2.517198
     60          6           0        4.326293   -2.301266    1.475846
     61          7           0        2.712903   -0.513144    1.072764
     62          6           0        3.445438   -1.679744    0.681413
     63          1           0        5.133549   -2.157672   -1.353944
     64          6           0        3.125299   -2.294940   -0.636269
     65          6           0        4.131675   -2.506481   -1.572871
     66          6           0        1.834299   -2.738934   -0.918064
     67          1           0        1.048915   -2.605497   -0.180289
     68          6           0        3.853409   -3.125239   -2.783370
     69          1           0        4.643869   -3.267518   -3.509235
     70          6           0        1.559463   -3.369001   -2.123020
     71          6           0        2.564662   -3.555154   -3.062753
     72          1           0        0.554845   -3.716413   -2.329328
     73          1           0        2.344309   -4.037356   -4.006569
     74          1           0        3.596738    0.582143    2.635227
     75          1           0        4.787736   -3.201414    1.088964
     76          1           0       -2.802976    0.774143    3.342751
     77          1           0       -3.572076   -3.822229   -0.944539
     78          6           0        0.323680    3.605790   -1.043081
     79          1           0        1.295541    3.106247   -1.124071
     80          6           0       -0.026642    3.747667    0.432675
     81          1           0       -0.994962    4.240057    0.553361
     82          1           0       -0.066430    2.776517    0.931619
     83          1           0        0.723819    4.358607    0.939266
     84          6           0        0.411943    4.970577   -1.720570
     85          1           0       -0.550067    5.485232   -1.680167
     86          1           0        1.152996    5.596573   -1.220000
     87          1           0        0.704258    4.876307   -2.768685
     88          6           0       -5.233573   -2.844850   -1.875481
     89          1           0       -5.639811   -3.740949   -2.345779
     90          1           0       -6.061704   -2.191069   -1.597928
     91          1           0       -4.608083   -2.322523   -2.598712
     92          6           0       -5.278914   -3.959282    0.378971
     93          1           0       -5.614247   -4.913659   -0.029631
     94          1           0       -4.726887   -4.152728    1.297758
     95          1           0       -6.157647   -3.362153    0.627838
     96          6           0       -1.247464    0.737692    4.825889
     97          1           0       -1.871964    1.124571    5.632971
     98          1           0       -1.224279   -0.350053    4.903251
     99          1           0       -0.233281    1.120408    4.958732
    100          6           0       -1.817880    2.672785    3.300451
    101          1           0       -0.805373    3.077739    3.355096
    102          1           0       -2.245900    2.932665    2.332018
    103          1           0       -2.418203    3.133442    4.086723
 ---------------------------------------------------------------------
 Rotational constants (GHZ):           0.0785261           0.0587355           0.0525071
 Leave Link  202 at Mon Oct  6 14:24:56 2025, MaxMem=   104857600 cpu:               0.0 elap:               0.0
 (Enter /home/zhouoh/g16/l301.exe)
 Standard basis: STO-3G (5D, 7F)
 Ernie: Thresh=  0.10000D-02 Tol=  0.10000D-05 Strict=F.
   325 basis functions,   981 primitive gaussians,   327 cartesian basis functions
   202 alpha electrons      202 beta electrons
       nuclear repulsion energy      9288.0175474732 Hartrees.



 Warning!  P  atom    1 may be hypervalent but has no d functions.



 IExCor=    0 DFT=F Ex=HF Corr=None ExCW=0 ScaHFX=  1.000000
 ScaDFX=  1.000000  1.000000  1.000000  1.000000 ScalE2=  1.000000  1.000000
 IRadAn=      5 IRanWt=     -1 IRanGd=            0 ICorTp=0 IEmpDi=  4
 NAtoms=  103 NActive=  103 NUniq=  103 SFac= 1.00D+00 NAtFMM=   60 NAOKFM=T Big=T
 Integral buffers will be    131072 words long.
 Raffenetti 1 integral format.
 Two-electron integral symmetry is turned off.
 Leave Link  301 at Mon Oct  6 14:24:56 2025, MaxMem=   104857600 cpu:               0.0 elap:               0.0
 (Enter /home/zhouoh/g16/l402.exe)
 External calculation of energy and first derivatives.
 Running external command "python ../GauUMA_client.py R"
         input file       "/home/zhouoh/scratch/Gau-2814882.EIn"
         output file      "/home/zhouoh/scratch/Gau-2814882.EOu"
         message file     "/home/zhouoh/scratch/Gau-2814882.EMs"
         fchk file        "/home/zhouoh/scratch/Gau-2814882.EFC"
         mat. el file     "/home/zhouoh/scratch/Gau-2814882.EUF"
Sent job to server.
Received result from server:
SCF Done:  E(UMA) =  -2420.6402513937514     A.U.
 Recovered energy= -2420.64025139     dipole=      0.000000000000      0.000000000000      0.000000000000
 Energy=    -2420.64025     NIter=   0.
 Dipole moment=       0.000000       0.000000       0.000000
 Leave Link  402 at Mon Oct  6 14:24:56 2025, MaxMem=   104857600 cpu:               0.0 elap:               0.1
 (Enter /home/zhouoh/g16/l716.exe)
 Dipole        = 0.00000000D+00 0.00000000D+00 0.00000000D+00
 -------------------------------------------------------------------
 Center     Atomic                   Forces (Hartrees/Bohr)
 Number     Number              X              Y              Z
 -------------------------------------------------------------------
      1       15           0.000452209   -0.001749209    0.001464958
      2        8          -0.000051176   -0.000062902    0.000079909
      3        8          -0.000003377   -0.000032470    0.000043504
      4        8           0.000045536   -0.000158286    0.000262607
      5        6          -0.000211804    0.000058015   -0.000056313
      6        6          -0.000148952   -0.000164059   -0.000243142
      7        6          -0.000034449   -0.000351527    0.000156032
      8        6          -0.000122209    0.000012778   -0.000136193
      9        6          -0.000107863    0.000006075   -0.000218926
     10        6          -0.000205413    0.000004773   -0.000042867
     11        6          -0.000094065   -0.000047242   -0.000036573
     12        6          -0.000087025    0.000056141   -0.000035689
     13        6          -0.000158788    0.000060863    0.000137788
     14        6          -0.000034800    0.000037829    0.000064382
     15        6          -0.000067409    0.000077370    0.000084727
     16        6          -0.000086103    0.000050139    0.000068695
     17        6          -0.000006360    0.000036880    0.000043785
     18        6          -0.000172755   -0.000003468    0.000090611
     19        6          -0.000001222   -0.000028526   -0.000036336
     20        6          -0.000274603   -0.000038689    0.000171032
     21        6          -0.000086202   -0.000061790    0.000067283
     22        6           0.000032197    0.000036841    0.000016720
     23        6          -0.000020815   -0.000005135   -0.000008801
     24        1          -0.000005176   -0.000029734    0.000015975
     25        1          -0.000018965    0.000011992   -0.000017993
     26        1          -0.000008118    0.000003730   -0.000001039
     27        1          -0.000009250    0.000006299   -0.000009977
     28        1           0.000002892   -0.000011667   -0.000010999
     29        1          -0.000014255   -0.000003600   -0.000025998
     30        1          -0.000015640    0.000032188    0.000007588
     31        1          -0.000023320    0.000017049    0.000016151
     32        1          -0.000004483   -0.000002636   -0.000004086
     33        1          -0.000015863   -0.000000262    0.000001507
     34        1          -0.000001833    0.000005280    0.000007908
     35        1          -0.000004761    0.000009400    0.000010491
     36        1          -0.000007194    0.000004625    0.000005270
     37        1           0.000001262   -0.000001714   -0.000009333
     38        1          -0.000059793   -0.000003970    0.000058384
     39        1          -0.000016949   -0.000008083    0.000015153
     40       46          -0.020573270    0.004900150   -0.011453732
     41        1          -0.000376032   -0.000097459   -0.000109151
     42        6          -0.002821152   -0.001607639    0.000038304
     43        6          -0.003464359   -0.002594920   -0.000386166
     44        1          -0.000684503   -0.000148999   -0.000179656
     45        6           0.003009120   -0.005475763    0.003615397
     46        1           0.000456121   -0.000237405    0.000409048
     47        6           0.014932583   -0.012442423    0.014099692
     48        6           0.002413245   -0.005194654    0.006348360
     49        1           0.000490800   -0.000385500    0.000415870
     50        6          -0.004063729   -0.002467811    0.001664655
     51        1          -0.000709276   -0.000215946   -0.000033687
     52        1          -0.000273251    0.000036447   -0.000215799
     53        6          -0.001112678    0.000751660   -0.002817085
     54        1          -0.000084948    0.000069185   -0.000359994
     55        1          -0.000039515    0.000075344   -0.000060697
     56        1          -0.000125062   -0.000034182   -0.000330747
     57        1          -0.000046374    0.000078277   -0.000146988
     58        6          -0.000480702    0.000809263   -0.000711888
     59        6           0.001097122    0.003672769   -0.000425978
     60        6          -0.002865670    0.000636537   -0.000211949
     61        7           0.014536877    0.018065842   -0.007600440
     62        6           0.002473784    0.003977797   -0.003055271
     63        1           0.000019081    0.000001645   -0.000081140
     64        6           0.000260310    0.000701031   -0.000973889
     65        6           0.000296464   -0.000328720   -0.000579975
     66        6           0.000182479    0.000439779    0.000099706
     67        1          -0.000005578    0.000183821   -0.000031331
     68        6           0.000131314   -0.000462808   -0.000284837
     69        1          -0.000002498   -0.000055805   -0.000036544
     70        6           0.000117330    0.000014873    0.000242654
     71        6          -0.000059911   -0.000130904    0.000112552
     72        1          -0.000001305    0.000036582    0.000026839
     73        1          -0.000032883   -0.000000072    0.000010920
     74        1          -0.000142624    0.000346874    0.000682332
     75        1          -0.000801200   -0.000243915    0.000151794
     76        1          -0.000002815    0.000002162   -0.000001500
     77        1           0.000001758    0.000001525   -0.000000466
     78        6          -0.000061260   -0.000180340    0.000034174
     79        1          -0.000014082   -0.000031734    0.000018557
     80        6           0.000062816   -0.000059880    0.000067086
     81        1           0.000001407   -0.000012595    0.000012357
     82        1           0.000017654   -0.000009233   -0.000007866
     83        1           0.000001263    0.000000722   -0.000000028
     84        6           0.000039565   -0.000160495    0.000021193
     85        1           0.000003070   -0.000011692   -0.000001220
     86        1           0.000000398   -0.000010324   -0.000000117
     87        1           0.000002566   -0.000013527    0.000001665
     88        6           0.000014620    0.000014342    0.000009738
     89        1          -0.000000705    0.000001220    0.000002902
     90        1           0.000003843    0.000003854    0.000001555
     91        1           0.000003123    0.000000891    0.000001575
     92        6           0.000011623   -0.000000341   -0.000004835
     93        1           0.000001756   -0.000000387    0.000000336
     94        1           0.000001882    0.000003027    0.000000297
     95        1           0.000001540    0.000000622   -0.000000809
     96        6          -0.000063835    0.000025003    0.000045092
     97        1          -0.000001478    0.000000979    0.000007199
     98        1          -0.000005974    0.000001324    0.000002999
     99        1          -0.000007129    0.000007198    0.000003788
    100        6          -0.000010819   -0.000005043   -0.000025883
    101        1          -0.000002122    0.000001474   -0.000006775
    102        1           0.000000863   -0.000005571   -0.000004246
    103        1          -0.000002747    0.000000566   -0.000004154
 -------------------------------------------------------------------
 Cartesian Forces:  Max     0.020573270 RMS     0.002550193
 Z-matrix is all fixed cartesians, so copy forces.
 Leave Link  716 at Mon Oct  6 14:24:56 2025, MaxMem=   104857600 cpu:               0.0 elap:               0.0
 (Enter /home/zhouoh/g16/l123.exe)
 IRC-IRC-IRC-IRC-IRC-IRC-IRC-IRC-IRC-IRC-IRC-IRC-IRC-IRC-IRC-IRC-IRC-IRC
 Pt 16 Step number   1 out of a maximum of  20
 Point Number:   6          Path Number:   2
   CHANGE IN THE REACTION COORDINATE =    0.28886
   NET REACTION COORDINATE UP TO THIS POINT =    1.73290
  # OF POINTS ALONG THE PATH =  16
  # OF STEPS =   1

 Calculating another point on the path.
 Point Number  7 in REVERSE path direction.
 Using LQA Reaction Path Following.
   LQA: T_Est iteration completed in    3 iterations.
 IRC-IRC-IRC-IRC-IRC-IRC-IRC-IRC-IRC-IRC-IRC-IRC-IRC-IRC-IRC-IRC-IRC-IRC
 Leave Link  123 at Mon Oct  6 14:24:56 2025, MaxMem=   104857600 cpu:               0.1 elap:               0.1
 (Enter /home/zhouoh/g16/l202.exe)
 Symmetry turned off by external request.
 Stoichiometry    C43H54NO3PPd
 Framework group  C1[X(C43H54NO3PPd)]
 Deg. of freedom   303
 Full point group                 C1      NOp   1
                          Input orientation:                          
 ---------------------------------------------------------------------
 Center     Atomic      Atomic             Coordinates (Angstroms)
 Number     Number       Type             X           Y           Z
 ---------------------------------------------------------------------
      1         15           0       -0.698295    0.936747   -1.167301
      2          8           0       -2.007207    3.227461   -1.693288
      3          8           0       -3.960207   -1.980882   -0.098890
      4          8           0       -0.956642    0.629449    2.428489
      5          6           0       -1.117793    0.013049   -2.736777
      6          6           0       -2.302532    1.285701   -0.400158
      7          6           0       -0.657929    2.700338   -1.780311
      8          6           0       -2.220594    0.663511   -3.568665
      9          6           0       -1.564799   -1.389922   -2.328168
     10          6           0        0.184254   -0.078711   -3.538834
     11          6           0       -2.786657    2.513076   -0.841233
     12          6           0       -3.026880    0.542045    0.531806
     13          6           0       -2.430988   -0.700290    1.101521
     14          6           0       -4.021406    2.993744   -0.431180
     15          6           0       -4.271171    1.011386    0.939136
     16          6           0       -4.759789    2.218865    0.451479
     17          6           0       -2.873478   -1.970978    0.717366
     18          6           0       -1.354768   -0.607239    1.983701
     19          6           0       -2.192237   -3.111250    1.137882
     20          6           0       -0.669196   -1.738537    2.410020
     21          6           0       -1.086404   -2.980920    1.967972
     22          6           0       -4.434259   -3.217828   -0.643460
     23          6           0       -1.792182    1.171780    3.477956
     24          1           0       -0.401757    2.701560   -2.841732
     25          1           0       -2.425530    0.039568   -4.443980
     26          1           0       -1.945471    1.655299   -3.928661
     27          1           0       -3.147135    0.753922   -2.998072
     28          1           0       -1.653891   -2.019687   -3.219717
     29          1           0       -2.536809   -1.355062   -1.836239
     30          1           0       -0.847260   -1.850991   -1.645967
     31          1           0        0.961316   -0.587838   -2.964517
     32          1           0        0.006344   -0.643807   -4.458526
     33          1           0        0.563335    0.906517   -3.822369
     34          1           0       -4.381816    3.947449   -0.792799
     35          1           0       -4.853738    0.433280    1.645491
     36          1           0       -5.728467    2.572661    0.781879
     37          1           0       -2.509041   -4.095879    0.829102
     38          1           0        0.174845   -1.623367    3.076523
     39          1           0       -0.556714   -3.870739    2.285028
     40         46           0        0.951226    0.043818    0.039842
     41          1           0        4.882354    3.962922   -1.222308
     42          6           0        4.318650    3.115482   -0.856253
     43          6           0        3.622827    3.179074    0.342134
     44          1           0        3.613656    4.098119    0.916855
     45          6           0        2.934580    2.080379    0.843263
     46          1           0        2.409948    2.191933    1.781357
     47          6           0        2.939723    0.828255    0.175819
     48          6           0        3.576329    0.815709   -1.095941
     49          1           0        3.572437   -0.082194   -1.693218
     50          6           0        4.249287    1.930800   -1.579931
     51          1           0        4.743295    1.852935   -2.541246
     52          1           0        3.281554   -0.979952    4.430926
     53          6           0        3.208868   -1.353239    3.407351
     54          1           0        2.438942   -2.128830    3.389487
     55          1           0        4.792965   -2.837333    3.486098
     56          1           0        1.873854    0.248946    2.835157
     57          1           0        5.338296   -1.225010    3.057247
     58          6           0        4.524714   -1.944661    2.919010
     59          6           0        2.825562   -0.180108    2.516724
     60          6           0        4.322961   -2.300501    1.475525
     61          7           0        2.727221   -0.495344    1.065319
     62          6           0        3.448471   -1.675144    0.677884
     63          1           0        5.133846   -2.157635   -1.355081
     64          6           0        3.125595   -2.294034   -0.637443
     65          6           0        4.132025   -2.506859   -1.573575
     66          6           0        1.834512   -2.738381   -0.917956
     67          1           0        1.048894   -2.602919   -0.180738
     68          6           0        3.853563   -3.125815   -2.783722
     69          1           0        4.643824   -3.268340   -3.509732
     70          6           0        1.559600   -3.368983   -2.122721
     71          6           0        2.564583   -3.555323   -3.062619
     72          1           0        0.554834   -3.715931   -2.328948
     73          1           0        2.343840   -4.037375   -4.006415
     74          1           0        3.595103    0.587380    2.644595
     75          1           0        4.777013   -3.205429    1.090793
     76          1           0       -2.803010    0.774179    3.342738
     77          1           0       -3.572053   -3.822210   -0.944543
     78          6           0        0.323605    3.605580   -1.043037
     79          1           0        1.295372    3.105778   -1.123839
     80          6           0       -0.026566    3.747593    0.432755
     81          1           0       -0.994928    4.239884    0.553541
     82          1           0       -0.066200    2.776330    0.931508
     83          1           0        0.723866    4.358680    0.939294
     84          6           0        0.411991    4.970385   -1.720544
     85          1           0       -0.550013    5.485072   -1.680183
     86          1           0        1.153018    5.596462   -1.219985
     87          1           0        0.704286    4.876116   -2.768674
     88          6           0       -5.233554   -2.844833   -1.875469
     89          1           0       -5.639816   -3.740939   -2.345746
     90          1           0       -6.061657   -2.191020   -1.597904
     91          1           0       -4.608045   -2.322507   -2.598680
     92          6           0       -5.278899   -3.959283    0.378966
     93          1           0       -5.614227   -4.913671   -0.029628
     94          1           0       -4.726861   -4.152685    1.297759
     95          1           0       -6.157627   -3.362143    0.627827
     96          6           0       -1.247541    0.737722    4.825944
     97          1           0       -1.871989    1.124583    5.633077
     98          1           0       -1.224353   -0.350031    4.903287
     99          1           0       -0.233364    1.120517    4.958787
    100          6           0       -1.817893    2.672779    3.300419
    101          1           0       -0.805390    3.077762    3.355013
    102          1           0       -2.245887    2.932583    2.331962
    103          1           0       -2.418243    3.133458    4.086668
 ---------------------------------------------------------------------
 Rotational constants (GHZ):           0.0785598           0.0587348           0.0525140
 Leave Link  202 at Mon Oct  6 14:24:56 2025, MaxMem=   104857600 cpu:               0.0 elap:               0.0
 (Enter /home/zhouoh/g16/l301.exe)
 Standard basis: STO-3G (5D, 7F)
 Ernie: Thresh=  0.10000D-02 Tol=  0.10000D-05 Strict=F.
   325 basis functions,   981 primitive gaussians,   327 cartesian basis functions
   202 alpha electrons      202 beta electrons
       nuclear repulsion energy      9288.6738682038 Hartrees.



 Warning!  P  atom    1 may be hypervalent but has no d functions.



 IExCor=    0 DFT=F Ex=HF Corr=None ExCW=0 ScaHFX=  1.000000
 ScaDFX=  1.000000  1.000000  1.000000  1.000000 ScalE2=  1.000000  1.000000
 IRadAn=      5 IRanWt=     -1 IRanGd=            0 ICorTp=0 IEmpDi=  4
 NAtoms=  103 NActive=  103 NUniq=  103 SFac= 1.00D+00 NAtFMM=   60 NAOKFM=T Big=T
 Integral buffers will be    131072 words long.
 Raffenetti 1 integral format.
 Two-electron integral symmetry is turned off.
 Leave Link  301 at Mon Oct  6 14:24:56 2025, MaxMem=   104857600 cpu:               0.0 elap:               0.0
 (Enter /home/zhouoh/g16/l402.exe)
 External calculation of energy and first derivatives.
 Running external command "python ../GauUMA_client.py R"
         input file       "/home/zhouoh/scratch/Gau-2814882.EIn"
         output file      "/home/zhouoh/scratch/Gau-2814882.EOu"
         message file     "/home/zhouoh/scratch/Gau-2814882.EMs"
         fchk file        "/home/zhouoh/scratch/Gau-2814882.EFC"
         mat. el file     "/home/zhouoh/scratch/Gau-2814882.EUF"
Sent job to server.
Received result from server:
SCF Done:  E(UMA) =  -2420.6434166531285     A.U.
 Recovered energy= -2420.64341665     dipole=      0.000000000000      0.000000000000      0.000000000000
 Energy=    -2420.64342     NIter=   0.
 Dipole moment=       0.000000       0.000000       0.000000
 Leave Link  402 at Mon Oct  6 14:24:56 2025, MaxMem=   104857600 cpu:               0.0 elap:               0.1
 (Enter /home/zhouoh/g16/l716.exe)
 Dipole        = 0.00000000D+00 0.00000000D+00 0.00000000D+00
 -------------------------------------------------------------------
 Center     Atomic                   Forces (Hartrees/Bohr)
 Number     Number              X              Y              Z
 -------------------------------------------------------------------
      1       15           0.000404707   -0.001860169    0.001556874
      2        8          -0.000033239   -0.000086587    0.000085594
      3        8          -0.000005332   -0.000031263    0.000050485
      4        8           0.000044819   -0.000164560    0.000287013
      5        6          -0.000222921    0.000055041   -0.000059970
      6        6          -0.000175291   -0.000179819   -0.000254056
      7        6          -0.000029978   -0.000379222    0.000184349
      8        6          -0.000133237    0.000021188   -0.000138857
      9        6          -0.000123187    0.000002839   -0.000236729
     10        6          -0.000223949    0.000005557   -0.000056054
     11        6          -0.000105994   -0.000063301   -0.000035286
     12        6          -0.000104997    0.000054048   -0.000034588
     13        6          -0.000170164    0.000062860    0.000141818
     14        6          -0.000036377    0.000040110    0.000069532
     15        6          -0.000076335    0.000084984    0.000092232
     16        6          -0.000091070    0.000057446    0.000075640
     17        6          -0.000008783    0.000042385    0.000047496
     18        6          -0.000174926   -0.000005351    0.000086420
     19        6          -0.000001976   -0.000029080   -0.000041015
     20        6          -0.000297563   -0.000043034    0.000188810
     21        6          -0.000097978   -0.000069960    0.000070068
     22        6           0.000035446    0.000036013    0.000017450
     23        6          -0.000027370   -0.000005123   -0.000000180
     24        1          -0.000004011   -0.000035082    0.000016788
     25        1          -0.000018718    0.000012165   -0.000017954
     26        1          -0.000008976    0.000004541   -0.000001907
     27        1          -0.000010749    0.000006360   -0.000011301
     28        1           0.000003316   -0.000011386   -0.000014071
     29        1          -0.000016813   -0.000004583   -0.000029707
     30        1          -0.000018191    0.000030541    0.000006097
     31        1          -0.000024505    0.000015588    0.000013301
     32        1          -0.000006838   -0.000002607   -0.000005685
     33        1          -0.000018269    0.000000641   -0.000000898
     34        1          -0.000001351    0.000006055    0.000008908
     35        1          -0.000005136    0.000010079    0.000012232
     36        1          -0.000008432    0.000006437    0.000006742
     37        1           0.000001643   -0.000000125   -0.000010346
     38        1          -0.000065192   -0.000005857    0.000064795
     39        1          -0.000018549   -0.000008367    0.000016773
     40       46          -0.021459267    0.005146931   -0.012082102
     41        1          -0.000475092   -0.000102181   -0.000145569
     42        6          -0.003269315   -0.001888825    0.000049890
     43        6          -0.003640806   -0.002732734   -0.000292638
     44        1          -0.000733419   -0.000151256   -0.000208125
     45        6           0.003512962   -0.005556518    0.003982140
     46        1           0.000455673   -0.000290667    0.000413315
     47        6           0.015788129   -0.010624430    0.013233716
     48        6           0.003022469   -0.005427367    0.006715580
     49        1           0.000498415   -0.000425792    0.000504798
     50        6          -0.004208755   -0.002801977    0.001752137
     51        1          -0.000759732   -0.000226174   -0.000039541
     52        1          -0.000296473    0.000016608   -0.000212740
     53        6          -0.001260501    0.000983119   -0.002987773
     54        1          -0.000101650    0.000098668   -0.000418933
     55        1          -0.000057294    0.000093143   -0.000063821
     56        1          -0.000128042   -0.000036011   -0.000373562
     57        1          -0.000056965    0.000092900   -0.000160050
     58        6          -0.000641715    0.000975900   -0.000910505
     59        6           0.001149919    0.003825750   -0.000452836
     60        6          -0.002958972    0.000618663   -0.000368395
     61        7           0.014900343    0.016356656   -0.006297478
     62        6           0.002644101    0.004263711   -0.003120139
     63        1           0.000023356   -0.000002282   -0.000090899
     64        6           0.000282391    0.000906558   -0.001079816
     65        6           0.000322799   -0.000347186   -0.000680955
     66        6           0.000205126    0.000569140    0.000093987
     67        1          -0.000000413    0.000198894   -0.000030752
     68        6           0.000141171   -0.000553892   -0.000329813
     69        1          -0.000003466   -0.000069626   -0.000040634
     70        6           0.000122812    0.000019603    0.000276025
     71        6          -0.000088966   -0.000170395    0.000122520
     72        1          -0.000001136    0.000036139    0.000031343
     73        1          -0.000039510   -0.000004453    0.000013129
     74        1          -0.000165204    0.000363561    0.000684568
     75        1          -0.000852105   -0.000249915    0.000163738
     76        1          -0.000003166    0.000002340   -0.000001201
     77        1           0.000001585    0.000002080   -0.000000419
     78        6          -0.000060523   -0.000191834    0.000042392
     79        1          -0.000014514   -0.000032508    0.000018427
     80        6           0.000071615   -0.000072090    0.000073472
     81        1           0.000002673   -0.000013394    0.000013577
     82        1           0.000016993   -0.000009010   -0.000005844
     83        1           0.000001507    0.000002074    0.000000442
     84        6           0.000041261   -0.000179329    0.000022397
     85        1           0.000003837   -0.000013438   -0.000001354
     86        1           0.000000758   -0.000012037    0.000000350
     87        1           0.000002674   -0.000015458    0.000001520
     88        6           0.000018548    0.000017257    0.000010915
     89        1          -0.000000354    0.000001450    0.000003013
     90        1           0.000003747    0.000003904    0.000001720
     91        1           0.000002836    0.000001007    0.000001934
     92        6           0.000013215   -0.000000153   -0.000005011
     93        1           0.000001942   -0.000000082    0.000000353
     94        1           0.000002001    0.000002839    0.000000412
     95        1           0.000001732    0.000000384   -0.000001016
     96        6          -0.000070639    0.000029834    0.000053202
     97        1          -0.000002763    0.000001526    0.000007751
     98        1          -0.000005938    0.000002090    0.000003502
     99        1          -0.000007579    0.000007425    0.000004284
    100        6          -0.000011742   -0.000005490   -0.000029610
    101        1          -0.000001926    0.000001642   -0.000006571
    102        1           0.000000735   -0.000005994   -0.000004622
    103        1          -0.000002914    0.000001314   -0.000004649
 -------------------------------------------------------------------
 Cartesian Forces:  Max     0.021459267 RMS     0.002541239
 Z-matrix is all fixed cartesians, so copy forces.
 Leave Link  716 at Mon Oct  6 14:24:56 2025, MaxMem=   104857600 cpu:               0.0 elap:               0.0
 (Enter /home/zhouoh/g16/l123.exe)
 IRC-IRC-IRC-IRC-IRC-IRC-IRC-IRC-IRC-IRC-IRC-IRC-IRC-IRC-IRC-IRC-IRC-IRC
 Pt 17 Step number   1 out of a maximum of  20
 Point Number:   7          Path Number:   2
   CHANGE IN THE REACTION COORDINATE =    0.28886
   NET REACTION COORDINATE UP TO THIS POINT =    2.02176
  # OF POINTS ALONG THE PATH =  17
  # OF STEPS =   1

 Calculating another point on the path.
 Point Number  8 in REVERSE path direction.
 Using LQA Reaction Path Following.
   LQA: T_Est iteration completed in    2 iterations.
 IRC-IRC-IRC-IRC-IRC-IRC-IRC-IRC-IRC-IRC-IRC-IRC-IRC-IRC-IRC-IRC-IRC-IRC
 Leave Link  123 at Mon Oct  6 14:24:56 2025, MaxMem=   104857600 cpu:               0.1 elap:               0.1
 (Enter /home/zhouoh/g16/l202.exe)
 Symmetry turned off by external request.
 Stoichiometry    C43H54NO3PPd
 Framework group  C1[X(C43H54NO3PPd)]
 Deg. of freedom   303
 Full point group                 C1      NOp   1
                          Input orientation:                          
 ---------------------------------------------------------------------
 Center     Atomic      Atomic             Coordinates (Angstroms)
 Number     Number       Type             X           Y           Z
 ---------------------------------------------------------------------
      1         15           0       -0.698112    0.935871   -1.166566
      2          8           0       -2.007226    3.227377   -1.693210
      3          8           0       -3.960214   -1.980910   -0.098844
      4          8           0       -0.956603    0.629304    2.428753
      5          6           0       -1.118062    0.013115   -2.736847
      6          6           0       -2.302753    1.285479   -0.400461
      7          6           0       -0.657971    2.699866   -1.780079
      8          6           0       -2.220756    0.663539   -3.568829
      9          6           0       -1.564954   -1.389923   -2.328460
     10          6           0        0.183979   -0.078704   -3.538909
     11          6           0       -2.786788    2.512991   -0.841273
     12          6           0       -3.027014    0.542103    0.531768
     13          6           0       -2.431194   -0.700215    1.101691
     14          6           0       -4.021448    2.993793   -0.431095
     15          6           0       -4.271267    1.011491    0.939250
     16          6           0       -4.759900    2.218937    0.451575
     17          6           0       -2.873486   -1.970927    0.717426
     18          6           0       -1.354974   -0.607250    1.983804
     19          6           0       -2.192242   -3.111282    1.137829
     20          6           0       -0.669564   -1.738592    2.410254
     21          6           0       -1.086524   -2.981001    1.968060
     22          6           0       -4.434215   -3.217784   -0.643437
     23          6           0       -1.792216    1.171772    3.477960
     24          1           0       -0.401799    2.701066   -2.841510
     25          1           0       -2.425796    0.039734   -4.444254
     26          1           0       -1.945602    1.655378   -3.928690
     27          1           0       -3.147299    0.754009   -2.998230
     28          1           0       -1.653854   -2.019854   -3.219951
     29          1           0       -2.537049   -1.355126   -1.836676
     30          1           0       -0.847523   -1.850574   -1.645882
     31          1           0        0.960963   -0.587635   -2.964338
     32          1           0        0.006230   -0.643850   -4.458636
     33          1           0        0.563057    0.906545   -3.822406
     34          1           0       -4.381831    3.947539   -0.792667
     35          1           0       -4.853814    0.433427    1.645675
     36          1           0       -5.728578    2.572757    0.781978
     37          1           0       -2.509023   -4.095888    0.828949
     38          1           0        0.173925   -1.623452    3.077481
     39          1           0       -0.556977   -3.870870    2.285271
     40         46           0        0.948337    0.044525    0.038195
     41          1           0        4.875106    3.961566   -1.224666
     42          6           0        4.314510    3.113095   -0.856233
     43          6           0        3.618503    3.175907    0.341870
     44          1           0        3.603213    4.096462    0.913977
     45          6           0        2.938997    2.074062    0.848253
     46          1           0        2.416375    2.187293    1.787139
     47          6           0        2.958308    0.815895    0.191402
     48          6           0        3.580354    0.809174   -1.088071
     49          1           0        3.579402   -0.088519   -1.685438
     50          6           0        4.244377    1.927413   -1.577904
     51          1           0        4.732638    1.849733   -2.542139
     52          1           0        3.277236   -0.979832    4.428021
     53          6           0        3.207311   -1.351956    3.403815
     54          1           0        2.437309   -2.127287    3.383228
     55          1           0        4.792028   -2.835852    3.485137
     56          1           0        1.871507    0.248565    2.829711
     57          1           0        5.337402   -1.223609    3.054864
     58          6           0        4.523849   -1.943414    2.917827
     59          6           0        2.826986   -0.175628    2.516237
     60          6           0        4.319502   -2.299793    1.475026
     61          7           0        2.742095   -0.479110    1.059161
     62          6           0        3.451788   -1.670159    0.674220
     63          1           0        5.134216   -2.157675   -1.356414
     64          6           0        3.125936   -2.292835   -0.638772
     65          6           0        4.132420   -2.507266   -1.574429
     66          6           0        1.834770   -2.737624   -0.917858
     67          1           0        1.048953   -2.600018   -0.181170
     68          6           0        3.853729   -3.126526   -2.784142
     69          1           0        4.643764   -3.269423   -3.510308
     70          6           0        1.559750   -3.368948   -2.122368
     71          6           0        2.564460   -3.555550   -3.062468
     72          1           0        0.554824   -3.715437   -2.328469
     73          1           0        2.343245   -4.037479   -4.006212
     74          1           0        3.593210    0.593103    2.654270
     75          1           0        4.765360   -3.209888    1.092762
     76          1           0       -2.803053    0.774220    3.342728
     77          1           0       -3.572024   -3.822186   -0.944547
     78          6           0        0.323530    3.605346   -1.042980
     79          1           0        1.295197    3.105282   -1.123596
     80          6           0       -0.026475    3.747502    0.432846
     81          1           0       -0.994875    4.239691    0.553742
     82          1           0       -0.065964    2.776142    0.931429
     83          1           0        0.723913    4.358761    0.939326
     84          6           0        0.412042    4.970160   -1.720517
     85          1           0       -0.549953    5.484880   -1.680201
     86          1           0        1.153045    5.596314   -1.219968
     87          1           0        0.704319    4.875887   -2.768659
     88          6           0       -5.233529   -2.844811   -1.875454
     89          1           0       -5.639814   -3.740924   -2.345710
     90          1           0       -6.061606   -2.190970   -1.597876
     91          1           0       -4.608004   -2.322485   -2.598648
     92          6           0       -5.278880   -3.959283    0.378961
     93          1           0       -5.614201   -4.913681   -0.029626
     94          1           0       -4.726834   -4.152644    1.297760
     95          1           0       -6.157605   -3.362134    0.627815
     96          6           0       -1.247629    0.737761    4.826013
     97          1           0       -1.872032    1.124602    5.633193
     98          1           0       -1.224428   -0.350000    4.903336
     99          1           0       -0.233460    1.120632    4.958852
    100          6           0       -1.817908    2.672772    3.300383
    101          1           0       -0.805408    3.077785    3.354928
    102          1           0       -2.245875    2.932493    2.331897
    103          1           0       -2.418285    3.133485    4.086600
 ---------------------------------------------------------------------
 Rotational constants (GHZ):           0.0785945           0.0587338           0.0525209
 Leave Link  202 at Mon Oct  6 14:24:56 2025, MaxMem=   104857600 cpu:               0.0 elap:               0.0
 (Enter /home/zhouoh/g16/l301.exe)
 Standard basis: STO-3G (5D, 7F)
 Ernie: Thresh=  0.10000D-02 Tol=  0.10000D-05 Strict=F.
   325 basis functions,   981 primitive gaussians,   327 cartesian basis functions
   202 alpha electrons      202 beta electrons
       nuclear repulsion energy      9289.2744579735 Hartrees.



 Warning!  P  atom    1 may be hypervalent but has no d functions.



 IExCor=    0 DFT=F Ex=HF Corr=None ExCW=0 ScaHFX=  1.000000
 ScaDFX=  1.000000  1.000000  1.000000  1.000000 ScalE2=  1.000000  1.000000
 IRadAn=      5 IRanWt=     -1 IRanGd=            0 ICorTp=0 IEmpDi=  4
 NAtoms=  103 NActive=  103 NUniq=  103 SFac= 1.00D+00 NAtFMM=   60 NAOKFM=T Big=T
 Integral buffers will be    131072 words long.
 Raffenetti 1 integral format.
 Two-electron integral symmetry is turned off.
 Leave Link  301 at Mon Oct  6 14:24:56 2025, MaxMem=   104857600 cpu:               0.0 elap:               0.0
 (Enter /home/zhouoh/g16/l402.exe)
 External calculation of energy and first derivatives.
 Running external command "python ../GauUMA_client.py R"
         input file       "/home/zhouoh/scratch/Gau-2814882.EIn"
         output file      "/home/zhouoh/scratch/Gau-2814882.EOu"
         message file     "/home/zhouoh/scratch/Gau-2814882.EMs"
         fchk file        "/home/zhouoh/scratch/Gau-2814882.EFC"
         mat. el file     "/home/zhouoh/scratch/Gau-2814882.EUF"
Sent job to server.
Received result from server:
SCF Done:  E(UMA) =  -2420.646452624548     A.U.
 Recovered energy= -2420.64645263     dipole=      0.000000000000      0.000000000000      0.000000000000
 Energy=    -2420.64645     NIter=   0.
 Dipole moment=       0.000000       0.000000       0.000000
 Leave Link  402 at Mon Oct  6 14:24:56 2025, MaxMem=   104857600 cpu:               0.0 elap:               0.1
 (Enter /home/zhouoh/g16/l716.exe)
 Dipole        = 0.00000000D+00 0.00000000D+00 0.00000000D+00
 -------------------------------------------------------------------
 Center     Atomic                   Forces (Hartrees/Bohr)
 Number     Number              X              Y              Z
 -------------------------------------------------------------------
      1       15           0.000322326   -0.001917284    0.001589903
      2        8          -0.000016391   -0.000115529    0.000093507
      3        8          -0.000008299   -0.000027170    0.000055040
      4        8           0.000039855   -0.000164351    0.000303108
      5        6          -0.000228494    0.000048865   -0.000059247
      6        6          -0.000199310   -0.000195884   -0.000250528
      7        6          -0.000027172   -0.000406949    0.000212017
      8        6          -0.000141572    0.000031754   -0.000135490
      9        6          -0.000142098   -0.000004424   -0.000254653
     10        6          -0.000240277    0.000006967   -0.000071968
     11        6          -0.000113543   -0.000075037   -0.000039624
     12        6          -0.000125392    0.000046456   -0.000029290
     13        6          -0.000177993    0.000061149    0.000143186
     14        6          -0.000037196    0.000042095    0.000072005
     15        6          -0.000087205    0.000090784    0.000099087
     16        6          -0.000095901    0.000065538    0.000082789
     17        6          -0.000012830    0.000044521    0.000050463
     18        6          -0.000169874   -0.000006997    0.000081816
     19        6          -0.000002492   -0.000025767   -0.000045661
     20        6          -0.000313868   -0.000047744    0.000205895
     21        6          -0.000110626   -0.000075560    0.000074108
     22        6           0.000035901    0.000034035    0.000017488
     23        6          -0.000033550   -0.000005099    0.000011968
     24        1          -0.000001576   -0.000039907    0.000018663
     25        1          -0.000017711    0.000011925   -0.000017138
     26        1          -0.000009293    0.000005192   -0.000002503
     27        1          -0.000012370    0.000006358   -0.000011890
     28        1           0.000003598   -0.000009954   -0.000016213
     29        1          -0.000019011   -0.000005725   -0.000033019
     30        1          -0.000020148    0.000026319    0.000003744
     31        1          -0.000024570    0.000013003    0.000009421
     32        1          -0.000009965   -0.000001842   -0.000007078
     33        1          -0.000020358    0.000001150   -0.000003199
     34        1          -0.000000053    0.000006007    0.000009689
     35        1          -0.000005421    0.000011173    0.000013422
     36        1          -0.000006726    0.000007621    0.000007477
     37        1           0.000001669   -0.000000159   -0.000011970
     38        1          -0.000065965   -0.000006904    0.000067083
     39        1          -0.000019587   -0.000008068    0.000017998
     40       46          -0.021434769    0.005331410   -0.012345671
     41        1          -0.000571511   -0.000094789   -0.000188060
     42        6          -0.003691200   -0.002064284   -0.000017446
     43        6          -0.003633886   -0.002645095   -0.000151565
     44        1          -0.000729260   -0.000131136   -0.000226958
     45        6           0.003950400   -0.005230091    0.004210631
     46        1           0.000433059   -0.000324359    0.000401054
     47        6           0.015844271   -0.008154433    0.011649353
     48        6           0.003667714   -0.005380169    0.006720258
     49        1           0.000489784   -0.000451208    0.000564622
     50        6          -0.004086091   -0.002996662    0.001692424
     51        1          -0.000752085   -0.000215364   -0.000045706
     52        1          -0.000303260   -0.000015835   -0.000189321
     53        6          -0.001372453    0.001157419   -0.002971896
     54        1          -0.000114961    0.000121407   -0.000455896
     55        1          -0.000069409    0.000111302   -0.000059107
     56        1          -0.000116906   -0.000032061   -0.000388414
     57        1          -0.000070568    0.000105553   -0.000168985
     58        6          -0.000797051    0.001109301   -0.001079558
     59        6           0.001167184    0.003741153   -0.000388429
     60        6          -0.002840919    0.000464109   -0.000511811
     61        7           0.014383509    0.013573132   -0.004505922
     62        6           0.002746247    0.004202391   -0.002960946
     63        1           0.000027852   -0.000010700   -0.000096770
     64        6           0.000315152    0.001119996   -0.001140274
     65        6           0.000339609   -0.000346194   -0.000768064
     66        6           0.000236521    0.000728221    0.000076029
     67        1           0.000006655    0.000205851   -0.000027674
     68        6           0.000137406   -0.000643363   -0.000371303
     69        1          -0.000005232   -0.000084483   -0.000042123
     70        6           0.000127392    0.000041432    0.000314332
     71        6          -0.000125386   -0.000218982    0.000129842
     72        1          -0.000000924    0.000033527    0.000037844
     73        1          -0.000045622   -0.000011927    0.000017081
     74        1          -0.000174796    0.000345183    0.000638252
     75        1          -0.000838165   -0.000247314    0.000169780
     76        1          -0.000003623    0.000002210   -0.000000463
     77        1           0.000001986    0.000002154   -0.000000440
     78        6          -0.000057481   -0.000204916    0.000053077
     79        1          -0.000014261   -0.000032260    0.000016743
     80        6           0.000081942   -0.000082519    0.000081608
     81        1           0.000003583   -0.000013726    0.000013948
     82        1           0.000016496   -0.000009384   -0.000002965
     83        1           0.000001115    0.000002578    0.000000927
     84        6           0.000041863   -0.000199681    0.000022493
     85        1           0.000004109   -0.000014869   -0.000001362
     86        1           0.000001075   -0.000013130    0.000000471
     87        1           0.000002617   -0.000017340    0.000001733
     88        6           0.000021271    0.000019837    0.000012716
     89        1          -0.000000000    0.000001640    0.000002813
     90        1           0.000003817    0.000003797    0.000001915
     91        1           0.000002882    0.000001188    0.000001688
     92        6           0.000015962    0.000000249   -0.000004714
     93        1           0.000001988   -0.000000583    0.000000016
     94        1           0.000001558    0.000002498    0.000000107
     95        1           0.000001709    0.000000401   -0.000001084
     96        6          -0.000078043    0.000035429    0.000062342
     97        1          -0.000004110    0.000002065    0.000007912
     98        1          -0.000005792    0.000002779    0.000004625
     99        1          -0.000007986    0.000007011    0.000004982
    100        6          -0.000013272   -0.000005866   -0.000033106
    101        1          -0.000001935    0.000001281   -0.000005920
    102        1           0.000000587   -0.000006321   -0.000004874
    103        1          -0.000002861    0.000001987   -0.000005208
 -------------------------------------------------------------------
 Cartesian Forces:  Max     0.021434769 RMS     0.002420368
 Z-matrix is all fixed cartesians, so copy forces.
 Leave Link  716 at Mon Oct  6 14:24:56 2025, MaxMem=   104857600 cpu:               0.0 elap:               0.0
 (Enter /home/zhouoh/g16/l123.exe)
 IRC-IRC-IRC-IRC-IRC-IRC-IRC-IRC-IRC-IRC-IRC-IRC-IRC-IRC-IRC-IRC-IRC-IRC
 Pt 18 Step number   1 out of a maximum of  20
 Point Number:   8          Path Number:   2
   CHANGE IN THE REACTION COORDINATE =    0.28885
   NET REACTION COORDINATE UP TO THIS POINT =    2.31061
  # OF POINTS ALONG THE PATH =  18
  # OF STEPS =   1

 Calculating another point on the path.
 Point Number  9 in REVERSE path direction.
 Using LQA Reaction Path Following.
   LQA: T_Est iteration completed in    4 iterations.
 IRC-IRC-IRC-IRC-IRC-IRC-IRC-IRC-IRC-IRC-IRC-IRC-IRC-IRC-IRC-IRC-IRC-IRC
 Leave Link  123 at Mon Oct  6 14:24:57 2025, MaxMem=   104857600 cpu:               0.1 elap:               0.1
 (Enter /home/zhouoh/g16/l202.exe)
 Symmetry turned off by external request.
 Stoichiometry    C43H54NO3PPd
 Framework group  C1[X(C43H54NO3PPd)]
 Deg. of freedom   303
 Full point group                 C1      NOp   1
                          Input orientation:                          
 ---------------------------------------------------------------------
 Center     Atomic      Atomic             Coordinates (Angstroms)
 Number     Number       Type             X           Y           Z
 ---------------------------------------------------------------------
      1         15           0       -0.697962    0.934899   -1.165761
      2          8           0       -2.007229    3.227255   -1.693117
      3          8           0       -3.960225   -1.980935   -0.098791
      4          8           0       -0.956565    0.629148    2.429054
      5          6           0       -1.118361    0.013177   -2.736922
      6          6           0       -2.303025    1.285217   -0.400778
      7          6           0       -0.658012    2.699318   -1.779790
      8          6           0       -2.220943    0.663586   -3.569001
      9          6           0       -1.565149   -1.389935   -2.328802
     10          6           0        0.183658   -0.078694   -3.539013
     11          6           0       -2.786939    2.512881   -0.841323
     12          6           0       -3.027189    0.542155    0.531737
     13          6           0       -2.431425   -0.700136    1.101877
     14          6           0       -4.021494    2.993848   -0.431001
     15          6           0       -4.271387    1.011613    0.939384
     16          6           0       -4.760024    2.219026    0.451688
     17          6           0       -2.873500   -1.970869    0.717495
     18          6           0       -1.355188   -0.607264    1.983911
     19          6           0       -2.192246   -3.111313    1.137765
     20          6           0       -0.669981   -1.738657    2.410531
     21          6           0       -1.086671   -2.981097    1.968162
     22          6           0       -4.434164   -3.217740   -0.643413
     23          6           0       -1.792260    1.171762    3.477982
     24          1           0       -0.401813    2.700436   -2.841223
     25          1           0       -2.426068    0.039914   -4.444535
     26          1           0       -1.945753    1.655474   -3.928728
     27          1           0       -3.147501    0.754107   -2.998418
     28          1           0       -1.653810   -2.020015   -3.220248
     29          1           0       -2.537354   -1.355216   -1.837210
     30          1           0       -0.847854   -1.850192   -1.645839
     31          1           0        0.960571   -0.587450   -2.964218
     32          1           0        0.006050   -0.643880   -4.458777
     33          1           0        0.562715    0.906582   -3.822482
     34          1           0       -4.381828    3.947645   -0.792509
     35          1           0       -4.853905    0.433609    1.645900
     36          1           0       -5.728688    2.572890    0.782106
     37          1           0       -2.508999   -4.095890    0.828755
     38          1           0        0.172896   -1.623564    3.078556
     39          1           0       -0.557281   -3.871009    2.285557
     40         46           0        0.945253    0.045322    0.036383
     41          1           0        4.865589    3.960318   -1.228037
     42          6           0        4.309451    3.110339   -0.856348
     43          6           0        3.613928    3.172727    0.341760
     44          1           0        3.591912    4.095135    0.910560
     45          6           0        2.944314    2.067736    0.853923
     46          1           0        2.423141    2.181787    1.793321
     47          6           0        2.978230    0.805899    0.206006
     48          6           0        3.585554    0.802212   -1.079611
     49          1           0        3.587036   -0.095873   -1.676050
     50          6           0        4.239357    1.923586   -1.575863
     51          1           0        4.721219    1.846441   -2.543302
     52          1           0        3.272410   -0.980241    4.425220
     53          6           0        3.205499   -1.350381    3.400092
     54          1           0        2.435265   -2.125279    3.375800
     55          1           0        4.790829   -2.833910    3.484179
     56          1           0        1.869038    0.248287    2.823565
     57          1           0        5.336179   -1.221840    3.052067
     58          6           0        4.522711   -1.941906    2.916343
     59          6           0        2.828544   -0.170987    2.515833
     60          6           0        4.316023   -2.299300    1.474339
     61          7           0        2.757316   -0.464928    1.054598
     62          6           0        3.455470   -1.664969    0.670521
     63          1           0        5.134701   -2.157874   -1.357982
     64          6           0        3.126363   -2.291254   -0.640276
     65          6           0        4.132871   -2.507697   -1.575471
     66          6           0        1.835101   -2.736568   -0.917781
     67          1           0        1.049141   -2.596709   -0.181578
     68          6           0        3.853898   -3.127415   -2.784650
     69          1           0        4.643674   -3.270878   -3.510971
     70          6           0        1.559921   -3.368869   -2.121932
     71          6           0        2.564274   -3.555867   -3.062293
     72          1           0        0.554821   -3.714929   -2.327813
     73          1           0        2.342482   -4.037744   -4.005922
     74          1           0        3.591169    0.599161    2.664135
     75          1           0        4.753018   -3.214890    1.094928
     76          1           0       -2.803108    0.774263    3.342729
     77          1           0       -3.571987   -3.822156   -0.944551
     78          6           0        0.323454    3.605073   -1.042903
     79          1           0        1.295013    3.104739   -1.123350
     80          6           0       -0.026361    3.747388    0.432958
     81          1           0       -0.994800    4.239465    0.553969
     82          1           0       -0.065706    2.775942    0.931389
     83          1           0        0.723961    4.358854    0.939368
     84          6           0        0.412097    4.969888   -1.720487
     85          1           0       -0.549883    5.484643   -1.680219
     86          1           0        1.153075    5.596122   -1.219951
     87          1           0        0.704354    4.875602   -2.768641
     88          6           0       -5.233498   -2.844784   -1.875436
     89          1           0       -5.639805   -3.740902   -2.345674
     90          1           0       -6.061550   -2.190916   -1.597842
     91          1           0       -4.607959   -2.322459   -2.598614
     92          6           0       -5.278856   -3.959285    0.378956
     93          1           0       -5.614167   -4.913693   -0.029626
     94          1           0       -4.726804   -4.152606    1.297762
     95          1           0       -6.157577   -3.362126    0.627799
     96          6           0       -1.247734    0.737811    4.826101
     97          1           0       -1.872101    1.124631    5.633322
     98          1           0       -1.224509   -0.349954    4.903410
     99          1           0       -0.233572    1.120753    4.958938
    100          6           0       -1.817925    2.672763    3.300339
    101          1           0       -0.805428    3.077804    3.354845
    102          1           0       -2.245863    2.932388    2.331819
    103          1           0       -2.418330    3.133525    4.086513
 ---------------------------------------------------------------------
 Rotational constants (GHZ):           0.0786294           0.0587317           0.0525274
 Leave Link  202 at Mon Oct  6 14:24:57 2025, MaxMem=   104857600 cpu:               0.0 elap:               0.0
 (Enter /home/zhouoh/g16/l301.exe)
 Standard basis: STO-3G (5D, 7F)
 Ernie: Thresh=  0.10000D-02 Tol=  0.10000D-05 Strict=F.
   325 basis functions,   981 primitive gaussians,   327 cartesian basis functions
   202 alpha electrons      202 beta electrons
       nuclear repulsion energy      9289.7705817579 Hartrees.



 Warning!  P  atom    1 may be hypervalent but has no d functions.



 IExCor=    0 DFT=F Ex=HF Corr=None ExCW=0 ScaHFX=  1.000000
 ScaDFX=  1.000000  1.000000  1.000000  1.000000 ScalE2=  1.000000  1.000000
 IRadAn=      5 IRanWt=     -1 IRanGd=            0 ICorTp=0 IEmpDi=  4
 NAtoms=  103 NActive=  103 NUniq=  103 SFac= 1.00D+00 NAtFMM=   60 NAOKFM=T Big=T
 Integral buffers will be    131072 words long.
 Raffenetti 1 integral format.
 Two-electron integral symmetry is turned off.
 Leave Link  301 at Mon Oct  6 14:24:57 2025, MaxMem=   104857600 cpu:               0.0 elap:               0.0
 (Enter /home/zhouoh/g16/l402.exe)
 External calculation of energy and first derivatives.
 Running external command "python ../GauUMA_client.py R"
         input file       "/home/zhouoh/scratch/Gau-2814882.EIn"
         output file      "/home/zhouoh/scratch/Gau-2814882.EOu"
         message file     "/home/zhouoh/scratch/Gau-2814882.EMs"
         fchk file        "/home/zhouoh/scratch/Gau-2814882.EFC"
         mat. el file     "/home/zhouoh/scratch/Gau-2814882.EUF"
Sent job to server.
Received result from server:
SCF Done:  E(UMA) =  -2420.6492396229005     A.U.
 Recovered energy= -2420.64923962     dipole=      0.000000000000      0.000000000000      0.000000000000
 Energy=    -2420.64924     NIter=   0.
 Dipole moment=       0.000000       0.000000       0.000000
 Leave Link  402 at Mon Oct  6 14:24:57 2025, MaxMem=   104857600 cpu:               0.0 elap:               0.1
 (Enter /home/zhouoh/g16/l716.exe)
 Dipole        = 0.00000000D+00 0.00000000D+00 0.00000000D+00
 -------------------------------------------------------------------
 Center     Atomic                   Forces (Hartrees/Bohr)
 Number     Number              X              Y              Z
 -------------------------------------------------------------------
      1       15           0.000214311   -0.001915269    0.001561394
      2        8           0.000004411   -0.000143598    0.000099393
      3        8          -0.000011866   -0.000020548    0.000056943
      4        8           0.000030865   -0.000158950    0.000311032
      5        6          -0.000231121    0.000039834   -0.000055447
      6        6          -0.000221450   -0.000209748   -0.000234195
      7        6          -0.000028787   -0.000433576    0.000238313
      8        6          -0.000148102    0.000043141   -0.000126377
      9        6          -0.000162983   -0.000015368   -0.000271702
     10        6          -0.000255238    0.000008219   -0.000089236
     11        6          -0.000119070   -0.000089157   -0.000042524
     12        6          -0.000147047    0.000033397   -0.000019635
     13        6          -0.000182622    0.000057014    0.000142169
     14        6          -0.000036516    0.000040935    0.000072321
     15        6          -0.000100475    0.000094867    0.000105693
     16        6          -0.000095822    0.000074278    0.000087916
     17        6          -0.000019637    0.000043711    0.000051766
     18        6          -0.000161217   -0.000008183    0.000078915
     19        6          -0.000002940   -0.000022565   -0.000050285
     20        6          -0.000321798   -0.000051761    0.000222418
     21        6          -0.000124402   -0.000077681    0.000079490
     22        6           0.000035458    0.000030961    0.000017029
     23        6          -0.000039611   -0.000005221    0.000026253
     24        1           0.000000928   -0.000043237    0.000019992
     25        1          -0.000016172    0.000011583   -0.000015451
     26        1          -0.000009234    0.000005681   -0.000002615
     27        1          -0.000013204    0.000006398   -0.000012325
     28        1           0.000003010   -0.000008353   -0.000018951
     29        1          -0.000021210   -0.000007084   -0.000035529
     30        1          -0.000021944    0.000020441    0.000000275
     31        1          -0.000024172    0.000009839    0.000004803
     32        1          -0.000013588   -0.000000374   -0.000008112
     33        1          -0.000021935    0.000001650   -0.000005323
     34        1           0.000000933    0.000006719    0.000009901
     35        1          -0.000006026    0.000012204    0.000014499
     36        1          -0.000006381    0.000009554    0.000008858
     37        1           0.000002023    0.000000773   -0.000013153
     38        1          -0.000063552   -0.000007207    0.000064573
     39        1          -0.000019824   -0.000007569    0.000018650
     40       46          -0.020653388    0.005435033   -0.012288159
     41        1          -0.000657857   -0.000078280   -0.000232063
     42        6          -0.004059685   -0.002088433   -0.000174421
     43        6          -0.003450107   -0.002320127    0.000010486
     44        1          -0.000676285   -0.000095223   -0.000239439
     45        6           0.004283445   -0.004549221    0.004298031
     46        1           0.000400894   -0.000330468    0.000376451
     47        6           0.015188159   -0.005562130    0.009728737
     48        6           0.004290470   -0.005080190    0.006386079
     49        1           0.000479621   -0.000453071    0.000591812
     50        6          -0.003710741   -0.003028685    0.001481633
     51        1          -0.000690585   -0.000186185   -0.000051712
     52        1          -0.000293869   -0.000056537   -0.000152359
     53        6          -0.001444271    0.001233791   -0.002767881
     54        1          -0.000120430    0.000134144   -0.000463552
     55        1          -0.000071438    0.000126724   -0.000045034
     56        1          -0.000088885   -0.000021890   -0.000368143
     57        1          -0.000085031    0.000116143   -0.000173053
     58        6          -0.000929681    0.001189084   -0.001193717
     59        6           0.001140724    0.003429183   -0.000229916
     60        6          -0.002516871    0.000168936   -0.000606665
     61        7           0.013100117    0.010333512   -0.002603665
     62        6           0.002767497    0.003793437   -0.002619002
     63        1           0.000033123   -0.000022808   -0.000098790
     64        6           0.000365363    0.001308918   -0.001154300
     65        6           0.000347167   -0.000326756   -0.000837285
     66        6           0.000277092    0.000909651    0.000046386
     67        1           0.000015138    0.000205339   -0.000023640
     68        6           0.000117652   -0.000725180   -0.000404490
     69        1          -0.000007158   -0.000099697   -0.000041359
     70        6           0.000130198    0.000084064    0.000356979
     71        6          -0.000166485   -0.000274179    0.000139139
     72        1          -0.000000614    0.000029950    0.000046546
     73        1          -0.000051270   -0.000023622    0.000021999
     74        1          -0.000166312    0.000293662    0.000557359
     75        1          -0.000760935   -0.000235110    0.000170047
     76        1          -0.000004093    0.000001877    0.000000326
     77        1           0.000002085    0.000002319   -0.000000468
     78        6          -0.000053984   -0.000220364    0.000065549
     79        1          -0.000014308   -0.000031374    0.000014190
     80        6           0.000092785   -0.000094118    0.000091159
     81        1           0.000004254   -0.000014112    0.000013921
     82        1           0.000015974   -0.000009318    0.000000047
     83        1           0.000001145    0.000003568    0.000001871
     84        6           0.000041927   -0.000222235    0.000022795
     85        1           0.000003851   -0.000016318   -0.000001339
     86        1           0.000000848   -0.000014211    0.000000157
     87        1           0.000002235   -0.000019352    0.000001525
     88        6           0.000023649    0.000022600    0.000014035
     89        1           0.000000058    0.000001680    0.000002563
     90        1           0.000003801    0.000003568    0.000001924
     91        1           0.000002615    0.000001216    0.000001602
     92        6           0.000018392   -0.000000981   -0.000004963
     93        1           0.000002195   -0.000000253   -0.000000054
     94        1           0.000001427    0.000001973    0.000000143
     95        1           0.000001128    0.000000560   -0.000001086
     96        6          -0.000085653    0.000041444    0.000073920
     97        1          -0.000005212    0.000002744    0.000007377
     98        1          -0.000005937    0.000003479    0.000005767
     99        1          -0.000008233    0.000006397    0.000005957
    100        6          -0.000015456   -0.000007429   -0.000035398
    101        1          -0.000001769    0.000000791   -0.000005139
    102        1           0.000000290   -0.000006423   -0.000005271
    103        1          -0.000002768    0.000002743   -0.000005890
 -------------------------------------------------------------------
 Cartesian Forces:  Max     0.020653388 RMS     0.002229600
 Z-matrix is all fixed cartesians, so copy forces.
 Leave Link  716 at Mon Oct  6 14:24:57 2025, MaxMem=   104857600 cpu:               0.0 elap:               0.0
 (Enter /home/zhouoh/g16/l123.exe)
 IRC-IRC-IRC-IRC-IRC-IRC-IRC-IRC-IRC-IRC-IRC-IRC-IRC-IRC-IRC-IRC-IRC-IRC
 Pt 19 Step number   1 out of a maximum of  20
 Point Number:   9          Path Number:   2
   CHANGE IN THE REACTION COORDINATE =    0.28883
   NET REACTION COORDINATE UP TO THIS POINT =    2.59943
  # OF POINTS ALONG THE PATH =  19
  # OF STEPS =   1

 Calculating another point on the path.
 Point Number 10 in REVERSE path direction.
 Using LQA Reaction Path Following.
   LQA: T_Est iteration completed in    4 iterations.
 IRC-IRC-IRC-IRC-IRC-IRC-IRC-IRC-IRC-IRC-IRC-IRC-IRC-IRC-IRC-IRC-IRC-IRC
 Leave Link  123 at Mon Oct  6 14:24:57 2025, MaxMem=   104857600 cpu:               0.1 elap:               0.1
 (Enter /home/zhouoh/g16/l202.exe)
 Symmetry turned off by external request.
 Stoichiometry    C43H54NO3PPd
 Framework group  C1[X(C43H54NO3PPd)]
 Deg. of freedom   303
 Full point group                 C1      NOp   1
                          Input orientation:                          
 ---------------------------------------------------------------------
 Center     Atomic      Atomic             Coordinates (Angstroms)
 Number     Number       Type             X           Y           Z
 ---------------------------------------------------------------------
      1         15           0       -0.697860    0.933820   -1.164886
      2          8           0       -2.007209    3.227085   -1.693005
      3          8           0       -3.960240   -1.980955   -0.098730
      4          8           0       -0.956534    0.628979    2.429398
      5          6           0       -1.118701    0.013232   -2.737001
      6          6           0       -2.303363    1.284903   -0.401105
      7          6           0       -0.658061    2.698667   -1.779429
      8          6           0       -2.221162    0.663658   -3.569177
      9          6           0       -1.565401   -1.389967   -2.329213
     10          6           0        0.183275   -0.078680   -3.539157
     11          6           0       -2.787116    2.512736   -0.841382
     12          6           0       -3.027419    0.542191    0.531719
     13          6           0       -2.431691   -0.700056    1.102085
     14          6           0       -4.021544    2.993908   -0.430895
     15          6           0       -4.271542    1.011754    0.939546
     16          6           0       -4.760163    2.219141    0.451824
     17          6           0       -2.873525   -1.970806    0.717574
     18          6           0       -1.355416   -0.607282    1.984031
     19          6           0       -2.192251   -3.111343    1.137685
     20          6           0       -0.670457   -1.738735    2.410865
     21          6           0       -1.086855   -2.981205    1.968286
     22          6           0       -4.434108   -3.217694   -0.643387
     23          6           0       -1.792318    1.171752    3.478029
     24          1           0       -0.401792    2.699652   -2.840855
     25          1           0       -2.426352    0.040119   -4.444825
     26          1           0       -1.945926    1.655592   -3.928770
     27          1           0       -3.147752    0.754224   -2.998639
     28          1           0       -1.653774   -2.020165   -3.220638
     29          1           0       -2.537742   -1.355345   -1.837864
     30          1           0       -0.848270   -1.849868   -1.645863
     31          1           0        0.960124   -0.587291   -2.964175
     32          1           0        0.005774   -0.643886   -4.458958
     33          1           0        0.562293    0.906630   -3.822604
     34          1           0       -4.381803    3.947774   -0.792324
     35          1           0       -4.854024    0.433837    1.646178
     36          1           0       -5.728796    2.573077    0.782277
     37          1           0       -2.508963   -4.095882    0.828510
     38          1           0        0.171772   -1.623696    3.079729
     39          1           0       -0.557633   -3.871156    2.285890
     40         46           0        0.941964    0.046234    0.034371
     41          1           0        4.853288    3.959375   -1.232764
     42          6           0        4.303247    3.107319   -0.856768
     43          6           0        3.609182    3.169783    0.341831
     44          1           0        3.580056    4.094437    0.906513
     45          6           0        2.950691    2.061695    0.860344
     46          1           0        2.430394    2.175567    1.799992
     47          6           0        2.999349    0.798469    0.219489
     48          6           0        3.592243    0.794904   -1.070674
     49          1           0        3.595709   -0.104288   -1.664998
     50          6           0        4.234422    1.919381   -1.573956
     51          1           0        4.709431    1.843235   -2.544779
     52          1           0        3.267124   -0.981400    4.422693
     53          6           0        3.203396   -1.348586    3.396311
     54          1           0        2.432785   -2.122876    3.367293
     55          1           0        4.789469   -2.831394    3.483354
     56          1           0        1.866657    0.248245    2.817008
     57          1           0        5.334511   -1.219604    3.048780
     58          6           0        4.521265   -1.940143    2.914558
     59          6           0        2.830239   -0.166343    2.515650
     60          6           0        4.312704   -2.299245    1.473487
     61          7           0        2.772496   -0.453208    1.051846
     62          6           0        3.459555   -1.659877    0.666936
     63          1           0        5.135359   -2.158338   -1.359825
     64          6           0        3.126933   -2.289227   -0.641962
     65          6           0        4.133393   -2.508144   -1.576739
     66          6           0        1.835543   -2.735096   -0.917744
     67          1           0        1.049518   -2.592925   -0.181951
     68          6           0        3.854051   -3.128529   -2.785265
     69          1           0        4.643541   -3.272832   -3.511721
     70          6           0        1.560116   -3.368700   -2.121379
     71          6           0        2.564001   -3.556308   -3.062078
     72          1           0        0.554829   -3.714397   -2.326880
     73          1           0        2.341502   -4.038287   -4.005486
     74          1           0        3.589200    0.605204    2.673986
     75          1           0        4.740543   -3.220445    1.097320
     76          1           0       -2.803178    0.774308    3.342748
     77          1           0       -3.571941   -3.822117   -0.944555
     78          6           0        0.323375    3.604740   -1.042797
     79          1           0        1.294812    3.104125   -1.123105
     80          6           0       -0.026215    3.747243    0.433100
     81          1           0       -0.994698    4.239191    0.554230
     82          1           0       -0.065410    2.775721    0.931401
     83          1           0        0.724014    4.358964    0.939427
     84          6           0        0.412157    4.969545   -1.720453
     85          1           0       -0.549804    5.484340   -1.680239
     86          1           0        1.153106    5.595873   -1.219938
     87          1           0        0.704387    4.875234   -2.768619
     88          6           0       -5.233460   -2.844750   -1.875414
     89          1           0       -5.639791   -3.740872   -2.345636
     90          1           0       -6.061486   -2.190857   -1.597802
     91          1           0       -4.607908   -2.322425   -2.598578
     92          6           0       -5.278824   -3.959287    0.378949
     93          1           0       -5.614124   -4.913705   -0.029629
     94          1           0       -4.726771   -4.152572    1.297765
     95          1           0       -6.157546   -3.362120    0.627780
     96          6           0       -1.247861    0.737876    4.826218
     97          1           0       -1.872203    1.124680    5.633469
     98          1           0       -1.224605   -0.349891    4.903520
     99          1           0       -0.233707    1.120882    4.959054
    100          6           0       -1.817947    2.672751    3.300286
    101          1           0       -0.805451    3.077814    3.354761
    102          1           0       -2.245852    2.932265    2.331724
    103          1           0       -2.418381    3.133585    4.086403
 ---------------------------------------------------------------------
 Rotational constants (GHZ):           0.0786631           0.0587282           0.0525328
 Leave Link  202 at Mon Oct  6 14:24:57 2025, MaxMem=   104857600 cpu:               0.0 elap:               0.0
 (Enter /home/zhouoh/g16/l301.exe)
 Standard basis: STO-3G (5D, 7F)
 Ernie: Thresh=  0.10000D-02 Tol=  0.10000D-05 Strict=F.
   325 basis functions,   981 primitive gaussians,   327 cartesian basis functions
   202 alpha electrons      202 beta electrons
       nuclear repulsion energy      9290.0939748068 Hartrees.



 Warning!  P  atom    1 may be hypervalent but has no d functions.



 IExCor=    0 DFT=F Ex=HF Corr=None ExCW=0 ScaHFX=  1.000000
 ScaDFX=  1.000000  1.000000  1.000000  1.000000 ScalE2=  1.000000  1.000000
 IRadAn=      5 IRanWt=     -1 IRanGd=            0 ICorTp=0 IEmpDi=  4
 NAtoms=  103 NActive=  103 NUniq=  103 SFac= 1.00D+00 NAtFMM=   60 NAOKFM=T Big=T
 Integral buffers will be    131072 words long.
 Raffenetti 1 integral format.
 Two-electron integral symmetry is turned off.
 Leave Link  301 at Mon Oct  6 14:24:57 2025, MaxMem=   104857600 cpu:               0.0 elap:               0.0
 (Enter /home/zhouoh/g16/l402.exe)
 External calculation of energy and first derivatives.
 Running external command "python ../GauUMA_client.py R"
         input file       "/home/zhouoh/scratch/Gau-2814882.EIn"
         output file      "/home/zhouoh/scratch/Gau-2814882.EOu"
         message file     "/home/zhouoh/scratch/Gau-2814882.EMs"
         fchk file        "/home/zhouoh/scratch/Gau-2814882.EFC"
         mat. el file     "/home/zhouoh/scratch/Gau-2814882.EUF"
Sent job to server.
Received result from server:
SCF Done:  E(UMA) =  -2420.6517205918567     A.U.
 Recovered energy= -2420.65172059     dipole=      0.000000000000      0.000000000000      0.000000000000
 Energy=    -2420.65172     NIter=   0.
 Dipole moment=       0.000000       0.000000       0.000000
 Leave Link  402 at Mon Oct  6 14:24:57 2025, MaxMem=   104857600 cpu:               0.0 elap:               0.1
 (Enter /home/zhouoh/g16/l716.exe)
 Dipole        = 0.00000000D+00 0.00000000D+00 0.00000000D+00
 -------------------------------------------------------------------
 Center     Atomic                   Forces (Hartrees/Bohr)
 Number     Number              X              Y              Z
 -------------------------------------------------------------------
      1       15           0.000084738   -0.001847007    0.001465514
      2        8           0.000020959   -0.000170093    0.000104976
      3        8          -0.000017077   -0.000012311    0.000055520
      4        8           0.000018093   -0.000150019    0.000310649
      5        6          -0.000232690    0.000027973   -0.000049213
      6        6          -0.000240383   -0.000220673   -0.000206882
      7        6          -0.000034270   -0.000453634    0.000258412
      8        6          -0.000152841    0.000054111   -0.000113506
      9        6          -0.000185778   -0.000029752   -0.000288939
     10        6          -0.000268823    0.000009760   -0.000105334
     11        6          -0.000120831   -0.000103207   -0.000044786
     12        6          -0.000170609    0.000017081   -0.000006065
     13        6          -0.000183254    0.000049905    0.000139926
     14        6          -0.000034641    0.000038100    0.000069872
     15        6          -0.000115346    0.000096951    0.000112500
     16        6          -0.000094934    0.000083186    0.000093076
     17        6          -0.000027371    0.000040219    0.000051995
     18        6          -0.000152339   -0.000008963    0.000080167
     19        6          -0.000004936   -0.000018516   -0.000054423
     20        6          -0.000323169   -0.000054567    0.000234841
     21        6          -0.000136638   -0.000076660    0.000087311
     22        6           0.000033716    0.000027488    0.000015772
     23        6          -0.000045856   -0.000005303    0.000041057
     24        1           0.000002869   -0.000045170    0.000021342
     25        1          -0.000014477    0.000011579   -0.000012886
     26        1          -0.000008760    0.000006102   -0.000002166
     27        1          -0.000014262    0.000006511   -0.000011915
     28        1           0.000001465   -0.000006521   -0.000021655
     29        1          -0.000023302   -0.000008616   -0.000036899
     30        1          -0.000023212    0.000013221   -0.000003916
     31        1          -0.000023409    0.000006743   -0.000000220
     32        1          -0.000017644    0.000000926   -0.000009940
     33        1          -0.000023034    0.000001875   -0.000006830
     34        1           0.000002198    0.000006938    0.000009835
     35        1          -0.000007226    0.000013287    0.000015453
     36        1          -0.000004594    0.000011299    0.000009769
     37        1           0.000002411    0.000001396   -0.000014039
     38        1          -0.000057143   -0.000006745    0.000059276
     39        1          -0.000019729   -0.000006347    0.000018355
     40       46          -0.019282980    0.005440659   -0.011956320
     41        1          -0.000727027   -0.000059254   -0.000270929
     42        6          -0.004332295   -0.001918474   -0.000430157
     43        6          -0.003113630   -0.001796388    0.000146580
     44        1          -0.000588135   -0.000048297   -0.000243891
     45        6           0.004488512   -0.003626378    0.004237854
     46        1           0.000371517   -0.000305192    0.000345583
     47        6           0.013918440   -0.003470870    0.007934744
     48        6           0.004828766   -0.004571829    0.005787534
     49        1           0.000478401   -0.000426489    0.000586701
     50        6          -0.003132715   -0.002880315    0.001153795
     51        1          -0.000587369   -0.000145393   -0.000057893
     52        1          -0.000269918   -0.000097386   -0.000107936
     53        6          -0.001465724    0.001167915   -0.002396479
     54        1          -0.000117266    0.000132767   -0.000437824
     55        1          -0.000061721    0.000138275   -0.000024195
     56        1          -0.000054065   -0.000004013   -0.000313158
     57        1          -0.000098496    0.000124272   -0.000171862
     58        6          -0.001013994    0.001188943   -0.001218704
     59        6           0.001067502    0.002925252    0.000000396
     60        6          -0.002035382   -0.000218633   -0.000626923
     61        7           0.011277043    0.007371243   -0.001044213
     62        6           0.002694189    0.003097016   -0.002146158
     63        1           0.000039736   -0.000036698   -0.000097778
     64        6           0.000434370    0.001433254   -0.001122140
     65        6           0.000348738   -0.000294637   -0.000884974
     66        6           0.000325083    0.001097886    0.000006148
     67        1           0.000024311    0.000199474   -0.000018988
     68        6           0.000083570   -0.000791904   -0.000424953
     69        1          -0.000009732   -0.000114025   -0.000038411
     70        6           0.000128926    0.000149720    0.000399306
     71        6          -0.000210522   -0.000333587    0.000154657
     72        1           0.000000001    0.000027352    0.000057138
     73        1          -0.000055981   -0.000039130    0.000028217
     74        1          -0.000133211    0.000221727    0.000461615
     75        1          -0.000629220   -0.000221551    0.000161547
     76        1          -0.000004143    0.000001679    0.000001609
     77        1           0.000001982    0.000002607   -0.000000579
     78        6          -0.000050859   -0.000239406    0.000079078
     79        1          -0.000013971   -0.000030694    0.000011642
     80        6           0.000103828   -0.000105374    0.000102715
     81        1           0.000004267   -0.000014714    0.000013678
     82        1           0.000016304   -0.000009177    0.000003503
     83        1           0.000000740    0.000003468    0.000002303
     84        6           0.000039266   -0.000248636    0.000022296
     85        1           0.000003560   -0.000017979   -0.000001241
     86        1           0.000001247   -0.000014748    0.000000158
     87        1           0.000001581   -0.000021470    0.000001252
     88        6           0.000025596    0.000023734    0.000014343
     89        1           0.000000296    0.000002180    0.000002424
     90        1           0.000003003    0.000003956    0.000002219
     91        1           0.000002179    0.000001025    0.000001626
     92        6           0.000018671   -0.000001171   -0.000004967
     93        1           0.000002386   -0.000000459   -0.000000379
     94        1           0.000001552    0.000001292    0.000000421
     95        1           0.000001965   -0.000000329   -0.000001326
     96        6          -0.000092602    0.000047539    0.000086044
     97        1          -0.000006785    0.000003756    0.000007532
     98        1          -0.000006307    0.000003938    0.000007456
     99        1          -0.000008611    0.000005545    0.000007006
    100        6          -0.000018518   -0.000008865   -0.000037141
    101        1          -0.000001831   -0.000000108   -0.000004429
    102        1           0.000000455   -0.000006911   -0.000004800
    103        1          -0.000002844    0.000003472   -0.000006377
 -------------------------------------------------------------------
 Cartesian Forces:  Max     0.019282980 RMS     0.002008485
 Z-matrix is all fixed cartesians, so copy forces.
 Leave Link  716 at Mon Oct  6 14:24:57 2025, MaxMem=   104857600 cpu:               0.0 elap:               0.0
 (Enter /home/zhouoh/g16/l123.exe)
 IRC-IRC-IRC-IRC-IRC-IRC-IRC-IRC-IRC-IRC-IRC-IRC-IRC-IRC-IRC-IRC-IRC-IRC
 Pt 20 Step number   1 out of a maximum of  20
 Point Number:  10          Path Number:   2
   CHANGE IN THE REACTION COORDINATE =    0.28878
   NET REACTION COORDINATE UP TO THIS POINT =    2.88822
  # OF POINTS ALONG THE PATH =  20
  # OF STEPS =   1

 Maximum number of steps reached.
 Calculation of REVERSE path complete.
 Reaction path calculation complete.
 
 Energies reported relative to the TS energy of       -2420.629589
 --------------------------------------------------------------------------
    Summary of reaction path following
 --------------------------------------------------------------------------
                        Energy    RxCoord
   1                   -0.02213  -2.88822
   2                   -0.01965  -2.59943
   3                   -0.01686  -2.31061
   4                   -0.01383  -2.02176
   5                   -0.01066  -1.73290
   6                   -0.00754  -1.44404
   7                   -0.00470  -1.15518
   8                   -0.00241  -0.86636
   9                   -0.00092  -0.57763
  10                   -0.00019  -0.28893
  11                    0.00000   0.00000
  12                   -0.00016   0.28893
  13                   -0.00059   0.57770
  14                   -0.00128   0.86653
  15                   -0.00218   1.15538
  16                   -0.00327   1.44423
  17                   -0.00449   1.73308
  18                   -0.00582   2.02194
  19                   -0.00722   2.31080
  20                   -0.00866   2.59966
  21                   -0.01013   2.88852
 --------------------------------------------------------------------------
 
 Total number of points:                   20
 Total number of gradient calculations:    21
 Total number of Hessian calculations:      1
 IRC-IRC-IRC-IRC-IRC-IRC-IRC-IRC-IRC-IRC-IRC-IRC-IRC-IRC-IRC-IRC-IRC-IRC
 Leave Link  123 at Mon Oct  6 14:24:57 2025, MaxMem=   104857600 cpu:               0.0 elap:               0.0
 (Enter /home/zhouoh/g16/l202.exe)
 Symmetry turned off by external request.
 Stoichiometry    C43H54NO3PPd
 Framework group  C1[X(C43H54NO3PPd)]
 Deg. of freedom   303
 Full point group                 C1      NOp   1
                          Input orientation:                          
 ---------------------------------------------------------------------
 Center     Atomic      Atomic             Coordinates (Angstroms)
 Number     Number       Type             X           Y           Z
 ---------------------------------------------------------------------
      1         15           0       -0.697860    0.933820   -1.164886
      2          8           0       -2.007209    3.227085   -1.693005
      3          8           0       -3.960240   -1.980955   -0.098730
      4          8           0       -0.956534    0.628979    2.429398
      5          6           0       -1.118701    0.013232   -2.737001
      6          6           0       -2.303363    1.284903   -0.401105
      7          6           0       -0.658061    2.698667   -1.779429
      8          6           0       -2.221162    0.663658   -3.569177
      9          6           0       -1.565401   -1.389967   -2.329213
     10          6           0        0.183275   -0.078680   -3.539157
     11          6           0       -2.787116    2.512736   -0.841382
     12          6           0       -3.027419    0.542191    0.531719
     13          6           0       -2.431691   -0.700056    1.102085
     14          6           0       -4.021544    2.993908   -0.430895
     15          6           0       -4.271542    1.011754    0.939546
     16          6           0       -4.760163    2.219141    0.451824
     17          6           0       -2.873525   -1.970806    0.717574
     18          6           0       -1.355416   -0.607282    1.984031
     19          6           0       -2.192251   -3.111343    1.137685
     20          6           0       -0.670457   -1.738735    2.410865
     21          6           0       -1.086855   -2.981205    1.968286
     22          6           0       -4.434108   -3.217694   -0.643387
     23          6           0       -1.792318    1.171752    3.478029
     24          1           0       -0.401792    2.699652   -2.840855
     25          1           0       -2.426352    0.040119   -4.444825
     26          1           0       -1.945926    1.655592   -3.928770
     27          1           0       -3.147752    0.754224   -2.998639
     28          1           0       -1.653774   -2.020165   -3.220638
     29          1           0       -2.537742   -1.355345   -1.837864
     30          1           0       -0.848270   -1.849868   -1.645863
     31          1           0        0.960124   -0.587291   -2.964175
     32          1           0        0.005774   -0.643886   -4.458958
     33          1           0        0.562293    0.906630   -3.822604
     34          1           0       -4.381803    3.947774   -0.792324
     35          1           0       -4.854024    0.433837    1.646178
     36          1           0       -5.728796    2.573077    0.782277
     37          1           0       -2.508963   -4.095882    0.828510
     38          1           0        0.171772   -1.623696    3.079729
     39          1           0       -0.557633   -3.871156    2.285890
     40         46           0        0.941964    0.046234    0.034371
     41          1           0        4.853288    3.959375   -1.232764
     42          6           0        4.303247    3.107319   -0.856768
     43          6           0        3.609182    3.169783    0.341831
     44          1           0        3.580056    4.094437    0.906513
     45          6           0        2.950691    2.061695    0.860344
     46          1           0        2.430394    2.175567    1.799992
     47          6           0        2.999349    0.798469    0.219489
     48          6           0        3.592243    0.794904   -1.070674
     49          1           0        3.595709   -0.104288   -1.664998
     50          6           0        4.234422    1.919381   -1.573956
     51          1           0        4.709431    1.843235   -2.544779
     52          1           0        3.267124   -0.981400    4.422693
     53          6           0        3.203396   -1.348586    3.396311
     54          1           0        2.432785   -2.122876    3.367293
     55          1           0        4.789469   -2.831394    3.483354
     56          1           0        1.866657    0.248245    2.817008
     57          1           0        5.334511   -1.219604    3.048780
     58          6           0        4.521265   -1.940143    2.914558
     59          6           0        2.830239   -0.166343    2.515650
     60          6           0        4.312704   -2.299245    1.473487
     61          7           0        2.772496   -0.453208    1.051846
     62          6           0        3.459555   -1.659877    0.666936
     63          1           0        5.135359   -2.158338   -1.359825
     64          6           0        3.126933   -2.289227   -0.641962
     65          6           0        4.133393   -2.508144   -1.576739
     66          6           0        1.835543   -2.735096   -0.917744
     67          1           0        1.049518   -2.592925   -0.181951
     68          6           0        3.854051   -3.128529   -2.785265
     69          1           0        4.643541   -3.272832   -3.511721
     70          6           0        1.560116   -3.368700   -2.121379
     71          6           0        2.564001   -3.556308   -3.062078
     72          1           0        0.554829   -3.714397   -2.326880
     73          1           0        2.341502   -4.038287   -4.005486
     74          1           0        3.589200    0.605204    2.673986
     75          1           0        4.740543   -3.220445    1.097320
     76          1           0       -2.803178    0.774308    3.342748
     77          1           0       -3.571941   -3.822117   -0.944555
     78          6           0        0.323375    3.604740   -1.042797
     79          1           0        1.294812    3.104125   -1.123105
     80          6           0       -0.026215    3.747243    0.433100
     81          1           0       -0.994698    4.239191    0.554230
     82          1           0       -0.065410    2.775721    0.931401
     83          1           0        0.724014    4.358964    0.939427
     84          6           0        0.412157    4.969545   -1.720453
     85          1           0       -0.549804    5.484340   -1.680239
     86          1           0        1.153106    5.595873   -1.219938
     87          1           0        0.704387    4.875234   -2.768619
     88          6           0       -5.233460   -2.844750   -1.875414
     89          1           0       -5.639791   -3.740872   -2.345636
     90          1           0       -6.061486   -2.190857   -1.597802
     91          1           0       -4.607908   -2.322425   -2.598578
     92          6           0       -5.278824   -3.959287    0.378949
     93          1           0       -5.614124   -4.913705   -0.029629
     94          1           0       -4.726771   -4.152572    1.297765
     95          1           0       -6.157546   -3.362120    0.627780
     96          6           0       -1.247861    0.737876    4.826218
     97          1           0       -1.872203    1.124680    5.633469
     98          1           0       -1.224605   -0.349891    4.903520
     99          1           0       -0.233707    1.120882    4.959054
    100          6           0       -1.817947    2.672751    3.300286
    101          1           0       -0.805451    3.077814    3.354761
    102          1           0       -2.245852    2.932265    2.331724
    103          1           0       -2.418381    3.133585    4.086403
 ---------------------------------------------------------------------
 Rotational constants (GHZ):           0.0786631           0.0587282           0.0525328
 Leave Link  202 at Mon Oct  6 14:24:57 2025, MaxMem=   104857600 cpu:               0.0 elap:               0.0
 (Enter /home/zhouoh/g16/l601.exe)
 Hyperfine terms turned off by default for NAtoms > 100.
 Leave Link  601 at Mon Oct  6 14:24:57 2025, MaxMem=   104857600 cpu:               0.0 elap:               0.0
 (Enter /home/zhouoh/g16/l9999.exe)

 This type of calculation cannot be archived.


 CHINESE FORTUNE COOKIE OF JAN 1 1967 SAY....
 ALL THINGS ARE DIFFICULT BEFORE THEY ARE EASY.
 WE LEARN SO LITTLE AND FORGET SO MUCH.
 YOU WILL OVERCOME OBSTACLES TO ACHIEVE SUCCESS.
 AH SO.
 Job cpu time:       0 days  0 hours  0 minutes  3.7 seconds.
 Elapsed time:       0 days  0 hours  0 minutes 22.4 seconds.
 File lengths (MBytes):  RWF=     32 Int=      0 D2E=      0 Chk=     26 Scr=      1
 Normal termination of Gaussian 16 at Mon Oct  6 14:24:57 2025.
