%nproc=1
#P opt=(nomicro)  external='python ../GauUMA_client.py'

t 

0 1
P                  1.32242366    1.50787567    0.74995307
O                  2.78177566    3.73559167    0.28834107
O                  4.05917017   -1.48600229    1.64674044
O                  2.29832463   -0.73980731   -2.70395439
C                  1.58136666    1.32546267    2.63393507
C                  2.98763166    1.39018267   -0.01752193
C                  1.40387666    3.35999767    0.46490407
C                  2.76126166    2.16624367    3.15243207
C                  1.83381866   -0.16097933    2.94674407
C                  0.26980066    1.77172567    3.31109507
C                  3.54171066    2.67987767   -0.11895793
C                  3.72807466    0.28263067   -0.47042593
C                  3.17623266   -1.10732033   -0.49928493
C                  4.83159266    2.89549267   -0.60289593
C                  5.02728766    0.50108067   -0.95469193
C                  5.57061366    1.78706467   -1.01037093
C                  3.38126775   -2.00119988    0.57625495
C                  2.50373882   -1.58763325   -1.63372149
C                  2.90047328   -3.31349572    0.52066650
C                  2.01715285   -2.89814168   -1.69747921
C                  2.21657515   -3.74980427   -0.61717293
C                  5.47441053   -1.59477971    1.66881515
C                  3.34378337   -0.74990985   -3.67680312
H                  0.99873066    3.94170767    1.29477207
H                  2.85493966    2.02353567    4.23726107
H                  2.62553166    3.23721467    2.97121607
H                  3.70733066    1.86180567    2.69386907
H                  1.89309666   -0.29467833    4.03542507
H                  2.77696966   -0.50864533    2.51563907
H                  1.02036766   -0.79570033    2.57908407
H                 -0.57632334    1.15228867    2.99736407
H                  0.37425666    1.67253367    4.39942607
H                  0.02452966    2.81907267    3.10019507
H                  5.22553466    3.90482667   -0.66040593
H                  5.61057366   -0.34874333   -1.29548493
H                  6.57773666    1.92766267   -1.39371793
H                  3.04652857   -3.99359913    1.35120781
H                  1.48211295   -3.22145553   -2.58410936
H                  1.83667076   -4.76700351   -0.65199913
Pd                -0.57244323    0.33446891   -0.14032557
H                 -3.41675243    5.43032725   -1.03473335
C                 -2.88911583    4.49594407   -0.86149479
C                 -2.06950861    3.95479797   -1.85354462
H                 -1.95558832    4.46598243   -2.80722446
C                 -1.39000807    2.75072270   -1.63134292
H                 -0.76089047    2.34261472   -2.41883397
C                 -1.52279570    2.07351192   -0.40969447
C                 -2.35153077    2.61773461    0.58131707
H                 -2.48738771    2.10320882    1.52776037
C                 -3.02909012    3.82155814    0.35285045
H                 -3.67206195    4.22799569    1.13083934
H                 -3.48397582   -1.37386042   -4.15827632
C                 -3.34925694   -1.70528917   -3.12063550
H                 -2.72104903   -2.60579780   -3.14234439
H                 -4.99030070   -3.06855181   -2.68522117
H                 -1.32202290   -1.39276653   -2.95357095
H                 -5.48661017   -1.39744104   -2.88467123
C                 -4.69398900   -2.03466600   -2.45831400
C                 -2.29096943   -1.32258954   -2.44800610
C                 -4.57499500   -1.84542900   -0.96913400
N                 -2.46731012   -0.83893784   -1.03060420
C                 -3.42105100   -1.44183500   -0.36813300
H                 -5.34777802   -2.17777331    1.39309783
C                 -3.34981200   -1.43306000    1.12429100
C                 -4.43488091   -1.87407323    1.89736338
C                 -2.17834984   -1.03146914    1.79028724
H                 -1.32266932   -0.71067246    1.20344604
C                 -4.35598894   -1.91214766    3.29153683
H                 -5.21156086   -2.25218295    3.87008819
C                 -2.09637519   -1.07556982    3.18261224
C                 -3.18669495   -1.51252864    3.94078147
H                 -1.17463909   -0.77822841    3.67736879
H                 -3.12295851   -1.54423253    5.02551332
H                 -2.60563866   -0.26722007   -2.49539031
H                 -5.40392600   -2.15630400   -0.33975900
H                  4.28572253   -0.38725253   -3.24570877
H                  5.79867720   -2.64325267    1.69008799
C                  0.61800319    3.70729508   -0.81313638
H                 -0.06720711    2.91640850   -1.03648646
C                  1.59904198    3.88336446   -1.98708803
H                  2.50662635    4.32382853   -1.63046215
H                  1.81215950    2.92838603   -2.42009741
H                  1.15997062    4.52021271   -2.72637190
C                 -0.16271818    5.01680833   -0.59576757
H                  0.15107380    5.47120080    0.32072688
H                  0.02853298    5.68527674   -1.40907746
H                 -1.21021038    4.80380364   -0.54792322
C                  5.92760588   -0.89525092    2.96375663
H                  6.98496944   -0.73458253    2.93107698
H                  5.42650814    0.04575006    3.05496080
H                  5.68622239   -1.51088430    3.80496383
C                  6.11267635   -0.89022261    0.45728056
H                  7.00823536   -0.39223889    0.76531675
H                  6.34796086   -1.61516822   -0.29371549
H                  5.42530302   -0.17373097    0.05846026
C                  3.55885616   -2.16238016   -4.25149549
H                  4.05356346   -2.09098958   -5.19757586
H                  4.16077084   -2.73422513   -3.57651990
H                  2.61166774   -2.64331709   -4.37968980
C                  2.89628063    0.19921057   -4.80397289
H                  1.92637780   -0.09085816   -5.15045323
H                  2.85697231    1.20156903   -4.43163919
H                  3.59456473    0.14637437   -5.61298937



