%nproc=1
#P opt=(nomicro,modredundant,loose)  external='python ../GauUMA_client.py'

t 

0 1
 P                 -0.64544500    1.33518300   -0.70573300
 O                 -1.84609200    3.71152100   -0.24201800
 O                 -4.47400700   -1.40155200   -0.51495400
 O                 -0.55266700   -0.54281500    1.93150200
 C                 -1.17924800    0.73965800   -2.40060600
 C                 -2.17621100    1.43253300    0.26014300
 C                 -0.65746400    3.20136800   -0.88351600
 C                 -2.63893600    1.09562000   -2.68441400
 C                 -0.98997700   -0.77919100   -2.43353700
 C                 -0.27955500    1.37510700   -3.46943000
 C                 -2.58319300    2.75868300    0.37373600
 C                 -2.94217100    0.42737600    0.85264900
 C                 -2.56382800   -1.00783700    0.75899300
 C                 -3.71895800    3.11907600    1.08493700
 C                 -4.08923900    0.78061400    1.55514400
 C                 -4.46459300    2.11338400    1.67473500
 C                 -3.38329500   -1.93123400    0.09368600
 C                 -1.38856500   -1.46792700    1.33868500
 C                 -3.02394300   -3.27515600    0.04456600
 C                 -1.02209300   -2.80415400    1.30945100
 C                 -1.84971800   -3.69831800    0.65484600
 C                 -5.36923900   -2.24850500   -1.24826500
 C                 -0.91744400   -0.20054200    3.30236800
 H                 -0.76304100    3.43361800   -1.94401300
 H                 -2.87670900    0.81371200   -3.71445500
 H                 -2.82496900    2.16809200   -2.58299600
 H                 -3.32243900    0.56730800   -2.01820800
 H                 -1.30772700   -1.15906400   -3.40915400
 H                 -1.57886100   -1.28436900   -1.66641400
 H                  0.05445900   -1.05321800   -2.28367300
 H                  0.77706800    1.33748800   -3.20510500
 H                 -0.40839700    0.82458000   -4.40494000
 H                 -0.55093300    2.41247300   -3.66846900
 H                 -3.99912900    4.16093200    1.16003200
 H                 -4.69090200    0.00281000    2.00752700
 H                 -5.35544100    2.36946800    2.23401400
 H                 -3.64279300   -3.99728900   -0.46596300
 H                 -0.09663300   -3.10990900    1.77799000
 H                 -1.57914600   -4.74535400    0.60968100
 Pd                 1.07466100    0.20154400    0.35474100
 H                  5.42014500    2.26449500   -2.99321600
 C                  4.60838900    1.88327000   -2.38679200
 C                  4.37498700    2.40061800   -1.12029000
 H                  5.00823700    3.18797500   -0.72867800
 C                  3.33281100    1.90934800   -0.34382600
 H                  3.17254000    2.32901700    0.64229900
 C                  2.50178900    0.89407500   -0.81702100
 C                  2.75755000    0.36909600   -2.08029600
 H                  2.16478100   -0.45206000   -2.46592200
 C                  3.79802500    0.86252200   -2.85949400
 H                  3.97876200    0.43130400   -3.83730600
 H                  4.06459400   -0.43443900    4.34693200
 C                  3.79942000   -0.99813500    3.44902800
 H                  3.17293800   -1.84214200    3.75344500
 H                  5.50037000   -2.32862200    3.27683500
 H                  2.17143600    0.35440500    3.00646200
 H                  5.79017500   -0.70871800    2.68043300
 C                  5.03818800   -1.50619100    2.72296000
 C                  3.00771200   -0.11830000    2.48758400
 C                  4.65430400   -1.96743600    1.34589000
 N                  2.49569500   -0.87049700    1.35452700
 C                  3.46381000   -1.67327400    0.77489400
 H                  5.08629800   -2.10590200   -1.34434500
 C                  3.12459400   -2.32686700   -0.51891600
 C                  4.08971300   -2.49367400   -1.51154700
 C                  1.83439200   -2.78060100   -0.77469500
 H                  1.07507800   -2.65040700   -0.01842900
 C                  3.77377400   -3.09628000   -2.71873600
 H                  4.53625500   -3.20144800   -3.48089100
 C                  1.51419800   -3.38969300   -1.98022000
 C                  2.48189800   -3.54657100   -2.96216000
 H                  0.50180600   -3.73818000   -2.15135100
 H                  2.23418100   -4.01364600   -3.90717500
 H                  3.67641700    0.69333500    2.15123400
 H                  5.30719600   -2.66658300    0.84036100
 H                 -1.99815800   -0.35339200    3.37809300
 H                 -4.77928500   -2.95686200   -1.83819600
 C                  0.56444900    3.93964300   -0.35055300
 H                  1.42641600    3.49161900   -0.85285500
 C                  0.72825100    3.77085700    1.15463300
 H                 -0.13869500    4.17135200    1.68522600
 H                  0.84858100    2.72024000    1.42744800
 H                  1.61187400    4.30989700    1.50058600
 C                  0.49194300    5.41710000   -0.73088100
 H                 -0.36863100    5.89658600   -0.26145100
 H                  1.39188100    5.93789900   -0.40079300
 H                  0.40670300    5.54550500   -1.81188900
 C                 -6.12059900   -1.32849300   -2.18758000
 H                 -6.83193200   -1.89981300   -2.78450700
 H                 -6.66854100   -0.57760400   -1.61645300
 H                 -5.43076600   -0.81786600   -2.85886600
 C                 -6.29713200   -2.98453500   -0.29795100
 H                 -6.96054000   -3.64651100   -0.85601400
 H                 -5.74428300   -3.58324500    0.42518700
 H                 -6.90794100   -2.26407700    0.24842300
 C                 -0.19554100   -1.12767400    4.25904000
 H                 -0.46295400   -0.88049100    5.28778100
 H                 -0.47155300   -2.16634000    4.07620400
 H                  0.88362700   -1.02984300    4.14133400
 C                 -0.61124200    1.26267700    3.52128300
 H                  0.45205700    1.46306300    3.38830900
 H                 -1.17646200    1.88270800    2.82533400
 H                 -0.88556800    1.54278500    4.53939500

c



