%nproc=1
#P irc=(lqa,calcfc)  external='python ../GauUMA_client.py'

t 

0 1
 P                 -0.66442700    0.94339900   -1.17425600
 O                 -1.97174200    3.22782100   -1.69564600
 O                 -3.92484300   -1.98072300   -0.10086800
 O                 -0.92164200    0.63038000    2.42491200
 C                 -1.08037600    0.01237300   -2.73815200
 C                 -2.26572000    1.28709500   -0.39974300
 C                 -0.62223800    2.70414100   -1.78372400
 C                 -2.18418500    0.66327900   -3.56923100
 C                 -1.52835500   -1.38994400   -2.32789800
 C                  0.22145400   -0.07887400   -3.54045200
 C                 -2.75034000    2.51351800   -0.84272200
 C                 -2.99082100    0.54157100    0.53019500
 C                 -2.39417200   -0.70075600    1.09797100
 C                 -3.98576400    2.99329800   -0.43348600
 C                 -4.23521000    1.01056500    0.93656400
 C                 -4.72371500    2.21836500    0.44901000
 C                 -2.83812600   -1.97124800    0.71494000
 C                 -1.31775000   -0.60704700    1.98094000
 C                 -2.15697400   -3.11103400    1.13653500
 C                 -0.63122300   -1.73812500    2.40641200
 C                 -1.05033200   -2.98055100    1.96525600
 C                 -4.39926900   -3.21824300   -0.64543000
 C                 -1.75679800    1.17184700    3.47629200
 H                 -0.36621800    2.70427400   -2.84496100
 H                 -2.38763700    0.03798700   -4.44357600
 H                 -1.90950800    1.65467400   -3.93033800
 H                 -3.11095000    0.75297600   -2.99905800
 H                 -1.61883700   -2.01836700   -3.21985000
 H                 -2.49977300   -1.35443200   -1.83493500
 H                 -0.81022900   -1.85544500   -1.64923800
 H                  0.99940200   -0.58969000   -2.96875700
 H                  0.04225500   -0.64358000   -4.45977200
 H                  0.60030000    0.90624000   -3.82435400
 H                 -4.34617900    3.94679400   -0.79541900
 H                 -4.81785100    0.43217700    1.64243700
 H                 -5.69241100    2.57200100    0.77934400
 H                 -2.47416700   -4.09575700    0.82851400
 H                  0.21534300   -1.62330500    3.06946900
 H                 -0.51960900   -3.86989300    2.28141900
 Pd                 1.00591300    0.03740300    0.04999500
 H                  4.95414400    3.96663100   -1.21131000
 C                  4.37722900    3.12345000   -0.85564700
 C                  3.68527800    3.19458100    0.34527800
 H                  3.71085700    4.10499300    0.93326800
 C                  2.94334300    2.11851600    0.80990800
 H                  2.39228200    2.21793400    1.73454600
 C                  2.86505500    0.94385800    0.05459100
 C                  3.58620300    0.85559100   -1.14168700
 H                  3.54975800   -0.04281700   -1.73900300
 C                  4.31568800    1.94610400   -1.59101000
 H                  4.84169100    1.86825800   -2.53531300
 H                  3.34163800   -0.97871300    4.44466500
 C                  3.25190700   -1.35605200    3.42404400
 H                  2.48110000   -2.13195400    3.41934200
 H                  4.82854800   -2.84399800    3.48759500
 H                  1.91880900    0.25142800    2.85500200
 H                  5.37709500   -1.23172600    3.06750600
 C                  4.56239600   -1.94942700    2.92105900
 C                  2.84976600   -0.20631700    2.51319200
 C                  4.37792000   -2.30048100    1.47313700
 N                  2.66980900   -0.62258200    1.11903400
 C                  3.46051400   -1.69976300    0.69697800
 H                  5.16575500   -2.15572700   -1.34945600
 C                  3.15739600   -2.29929000   -0.63226900
 C                  4.16437500   -2.50402300   -1.57104200
 C                  1.86765700   -2.74243600   -0.92085500
 H                  1.08436100   -2.62282900   -0.17859000
 C                  3.88796900   -3.12204000   -2.78290200
 H                  4.67962200   -3.26269600   -3.50795400
 C                  1.59365700   -3.37006200   -2.12718000
 C                  2.60030400   -3.55432600   -3.06547000
 H                  0.59010800   -3.72050800   -2.33455300
 H                  2.38251600   -4.03700300   -4.00970300
 H                  3.63527000    0.55685400    2.57619400
 H                  4.88059100   -3.17074600    1.07152500
 H                 -2.76758200    0.77402300    3.34086500
 H                 -3.53688200   -3.82241200   -0.94623400
 C                  0.35944000    3.60742200   -1.04531100
 H                  1.33199800    3.10995900   -1.12733600
 C                  0.00810500    3.74810300    0.43023000
 H                 -0.95995300    4.24097500    0.55049300
 H                 -0.03263600    2.77772500    0.93039700
 H                  0.75890000    4.35775200    0.93713600
 C                  0.44692200    4.97204400   -1.72256100
 H                 -0.51499200    5.48673800   -1.68179800
 H                  1.18835700    5.59710300   -1.22184600
 H                  0.73952500    4.87777300   -2.77050600
 C                 -5.19839900   -2.84502100   -1.87737800
 H                 -5.60411900   -3.74110100   -2.34803500
 H                 -6.02695400   -2.19177400   -1.59987800
 H                 -4.57310100   -2.32237900   -2.60060300
 C                 -5.24376000   -3.95931400    0.37717700
 H                 -5.57912300   -4.91361800   -0.03144400
 H                 -4.69184100   -4.15311800    1.29594800
 H                 -6.12249500   -3.36224300    0.62610700
 C                 -1.21159800    0.73743600    4.82363200
 H                 -1.83656000    1.12412600    5.63041400
 H                 -1.18806600   -0.35024700    4.90108500
 H                 -0.19749600    1.11987000    4.95644300
 C                 -1.78247500    2.67279700    3.29882300
 H                 -0.76998600    3.07754700    3.35394600
 H                 -2.21064000    2.93326100    2.33054800
 H                 -2.38272600    3.13323500    4.08519000



