%nproc=1
#P opt=(nomicro,calcfc,ts,noeigen)  external='python ../GauUMA_client.py'

t 

0 1
 P                 -0.65194100    1.36862700   -0.62068600
 O                 -1.79314400    3.73167200    0.04687200
 O                 -4.58949100   -1.12088600   -0.54035400
 O                 -0.54651800   -0.89847300    1.86842300
 C                 -1.17284800    0.87872800   -2.34524700
 C                 -2.16065300    1.42687300    0.38979400
 C                 -0.66476800    3.24274900   -0.70665300
 C                 -2.58494400    1.35604600   -2.67538000
 C                 -1.08676700   -0.64665200   -2.44393200
 C                 -0.14895700    1.47348600   -3.32088000
 C                 -2.52190400    2.75173500    0.63074900
 C                 -2.91689000    0.40388600    0.96371800
 C                 -2.63637300   -1.03892600    0.72687200
 C                 -3.59742800    3.08918700    1.43833000
 C                 -4.00503700    0.73616400    1.76634200
 C                 -4.33371000    2.06353700    2.00569900
 C                 -3.55098100   -1.81218100   -0.00600600
 C                 -1.50079600   -1.66142800    1.23144000
 C                 -3.33374400   -3.17356000   -0.19166000
 C                 -1.27812400   -3.02213700    1.06075200
 C                 -2.19991800   -3.76607500    0.34905600
 C                 -5.58748700   -1.80324800   -1.30990300
 C                 -0.81774700   -0.59176600    3.26043200
 H                 -0.84740500    3.52600400   -1.74500000
 H                 -2.81776100    1.10858400   -3.71540700
 H                 -2.69061300    2.43778000   -2.56075000
 H                 -3.32578800    0.87465900   -2.03415700
 H                 -1.36470700   -0.95749000   -3.45559000
 H                 -1.75472900   -1.14632300   -1.74129700
 H                 -0.06893300   -0.98962300   -2.24761700
 H                  0.87519700    1.23838200   -3.02190100
 H                 -0.31524800    1.04291000   -4.31200900
 H                 -0.24079700    2.55598700   -3.41921000
 H                 -3.83909100    4.13014600    1.60482300
 H                 -4.60112900   -0.05819500    2.19756100
 H                 -5.17920800    2.30046800    2.63903100
 H                 -4.03080600   -3.77771000   -0.75204600
 H                 -0.38591100   -3.47142200    1.47415900
 H                 -2.03688400   -4.82646100    0.20441800
 Pd                 1.15176400    0.25965700    0.26038000
 H                  5.14123400    2.48220500   -3.35879400
 C                  4.50615300    2.00675400   -2.62364700
 C                  4.27173900    2.59951300   -1.39058700
 H                  4.71677200    3.56069200   -1.15799500
 C                  3.46492600    1.99446200   -0.43941800
 H                  3.30217100    2.50936200    0.49711700
 C                  2.85899400    0.74818500   -0.68376300
 C                  3.07962200    0.17055300   -1.95160200
 H                  2.60079000   -0.76062700   -2.21722500
 C                  3.88756800    0.79231000   -2.89023300
 H                  4.02178000    0.31487600   -3.85449900
 H                  4.27671900    0.11166000    3.95409600
 C                  3.90659900   -0.51192000    3.13764400
 H                  2.97430900   -0.97930200    3.46867200
 H                  4.99109500   -2.34676900    3.53307000
 H                  2.97636100    1.18868800    2.19045400
 H                  5.90921300   -1.14367100    2.64980800
 C                  4.91204500   -1.58735800    2.75120500
 C                  3.63026700    0.35833700    1.92057500
 C                  4.46031400   -2.22211900    1.46893100
 N                  3.01300800   -0.39046600    0.82704600
 C                  3.54464300   -1.66848700    0.64942300
 H                  4.97905500   -2.84934600   -1.30501700
 C                  3.03800300   -2.48700100   -0.48457500
 C                  3.91942600   -3.04692600   -1.40516700
 C                  1.67590800   -2.72295500   -0.63220100
 H                  0.98590000   -2.30446300    0.08850500
 C                  3.44445100   -3.81250400   -2.46007600
 H                  4.14050300   -4.22978600   -3.17689000
 C                  1.19691300   -3.48830600   -1.68504600
 C                  2.08089200   -4.03054500   -2.60804400
 H                  0.13067300   -3.65794300   -1.78025100
 H                  1.71069600   -4.62137200   -3.43632800
 H                  4.58064700    0.79264700    1.57771200
 H                  4.79472000   -3.22436100    1.23420700
 H                 -1.90107600   -0.47812400    3.36541600
 H                 -5.09270400   -2.51342900   -1.97993100
 C                  0.60436800    3.94021600   -0.23205600
 H                  1.42542900    3.47430200   -0.78584400
 C                  0.84417500    3.74223500    1.26007100
 H                  0.02129600    4.16237300    1.84260800
 H                  0.94274500    2.68255200    1.50860000
 H                  1.76271400    4.24738400    1.56510100
 C                  0.55523800    5.42567400   -0.58381400
 H                 -0.26993200    5.91892100   -0.06674100
 H                  1.48263400    5.91860400   -0.28779800
 H                  0.42320600    5.57527300   -1.65739500
 C                 -6.26349800   -0.73136900   -2.13911300
 H                 -7.04907200   -1.17104200   -2.75426100
 H                 -6.71063700    0.01940800   -1.48590800
 H                 -5.54308900   -0.23824300   -2.79103200
 C                 -6.56184000   -2.52150600   -0.39277000
 H                 -7.30689300   -3.05943200   -0.98046000
 H                 -6.05540900   -3.23570600    0.25572300
 H                 -7.07714600   -1.79305000    0.23537000
 C                 -0.32395600   -1.72881600    4.13284300
 H                 -0.51655300   -1.50825100    5.18397000
 H                 -0.82899500   -2.66225300    3.88316400
 H                  0.75054600   -1.86453900    3.99547300
 C                 -0.13841200    0.72517200    3.55529700
 H                  0.93318200    0.64547800    3.35554100
 H                 -0.55550900    1.51725800    2.93263000
 H                 -0.27617500    0.99338600    4.60369300




