%nproc=1
#P opt=(nomicro,calcfc,ts,noeigen)  external='python ../GauUMA_client.py'

t 

0 1
Cr -1.280453 -0.608699 0.595175
P 0.066405 1.431223 0.111131
N 1.557625 0.753447 -0.448202
C 1.782413 -0.578162 -0.226302
N 0.841190 -1.449251 0.134123
H 2.360051 1.335192 -0.655174
C 1.507148 -2.663160 0.221435
C 2.822702 -2.525210 -0.089637
C -2.458557 -2.392021 0.116243
C -2.258184 -1.729057 -1.255031
C -3.546028 -1.301938 -1.947531
C -4.417013 -0.351274 -1.136985
C -2.912385 0.691913 0.647521
C -3.688338 0.897670 -0.645157
H -3.512273 -2.637196 0.234043
H -1.578508 -0.831154 -1.292622
H -4.114159 -2.204499 -2.200908
H -5.272568 -0.067441 -1.758853
H -2.546874 1.656733 1.033030
H -1.866709 -3.299621 0.181684
H -1.680153 -2.427322 -1.871069
H -3.281731 -0.826331 -2.901231
H -4.845210 -0.879394 -0.271978
H -3.588080 0.302225 1.422779
H -3.030807 1.271950 -1.445142
H -4.427412 1.698270 -0.493787
C -1.458203 -1.034285 2.590600
H -1.848109 -0.148702 3.089935
H -0.514588 -1.423279 2.973783
C -2.411794 -1.970427 2.083037
H -3.457796 -1.691335 2.173467
H -2.232836 -3.026423 2.255317
C 0.525052 2.623694 1.393794
C 0.312498 2.275470 2.733211
C 1.144342 3.843128 1.082461
C 0.713814 3.135834 3.750399
H -0.168728 1.329290 2.970787
C 1.546349 4.696558 2.103185
H 1.300853 4.125198 0.043362
C 1.330357 4.343765 3.435100
H 0.542106 2.864421 4.787422
H 2.025935 5.640054 1.860667
H 1.641952 5.015783 4.229110
C -0.510756 2.408070 -1.298686
C -1.283897 3.557029 -1.085152
C -0.351363 1.916718 -2.601590
C -1.872904 4.211296 -2.163073
H -1.426598 3.941014 -0.077854
C -0.939703 2.578118 -3.674242
H 0.238657 1.020390 -2.777726
C -1.701929 3.724437 -3.456234
H -2.465506 5.104260 -1.989309
H -0.803073 2.198075 -4.682256
H -2.163212 4.236975 -4.294874
N 2.984254 -1.185402 -0.372499
H 3.851070 -0.738351 -0.631803
H 3.634996 -3.231677 -0.131707
C 0.822433 -3.928782 0.558919
F 1.711603 -4.900338 0.806663
F 0.023991 -4.360558 -0.448053
F 0.028029 -3.800221 1.645520


