103

P      -0.664427    0.943399   -1.174256
O      -1.971742    3.227821   -1.695646
O      -3.924843   -1.980723   -0.100868
O      -0.921642    0.630380    2.424912
C      -1.080376    0.012373   -2.738152
C      -2.265720    1.287095   -0.399743
C      -0.622238    2.704141   -1.783724
C      -2.184185    0.663279   -3.569231
C      -1.528355   -1.389944   -2.327898
C       0.221454   -0.078874   -3.540452
C      -2.750340    2.513518   -0.842722
C      -2.990821    0.541571    0.530195
C      -2.394172   -0.700756    1.097971
C      -3.985764    2.993298   -0.433486
C      -4.235210    1.010565    0.936564
C      -4.723715    2.218365    0.449010
C      -2.838126   -1.971248    0.714940
C      -1.317750   -0.607047    1.980940
C      -2.156974   -3.111034    1.136535
C      -0.631223   -1.738125    2.406412
C      -1.050332   -2.980551    1.965256
C      -4.399269   -3.218243   -0.645430
C      -1.756798    1.171847    3.476292
H      -0.366218    2.704274   -2.844961
H      -2.387637    0.037987   -4.443576
H      -1.909508    1.654674   -3.930338
H      -3.110950    0.752976   -2.999058
H      -1.618837   -2.018367   -3.219850
H      -2.499773   -1.354432   -1.834935
H      -0.810229   -1.855445   -1.649238
H       0.999402   -0.589690   -2.968757
H       0.042255   -0.643580   -4.459772
H       0.600300    0.906240   -3.824354
H      -4.346179    3.946794   -0.795419
H      -4.817851    0.432177    1.642437
H      -5.692411    2.572001    0.779344
H      -2.474167   -4.095757    0.828514
H       0.215343   -1.623305    3.069469
H      -0.519609   -3.869893    2.281419
Pd      1.005913    0.037403    0.049995
H       4.954144    3.966631   -1.211310
C       4.377229    3.123450   -0.855647
C       3.685278    3.194581    0.345278
H       3.710857    4.104993    0.933268
C       2.943343    2.118516    0.809908
H       2.392282    2.217934    1.734546
C       2.865055    0.943858    0.054591
C       3.586203    0.855591   -1.141687
H       3.549758   -0.042817   -1.739003
C       4.315688    1.946104   -1.591010
H       4.841691    1.868258   -2.535313
H       3.341638   -0.978713    4.444665
C       3.251907   -1.356052    3.424044
H       2.481100   -2.131954    3.419342
H       4.828548   -2.843998    3.487595
H       1.918809    0.251428    2.855002
H       5.377095   -1.231726    3.067506
C       4.562396   -1.949427    2.921059
C       2.849766   -0.206317    2.513192
C       4.377920   -2.300481    1.473137
N       2.669809   -0.622582    1.119034
C       3.460514   -1.699763    0.696978
H       5.165755   -2.155727   -1.349456
C       3.157396   -2.299290   -0.632269
C       4.164375   -2.504023   -1.571042
C       1.867657   -2.742436   -0.920855
H       1.084361   -2.622829   -0.178590
C       3.887969   -3.122040   -2.782902
H       4.679622   -3.262696   -3.507954
C       1.593657   -3.370062   -2.127180
C       2.600304   -3.554326   -3.065470
H       0.590108   -3.720508   -2.334553
H       2.382516   -4.037003   -4.009703
H       3.635270    0.556854    2.576194
H       4.880591   -3.170746    1.071525
H      -2.767582    0.774023    3.340865
H      -3.536882   -3.822412   -0.946234
C       0.359440    3.607422   -1.045311
H       1.331998    3.109959   -1.127336
C       0.008105    3.748103    0.430230
H      -0.959953    4.240975    0.550493
H      -0.032636    2.777725    0.930397
H       0.758900    4.357752    0.937136
C       0.446922    4.972044   -1.722561
H      -0.514992    5.486738   -1.681798
H       1.188357    5.597103   -1.221846
H       0.739525    4.877773   -2.770506
C      -5.198399   -2.845021   -1.877378
H      -5.604119   -3.741101   -2.348035
H      -6.026954   -2.191774   -1.599878
H      -4.573101   -2.322379   -2.600603
C      -5.243760   -3.959314    0.377177
H      -5.579123   -4.913618   -0.031444
H      -4.691841   -4.153118    1.295948
H      -6.122495   -3.362243    0.626107
C      -1.211598    0.737436    4.823632
H      -1.836560    1.124126    5.630414
H      -1.188066   -0.350247    4.901085
H      -0.197496    1.119870    4.956443
C      -1.782475    2.672797    3.298823
H      -0.769986    3.077547    3.353946
H      -2.210640    2.933261    2.330548
H      -2.382726    3.133235    4.085190

