103

P -0.702956 1.459279 -0.710169
O -2.081938 3.759245 -0.284267
O -4.028387 -1.499874 -0.951118
O -1.215213 -0.481274 2.657496
C -1.120238 1.122478 -2.552996
C -2.309913 1.440145 0.188937
C -0.739168 3.360641 -0.650708
C -2.446896 1.770353 -2.985399
C -1.202215 -0.402421 -2.748595
C 0.042480 1.667453 -3.407407
C -2.816606 2.750596 0.262273
C -3.039214 0.393279 0.786148
C -2.578654 -1.030798 0.830177
C -4.039491 3.046507 0.863393
C -4.267949 0.693589 1.394428
C -4.763038 1.998174 1.425597
C -3.141918 -1.992488 -0.032271
C -1.676254 -1.459689 1.826092
C -2.776524 -3.343461 0.059666
C -1.307283 -2.810364 1.921469
C -1.859191 -3.730835 1.034077
C -4.855516 -2.383615 -1.733185
C -0.530524 -0.815917 3.881982
H -0.587252 3.731625 -1.668337
C 0.286111 4.052726 0.265821
H -2.617725 1.568468 -4.051637
H -2.446436 2.857694 -2.853035
H -3.293607 1.360890 -2.426102
H -1.355590 -0.622143 -3.814375
H -2.040735 -0.832841 -2.196048
H -0.280572 -0.901136 -2.431606
H 1.006764 1.250202 -3.101665
H -0.127728 1.391524 -4.456504
H 0.118993 2.759968 -3.372647
H -4.392497 4.072309 0.889691
H -4.834203 -0.111924 1.851739
H -5.716862 2.201259 1.905569
H -3.201205 -4.086228 -0.604060
H -0.606792 -3.146637 2.675245
H -1.572645 -4.776340 1.108490
C -5.961448 -2.994509 -0.871381
C -5.407742 -1.526756 -2.867307
H -4.227343 -3.175896 -2.161666
C 0.112086 0.480913 4.358941
C -1.507726 -1.391609 4.908476
H 0.262812 -1.541471 3.660259
Pd 1.166234 0.344461 0.107361
H 1.266581 3.680730 -0.059183
C 0.104499 3.710550 1.750784
C 0.248547 5.574422 0.042996
H -0.868064 4.055867 2.118861
H 0.880552 4.202374 2.349115
H 0.175728 2.632104 1.926858
H 1.004445 6.073821 0.660112
H -0.731834 5.983511 0.310665
H 0.448230 5.831845 -1.004492
H 5.272089 2.897557 -3.157037
C 4.653804 2.328187 -2.468877
C 4.340668 2.835834 -1.207505
H 4.706010 3.815053 -0.905346
C 3.556154 2.102302 -0.313157
H 3.326072 2.531402 0.655384
C 3.045707 0.840007 -0.677946
C 3.369334 0.327700 -1.949162
H 2.998583 -0.639058 -2.261347
C 4.158311 1.072135 -2.828315
H 4.384469 0.656416 -3.807855
C 3.531490 -1.703853 0.486834
C 4.522665 -2.276414 1.22043
C 5.053533 -1.703238 2.506494
H 6.020197 -1.194158 2.364086
H 5.243032 -2.511465 3.225880
C 4.021405 -0.715785 3.059944
H 4.426985 -0.130021 3.894242
C 3.603524 0.238977 1.941360
H 4.502525 0.774766 1.598375
H 2.905075 0.988451 2.322802
H 3.145918 -1.262150 3.433883
H 4.832399 -3.278976 0.942735
N 2.968760 -0.449526 0.802383
C 2.948522 -2.518203 -0.622588
C 3.797415 -3.130809 -1.561072
H 4.863547 -2.929211 -1.512585
C 3.287747 -3.963313 -2.557578
H 3.964624 -4.417441 -3.277021
C 1.914153 -4.203788 -2.637360
H 1.514657 -4.850018 -3.414815
C 1.060043 -3.608210 -1.706978
H -0.009483 -3.798299 -1.741681
C 1.570538 -2.773496 -0.710222
H 0.895352 -2.338826 0.019746
H -6.002943 -0.700342 -2.464271
H -6.046976 -2.129880 -3.521054
H -4.594669 -1.105753 -3.466123
H -6.598472 -2.201760 -0.463953
H -5.550837 -3.568870 -0.035799
H -6.585356 -3.664890 -1.473329
H 0.666248 0.308793 5.288074
H -0.654195 1.240994 4.545225
H 0.803595 0.864612 3.603589
H -0.978988 -1.641481 5.835344
H -1.995870 -2.298331 4.539533
H -2.283415 -0.653540 5.140561


