%nproc=1
#p opt=(calcall,ts,noeigen,nomicro) external='python ../GauUMA_client.py'

t 

1 2 	
C	-1.097310 	1.446994 	-1.051394 
C	-0.251971 	0.329352 	-1.007203 
C	0.944670 	0.435913 	-0.253892 
C	1.157969 	1.545671 	0.550757 
C	0.227157 	2.569368 	0.555606 
N	-0.846744 	2.484509 	-0.253340 
H	-1.975699 	1.509555 	-1.679216 
H	-0.332810 	-0.418490 	-1.787804 
H	2.039219 	1.640473 	1.171466 
H	0.312256 	3.465016 	1.153893 
C	1.897331 	-0.736107 	-0.301586 
O	1.519778 	-1.745964 	-0.849761 
C	3.237268 	-0.596927 	0.348748 
H	3.106135 	-0.484651 	1.429430 
H	3.830992 	-1.485733 	0.146045 
H	3.751619 	0.294354 	-0.018438 
C	-1.405969 	-1.043963 	0.265659 
F	-1.742183 	-2.099932 	-0.437321 
F	-2.477885 	-0.403952 	0.688960 
H	-1.494983 	3.272177 	-0.273289 
F	-0.638001 	-1.375934 	1.280495 




