%nproc=1
#p freq external='python ../GauUMA_client.py'

t 

1 2 
C       1.001763    0.348122    1.044936
C      -0.208589   -0.318870    0.858968
C      -1.204196    0.283947    0.117319
C      -0.996672    1.569232   -0.411048
C       0.159684    2.231226   -0.120108
N       1.107289    1.627041    0.636398
H       1.776746   -0.015589    1.704998
H      -0.321098   -1.309696    1.275113
H      -1.768553    2.032640   -1.008326
H       0.375076    3.238464   -0.444730
C      -2.541169   -0.391107   -0.167397
O      -3.319388    0.194395   -0.871760
C      -2.807665   -1.736328    0.437320
H      -2.735121   -1.692124    1.526199
H      -3.805123   -2.058570    0.153845
H      -2.077597   -2.467402    0.082382
C       2.205717   -0.748156   -0.672217
F       2.168927   -1.996967   -0.263299
F       3.382182   -0.188105   -0.457525
H       1.791812   -0.571417   -1.663171
H       1.954727    2.136498    0.853753



