 Entering Gaussian System, Link 0=g16
 Input=TSa-CF3-C2-H.gjf
 Output=TSa-CF3-C2-H.log
 Initial command:
 /home/zhouoh/g16/l1.exe "/home/zhouoh/scratch/Gau-3546019.inp" -scrdir="/home/zhouoh/scratch/"
 Entering Link 1 = /home/zhouoh/g16/l1.exe PID=   3546021.
  
 Copyright (c) 1988,1990,1992,1993,1995,1998,2003,2009,2016,
            Gaussian, Inc.  All Rights Reserved.
  
 This is part of the Gaussian(R) 16 program.  It is based on
 the Gaussian(R) 09 system (copyright 2009, Gaussian, Inc.),
 the Gaussian(R) 03 system (copyright 2003, Gaussian, Inc.),
 the Gaussian(R) 98 system (copyright 1998, Gaussian, Inc.),
 the Gaussian(R) 94 system (copyright 1995, Gaussian, Inc.),
 the Gaussian 92(TM) system (copyright 1992, Gaussian, Inc.),
 the Gaussian 90(TM) system (copyright 1990, Gaussian, Inc.),
 the Gaussian 88(TM) system (copyright 1988, Gaussian, Inc.),
 the Gaussian 86(TM) system (copyright 1986, Carnegie Mellon
 University), and the Gaussian 82(TM) system (copyright 1983,
 Carnegie Mellon University). Gaussian is a federally registered
 trademark of Gaussian, Inc.
  
 This software contains proprietary and confidential information,
 including trade secrets, belonging to Gaussian, Inc.
  
 This software is provided under written license and may be
 used, copied, transmitted, or stored only in accord with that
 written license.
  
 The following legend is applicable only to US Government
 contracts under FAR:
  
                    RESTRICTED RIGHTS LEGEND
  
 Use, reproduction and disclosure by the US Government is
 subject to restrictions as set forth in subparagraphs (a)
 and (c) of the Commercial Computer Software - Restricted
 Rights clause in FAR 52.227-19.
  
 Gaussian, Inc.
 340 Quinnipiac St., Bldg. 40, Wallingford CT 06492
  
  
 ---------------------------------------------------------------
 Warning -- This program may not be used in any manner that
 competes with the business of Gaussian, Inc. or will provide
 assistance to any competitor of Gaussian, Inc.  The licensee
 of this program is prohibited from giving any competitor of
 Gaussian, Inc. access to this program.  By using this program,
 the user acknowledges that Gaussian, Inc. is engaged in the
 business of creating and licensing software in the field of
 computational chemistry and represents and warrants to the
 licensee that it is not a competitor of Gaussian, Inc. and that
 it will not use this program in any manner prohibited above.
 ---------------------------------------------------------------
  

 Cite this work as:
 Gaussian 16, Revision A.03,
 M. J. Frisch, G. W. Trucks, H. B. Schlegel, G. E. Scuseria, 
 M. A. Robb, J. R. Cheeseman, G. Scalmani, V. Barone, 
 G. A. Petersson, H. Nakatsuji, X. Li, M. Caricato, A. V. Marenich, 
 J. Bloino, B. G. Janesko, R. Gomperts, B. Mennucci, H. P. Hratchian, 
 J. V. Ortiz, A. F. Izmaylov, J. L. Sonnenberg, D. Williams-Young, 
 F. Ding, F. Lipparini, F. Egidi, J. Goings, B. Peng, A. Petrone, 
 T. Henderson, D. Ranasinghe, V. G. Zakrzewski, J. Gao, N. Rega, 
 G. Zheng, W. Liang, M. Hada, M. Ehara, K. Toyota, R. Fukuda, 
 J. Hasegawa, M. Ishida, T. Nakajima, Y. Honda, O. Kitao, H. Nakai, 
 T. Vreven, K. Throssell, J. A. Montgomery, Jr., J. E. Peralta, 
 F. Ogliaro, M. J. Bearpark, J. J. Heyd, E. N. Brothers, K. N. Kudin, 
 V. N. Staroverov, T. A. Keith, R. Kobayashi, J. Normand, 
 K. Raghavachari, A. P. Rendell, J. C. Burant, S. S. Iyengar, 
 J. Tomasi, M. Cossi, J. M. Millam, M. Klene, C. Adamo, R. Cammi, 
 J. W. Ochterski, R. L. Martin, K. Morokuma, O. Farkas, 
 J. B. Foresman, and D. J. Fox, Gaussian, Inc., Wallingford CT, 2016.
 
 ******************************************
 Gaussian 16:  ES64L-G16RevA.03 25-Dec-2016
                 1-Dec-2025 
 ******************************************
 %nproc=1
 Will use up to    1 processors via shared memory.
 ----------------------------------------------------------------------
 #p opt=(calcall,ts,noeigen,nomicro) external='python ../GauUMA_client.
 py'
 ----------------------------------------------------------------------
 1/5=1,10=4,11=1,18=20,26=1,38=1/1,3;
 2/9=110,12=2,17=6,18=5,40=1/2;
 3/11=9,25=1,30=1,41=9900000,43=2,71=2,140=1/1;
 4/20=17,22=2,24=3,113=1,114=1/2;
 6/7=2,8=2,9=2,10=2,18=1/1;
 7/25=1,44=-1/16;
 1/5=1,10=4,11=1,18=20,26=1/3(3);
 2/9=110/2;
 7/8=1,9=1,25=1,44=-1/16;
 99//99;
 2/9=110/2;
 3/11=9,25=1,30=1,41=9900000,43=2,71=2,140=1/1;
 4/16=2,20=17,22=2,24=3,113=1,114=1/2;
 7/25=1,44=-1/16;
 1/5=1,10=4,11=1,18=20,26=1/3(-4);
 2/9=110/2;
 6/7=2,8=2,9=2,10=2,18=1/1;
 7/8=1,9=1,25=1,44=-1/16;
 99//99;
 Leave Link    1 at Mon Dec  1 22:41:30 2025, MaxMem=           0 cpu:               0.0 elap:               0.0
 (Enter /home/zhouoh/g16/l101.exe)
 -
 t
 -
 Symbolic Z-matrix:
 Charge =  1 Multiplicity = 2
 C                     0.80973   0.45907   1.19278 
 C                    -0.38711  -0.24293   0.97982 
 C                    -1.35988   0.30557   0.16164 
 C                    -1.1572    1.57078  -0.40733 
 C                    -0.01133   2.27218  -0.10173 
 N                     0.90551   1.72555   0.71157 
 H                     1.52583   0.18041   1.95706 
 H                    -0.49477  -1.21951   1.43418 
 H                    -1.90122   2.00908  -1.05862 
 H                     0.19659   3.27012  -0.46312 
 C                    -2.66166  -0.42041  -0.14011 
 O                    -3.46248   0.11749  -0.86452 
 C                    -2.88046  -1.76684   0.47597 
 H                    -2.8317   -1.69311   1.56586 
 H                    -3.85361  -2.14703   0.17319 
 H                    -2.09501  -2.45634   0.1538 
 C                     2.0796   -0.64561  -0.26525 
 F                     1.44105  -0.70785  -1.40982 
 F                     2.31943  -1.8422    0.21441 
 H                     1.73067   2.27358   0.95169 
 F                     3.18334   0.05819  -0.37722 
 
 Add virtual bond connecting atoms C17        and C1         Dist= 4.21D+00.
 ITRead=  0  0  0  0  0  0  0  0  0  0  0  0  0  0  0  0  0  0  0  0
 ITRead=  0
 MicOpt= -1 -1 -1 -1 -1 -1 -1 -1 -1 -1 -1 -1 -1 -1 -1 -1 -1 -1 -1 -1
 MicOpt= -1
 NAtoms=     21 NQM=       21 NQMF=       0 NMMI=      0 NMMIF=      0
                NMic=       0 NMicF=      0.
                    Isotopes and Nuclear Properties:
 (Nuclear quadrupole moments (NQMom) in fm**2, nuclear magnetic moments (NMagM)
  in nuclear magnetons)

  Atom         1           2           3           4           5           6           7           8           9          10
 IAtWgt=          12          12          12          12          12          14           1           1           1           1
 AtmWgt=  12.0000000  12.0000000  12.0000000  12.0000000  12.0000000  14.0030740   1.0078250   1.0078250   1.0078250   1.0078250
 NucSpn=           0           0           0           0           0           2           1           1           1           1
 AtZEff=  -0.0000000  -0.0000000  -0.0000000  -0.0000000  -0.0000000  -0.0000000  -0.0000000  -0.0000000  -0.0000000  -0.0000000
 NQMom=    0.0000000   0.0000000   0.0000000   0.0000000   0.0000000   2.0440000   0.0000000   0.0000000   0.0000000   0.0000000
 NMagM=    0.0000000   0.0000000   0.0000000   0.0000000   0.0000000   0.4037610   2.7928460   2.7928460   2.7928460   2.7928460
 AtZNuc=   6.0000000   6.0000000   6.0000000   6.0000000   6.0000000   7.0000000   1.0000000   1.0000000   1.0000000   1.0000000

  Atom        11          12          13          14          15          16          17          18          19          20
 IAtWgt=          12          16          12           1           1           1          12          19          19           1
 AtmWgt=  12.0000000  15.9949146  12.0000000   1.0078250   1.0078250   1.0078250  12.0000000  18.9984032  18.9984032   1.0078250
 NucSpn=           0           0           0           1           1           1           0           1           1           1
 AtZEff=  -0.0000000  -0.0000000  -0.0000000  -0.0000000  -0.0000000  -0.0000000  -0.0000000  -0.0000000  -0.0000000  -0.0000000
 NQMom=    0.0000000   0.0000000   0.0000000   0.0000000   0.0000000   0.0000000   0.0000000   0.0000000   0.0000000   0.0000000
 NMagM=    0.0000000   0.0000000   0.0000000   2.7928460   2.7928460   2.7928460   0.0000000   2.6288670   2.6288670   2.7928460
 AtZNuc=   6.0000000   8.0000000   6.0000000   1.0000000   1.0000000   1.0000000   6.0000000   9.0000000   9.0000000   1.0000000

  Atom        21
 IAtWgt=          19
 AtmWgt=  18.9984032
 NucSpn=           1
 AtZEff=  -0.0000000
 NQMom=    0.0000000
 NMagM=    2.6288670
 AtZNuc=   9.0000000
 Leave Link  101 at Mon Dec  1 22:41:30 2025, MaxMem=   104857600 cpu:               0.1 elap:               0.1
 (Enter /home/zhouoh/g16/l103.exe)

 GradGradGradGradGradGradGradGradGradGradGradGradGradGradGradGradGradGrad
 Berny optimization.
 Initialization pass.
                           ----------------------------
                           !    Initial Parameters    !
                           ! (Angstroms and Degrees)  !
 --------------------------                            --------------------------
 ! Name  Definition              Value          Derivative Info.                !
 --------------------------------------------------------------------------------
 ! R1    R(1,2)                  1.4038         calculate D2E/DX2 analytically  !
 ! R2    R(1,6)                  1.3582         calculate D2E/DX2 analytically  !
 ! R3    R(1,7)                  1.0838         calculate D2E/DX2 analytically  !
 ! R4    R(1,17)                 2.2268         calculate D2E/DX2 analytically  !
 ! R5    R(2,3)                  1.3844         calculate D2E/DX2 analytically  !
 ! R6    R(2,8)                  1.0825         calculate D2E/DX2 analytically  !
 ! R7    R(3,4)                  1.402          calculate D2E/DX2 analytically  !
 ! R8    R(3,11)                 1.5208         calculate D2E/DX2 analytically  !
 ! R9    R(4,5)                  1.3778         calculate D2E/DX2 analytically  !
 ! R10   R(4,9)                  1.0816         calculate D2E/DX2 analytically  !
 ! R11   R(5,6)                  1.342          calculate D2E/DX2 analytically  !
 ! R12   R(5,10)                 1.0815         calculate D2E/DX2 analytically  !
 ! R13   R(6,20)                 1.0193         calculate D2E/DX2 analytically  !
 ! R14   R(11,12)                1.2064         calculate D2E/DX2 analytically  !
 ! R15   R(11,13)                1.4968         calculate D2E/DX2 analytically  !
 ! R16   R(13,14)                1.0935         calculate D2E/DX2 analytically  !
 ! R17   R(13,15)                1.0878         calculate D2E/DX2 analytically  !
 ! R18   R(13,16)                1.0937         calculate D2E/DX2 analytically  !
 ! R19   R(17,18)                1.3121         calculate D2E/DX2 analytically  !
 ! R20   R(17,19)                1.3113         calculate D2E/DX2 analytically  !
 ! R21   R(17,21)                1.3138         calculate D2E/DX2 analytically  !
 ! A1    A(2,1,6)              118.2083         calculate D2E/DX2 analytically  !
 ! A2    A(2,1,7)              122.8026         calculate D2E/DX2 analytically  !
 ! A3    A(2,1,17)              97.9779         calculate D2E/DX2 analytically  !
 ! A4    A(6,1,7)              116.2964         calculate D2E/DX2 analytically  !
 ! A5    A(6,1,17)             100.9751         calculate D2E/DX2 analytically  !
 ! A6    A(7,1,17)              87.5578         calculate D2E/DX2 analytically  !
 ! A7    A(1,2,3)              119.3811         calculate D2E/DX2 analytically  !
 ! A8    A(1,2,8)              118.182          calculate D2E/DX2 analytically  !
 ! A9    A(3,2,8)              122.3864         calculate D2E/DX2 analytically  !
 ! A10   A(2,3,4)              119.723          calculate D2E/DX2 analytically  !
 ! A11   A(2,3,11)             121.9795         calculate D2E/DX2 analytically  !
 ! A12   A(4,3,11)             118.2965         calculate D2E/DX2 analytically  !
 ! A13   A(3,4,5)              119.3159         calculate D2E/DX2 analytically  !
 ! A14   A(3,4,9)              120.7053         calculate D2E/DX2 analytically  !
 ! A15   A(5,4,9)              119.9576         calculate D2E/DX2 analytically  !
 ! A16   A(4,5,6)              119.687          calculate D2E/DX2 analytically  !
 ! A17   A(4,5,10)             123.7446         calculate D2E/DX2 analytically  !
 ! A18   A(6,5,10)             116.5521         calculate D2E/DX2 analytically  !
 ! A19   A(1,6,5)              123.1185         calculate D2E/DX2 analytically  !
 ! A20   A(1,6,20)             118.3582         calculate D2E/DX2 analytically  !
 ! A21   A(5,6,20)             118.4816         calculate D2E/DX2 analytically  !
 ! A22   A(3,11,12)            118.3277         calculate D2E/DX2 analytically  !
 ! A23   A(3,11,13)            118.2222         calculate D2E/DX2 analytically  !
 ! A24   A(12,11,13)           123.45           calculate D2E/DX2 analytically  !
 ! A25   A(11,13,14)           110.0649         calculate D2E/DX2 analytically  !
 ! A26   A(11,13,15)           109.3058         calculate D2E/DX2 analytically  !
 ! A27   A(11,13,16)           109.9306         calculate D2E/DX2 analytically  !
 ! A28   A(14,13,15)           109.9318         calculate D2E/DX2 analytically  !
 ! A29   A(14,13,16)           107.7038         calculate D2E/DX2 analytically  !
 ! A30   A(15,13,16)           109.887          calculate D2E/DX2 analytically  !
 ! A31   A(1,17,18)            108.4913         calculate D2E/DX2 analytically  !
 ! A32   A(1,17,19)            108.5112         calculate D2E/DX2 analytically  !
 ! A33   A(1,17,21)            105.6129         calculate D2E/DX2 analytically  !
 ! A34   A(18,17,19)           111.3958         calculate D2E/DX2 analytically  !
 ! A35   A(18,17,21)           111.0945         calculate D2E/DX2 analytically  !
 ! A36   A(19,17,21)           111.4913         calculate D2E/DX2 analytically  !
 ! D1    D(6,1,2,3)              7.5731         calculate D2E/DX2 analytically  !
 ! D2    D(6,1,2,8)           -174.9475         calculate D2E/DX2 analytically  !
 ! D3    D(7,1,2,3)            168.273          calculate D2E/DX2 analytically  !
 ! D4    D(7,1,2,8)            -14.2476         calculate D2E/DX2 analytically  !
 ! D5    D(17,1,2,3)           -99.484          calculate D2E/DX2 analytically  !
 ! D6    D(17,1,2,8)            77.9954         calculate D2E/DX2 analytically  !
 ! D7    D(2,1,6,5)             -8.9911         calculate D2E/DX2 analytically  !
 ! D8    D(2,1,6,20)           173.3953         calculate D2E/DX2 analytically  !
 ! D9    D(7,1,6,5)           -170.9391         calculate D2E/DX2 analytically  !
 ! D10   D(7,1,6,20)            11.4473         calculate D2E/DX2 analytically  !
 ! D11   D(17,1,6,5)            96.3433         calculate D2E/DX2 analytically  !
 ! D12   D(17,1,6,20)          -81.2704         calculate D2E/DX2 analytically  !
 ! D13   D(2,1,17,18)           49.095          calculate D2E/DX2 analytically  !
 ! D14   D(2,1,17,19)          -72.0782         calculate D2E/DX2 analytically  !
 ! D15   D(2,1,17,21)          168.2709         calculate D2E/DX2 analytically  !
 ! D16   D(6,1,17,18)          -71.7936         calculate D2E/DX2 analytically  !
 ! D17   D(6,1,17,19)          167.0333         calculate D2E/DX2 analytically  !
 ! D18   D(6,1,17,21)           47.3824         calculate D2E/DX2 analytically  !
 ! D19   D(7,1,17,18)          171.8849         calculate D2E/DX2 analytically  !
 ! D20   D(7,1,17,19)           50.7117         calculate D2E/DX2 analytically  !
 ! D21   D(7,1,17,21)          -68.9391         calculate D2E/DX2 analytically  !
 ! D22   D(1,2,3,4)             -2.0767         calculate D2E/DX2 analytically  !
 ! D23   D(1,2,3,11)           178.2975         calculate D2E/DX2 analytically  !
 ! D24   D(8,2,3,4)           -179.4456         calculate D2E/DX2 analytically  !
 ! D25   D(8,2,3,11)             0.9286         calculate D2E/DX2 analytically  !
 ! D26   D(2,3,4,5)             -2.4353         calculate D2E/DX2 analytically  !
 ! D27   D(2,3,4,9)            179.2431         calculate D2E/DX2 analytically  !
 ! D28   D(11,3,4,5)           177.2042         calculate D2E/DX2 analytically  !
 ! D29   D(11,3,4,9)            -1.1174         calculate D2E/DX2 analytically  !
 ! D30   D(2,3,11,12)         -179.8308         calculate D2E/DX2 analytically  !
 ! D31   D(2,3,11,13)            0.0554         calculate D2E/DX2 analytically  !
 ! D32   D(4,3,11,12)            0.5382         calculate D2E/DX2 analytically  !
 ! D33   D(4,3,11,13)         -179.5755         calculate D2E/DX2 analytically  !
 ! D34   D(3,4,5,6)              1.3762         calculate D2E/DX2 analytically  !
 ! D35   D(3,4,5,10)          -177.1051         calculate D2E/DX2 analytically  !
 ! D36   D(9,4,5,6)            179.7107         calculate D2E/DX2 analytically  !
 ! D37   D(9,4,5,10)             1.2294         calculate D2E/DX2 analytically  !
 ! D38   D(4,5,6,1)              4.5172         calculate D2E/DX2 analytically  !
 ! D39   D(4,5,6,20)          -177.8719         calculate D2E/DX2 analytically  !
 ! D40   D(10,5,6,1)          -176.8945         calculate D2E/DX2 analytically  !
 ! D41   D(10,5,6,20)            0.7163         calculate D2E/DX2 analytically  !
 ! D42   D(3,11,13,14)          58.6682         calculate D2E/DX2 analytically  !
 ! D43   D(3,11,13,15)         179.4991         calculate D2E/DX2 analytically  !
 ! D44   D(3,11,13,16)         -59.8092         calculate D2E/DX2 analytically  !
 ! D45   D(12,11,13,14)       -121.4518         calculate D2E/DX2 analytically  !
 ! D46   D(12,11,13,15)         -0.6209         calculate D2E/DX2 analytically  !
 ! D47   D(12,11,13,16)        120.0708         calculate D2E/DX2 analytically  !
 --------------------------------------------------------------------------------
 Trust Radius=3.00D-01 FncErr=1.00D-07 GrdErr=1.00D-07 EigMax=2.50D+02 EigMin=1.00D-04
 Number of steps in this run=    114 maximum allowed number of steps=    126.
 Search for a saddle point of order  1.
 GradGradGradGradGradGradGradGradGradGradGradGradGradGradGradGradGradGrad

 Leave Link  103 at Mon Dec  1 22:41:30 2025, MaxMem=   104857600 cpu:               0.0 elap:               0.0
 (Enter /home/zhouoh/g16/l202.exe)
                          Input orientation:                          
 ---------------------------------------------------------------------
 Center     Atomic      Atomic             Coordinates (Angstroms)
 Number     Number       Type             X           Y           Z
 ---------------------------------------------------------------------
      1          6           0        0.809731    0.459067    1.192781
      2          6           0       -0.387113   -0.242927    0.979822
      3          6           0       -1.359882    0.305567    0.161637
      4          6           0       -1.157197    1.570775   -0.407328
      5          6           0       -0.011332    2.272175   -0.101726
      6          7           0        0.905509    1.725552    0.711566
      7          1           0        1.525831    0.180406    1.957062
      8          1           0       -0.494767   -1.219508    1.434175
      9          1           0       -1.901224    2.009076   -1.058620
     10          1           0        0.196594    3.270115   -0.463119
     11          6           0       -2.661662   -0.420409   -0.140107
     12          8           0       -3.462475    0.117488   -0.864521
     13          6           0       -2.880462   -1.766844    0.475971
     14          1           0       -2.831703   -1.693114    1.565863
     15          1           0       -3.853610   -2.147025    0.173188
     16          1           0       -2.095008   -2.456336    0.153800
     17          6           0        2.079597   -0.645608   -0.265246
     18          9           0        1.441047   -0.707849   -1.409817
     19          9           0        2.319432   -1.842201    0.214408
     20          1           0        1.730669    2.273576    0.951689
     21          9           0        3.183341    0.058192   -0.377219
 ---------------------------------------------------------------------
                    Distance matrix (angstroms):
                    1          2          3          4          5
     1  C    0.000000
     2  C    1.403774   0.000000
     3  C    2.407081   1.384396   0.000000
     4  C    2.768583   2.409716   1.401982   0.000000
     5  C    2.374290   2.763457   2.399061   1.377810   0.000000
     6  N    1.358207   2.370178   2.729611   2.351730   1.341953
     7  H    1.083779   2.189421   3.400964   3.836940   3.313152
     8  H    2.139533   1.082468   2.166479   3.408170   3.845068
     9  H    3.849755   3.394009   2.164260   1.081603   2.134610
    10  H    3.319628   3.842428   3.406095   2.173389   1.081537
    11  C    3.821078   2.541518   1.520764   2.509908   3.778324
    12  O    4.754042   3.604074   2.347184   2.763218   4.139435
    13  C    4.368755   2.965296   2.589567   3.858699   4.987917
    14  H    4.246306   2.902156   2.851812   4.165384   5.143818
    15  H    5.438569   4.036440   3.497716   4.629220   5.862423
    16  H    4.244592   2.915201   2.858073   4.172766   5.173569
    17  C    2.226816   2.792312   3.594020   3.925478   3.593352
    18  F    2.921262   3.044453   3.367742   3.598331   3.563853
    19  F    2.921001   3.235571   4.260639   4.911406   4.739250
    20  H    2.049072   3.289161   3.748166   3.268123   2.035744
    21  F    2.873956   3.831498   4.581750   4.596638   3.896608
                    6          7          8          9         10
     6  N    0.000000
     7  H    2.079311   0.000000
     8  H    3.340107   2.513163   0.000000
     9  H    3.330420   4.917629   4.314615   0.000000
    10  H    2.065943   4.143724   4.922847   2.519064   0.000000
    11  C    4.249142   4.721673   2.795059   2.706350   4.679095
    12  O    4.914184   5.731360   3.984828   2.460342   4.846542
    13  C    5.156153   5.039924   2.628549   4.191831   5.976715
    14  H    5.136522   4.759329   2.388078   4.632485   6.158002
    15  H    6.159214   6.126788   3.705699   4.754192   6.793706
    16  H    5.177103   4.828523   2.393716   4.631136   6.198731
    17  C    2.820469   2.434668   3.137633   4.850126   4.349453
    18  F    3.272386   3.483111   3.478140   4.321550   4.274237
    19  F    3.869781   2.785244   3.129743   5.853791   5.576850
    20  H    1.019254   2.331114   4.169771   4.159561   2.312608
    21  F    3.025568   2.865509   4.294432   5.488448   4.386854
                   11         12         13         14         15
    11  C    0.000000
    12  O    1.206404   0.000000
    13  C    1.496767   2.384610   0.000000
    14  H    2.135187   3.095629   1.093471   0.000000
    15  H    2.121343   2.521477   1.087765   1.786021   0.000000
    16  H    2.133653   3.087315   1.093678   1.766111   1.785702
    17  C    4.748253   5.626367   5.138945   5.345194   6.135913
    18  F    4.304301   5.002305   4.832505   5.299227   5.710563
    19  F    5.192155   6.199590   5.207014   5.327556   6.180701
    20  H    5.267081   5.908983   6.149295   6.076765   7.164632
    21  F    5.869356   6.663921   6.389710   6.559222   7.394904
                   16         17         18         19         20
    16  H    0.000000
    17  C    4.569646   0.000000
    18  F    4.243323   1.312121   0.000000
    19  F    4.457366   1.311268   2.167123   0.000000
    20  H    6.135511   3.181873   3.814379   4.222540   0.000000
    21  F    5.870758   1.313820   2.165333   2.169759   2.963812
                   21
    21  F    0.000000
 Stoichiometry    C8H8F3NO(1+,2)
 Framework group  C1[X(C8H8F3NO)]
 Deg. of freedom    57
 Full point group                 C1      NOp   1
 Largest Abelian subgroup         C1      NOp   1
 Largest concise Abelian subgroup C1      NOp   1
                         Standard orientation:                         
 ---------------------------------------------------------------------
 Center     Atomic      Atomic             Coordinates (Angstroms)
 Number     Number       Type             X           Y           Z
 ---------------------------------------------------------------------
      1          6           0        0.809731    0.459067    1.192781
      2          6           0       -0.387113   -0.242927    0.979822
      3          6           0       -1.359882    0.305567    0.161637
      4          6           0       -1.157197    1.570775   -0.407328
      5          6           0       -0.011332    2.272175   -0.101726
      6          7           0        0.905509    1.725552    0.711566
      7          1           0        1.525831    0.180406    1.957062
      8          1           0       -0.494767   -1.219508    1.434175
      9          1           0       -1.901224    2.009076   -1.058620
     10          1           0        0.196594    3.270115   -0.463119
     11          6           0       -2.661662   -0.420409   -0.140107
     12          8           0       -3.462475    0.117488   -0.864521
     13          6           0       -2.880462   -1.766844    0.475971
     14          1           0       -2.831703   -1.693114    1.565863
     15          1           0       -3.853610   -2.147025    0.173188
     16          1           0       -2.095008   -2.456336    0.153800
     17          6           0        2.079597   -0.645608   -0.265246
     18          9           0        1.441047   -0.707849   -1.409817
     19          9           0        2.319432   -1.842201    0.214408
     20          1           0        1.730669    2.273576    0.951689
     21          9           0        3.183341    0.058192   -0.377219
 ---------------------------------------------------------------------
 Rotational constants (GHZ):           1.2753140           0.5242416           0.4397046
 Leave Link  202 at Mon Dec  1 22:41:30 2025, MaxMem=   104857600 cpu:               0.0 elap:               0.0
 (Enter /home/zhouoh/g16/l301.exe)
 Standard basis: STO-3G (5D, 7F)
 Ernie: Thresh=  0.10000D-02 Tol=  0.10000D-05 Strict=F.
 There are    73 symmetry adapted cartesian basis functions of A   symmetry.
 There are    73 symmetry adapted basis functions of A   symmetry.
    73 basis functions,   219 primitive gaussians,    73 cartesian basis functions
    49 alpha electrons       48 beta electrons
       nuclear repulsion energy       825.7462628861 Hartrees.
 IExCor=    0 DFT=F Ex=HF Corr=None ExCW=0 ScaHFX=  1.000000
 ScaDFX=  1.000000  1.000000  1.000000  1.000000 ScalE2=  1.000000  1.000000
 IRadAn=      5 IRanWt=     -1 IRanGd=            0 ICorTp=0 IEmpDi=  4
 NAtoms=   21 NActive=   21 NUniq=   21 SFac= 1.00D+00 NAtFMM=   60 NAOKFM=F Big=F
 Integral buffers will be    131072 words long.
 Raffenetti 2 integral format.
 Two-electron integral symmetry is turned on.
 Leave Link  301 at Mon Dec  1 22:41:30 2025, MaxMem=   104857600 cpu:               0.0 elap:               0.0
 (Enter /home/zhouoh/g16/l402.exe)
 External calculation of energy, first and second derivatives.
 Running external command "python ../GauUMA_client.py R"
         input file       "/home/zhouoh/scratch/Gau-3546021.EIn"
         output file      "/home/zhouoh/scratch/Gau-3546021.EOu"
         message file     "/home/zhouoh/scratch/Gau-3546021.EMs"
         fchk file        "/home/zhouoh/scratch/Gau-3546021.EFC"
         mat. el file     "/home/zhouoh/scratch/Gau-3546021.EUF"
Sent job to server.
Received result from server:
SCF Done:  E(UMA) =  -738.92637112485     A.U.
 Recovered energy= -738.926371125     dipole=      0.000000000000      0.000000000000      0.000000000000
 Energy=    -738.926371     NIter=   0.
 Dipole moment=       0.000000       0.000000       0.000000
 Leave Link  402 at Mon Dec  1 22:41:34 2025, MaxMem=   104857600 cpu:               0.0 elap:               4.1
 (Enter /home/zhouoh/g16/l601.exe)
 Leave Link  601 at Mon Dec  1 22:41:34 2025, MaxMem=   104857600 cpu:               0.0 elap:               0.0
 (Enter /home/zhouoh/g16/l716.exe)
 Dipole        = 0.00000000D+00 0.00000000D+00 0.00000000D+00
 ***** Axes restored to original set *****
 -------------------------------------------------------------------
 Center     Atomic                   Forces (Hartrees/Bohr)
 Number     Number              X              Y              Z
 -------------------------------------------------------------------
      1        6          -0.002925904   -0.000287082    0.001949046
      2        6           0.003570767    0.003417773   -0.001003943
      3        6           0.001495784   -0.001849246    0.001831749
      4        6           0.008010066    0.007530692   -0.000226198
      5        6          -0.014160440   -0.002526568   -0.006447002
      6        7           0.011089507    0.000639123    0.007888032
      7        1          -0.001220311   -0.000026971   -0.000577165
      8        1          -0.000576449    0.001590599   -0.000022518
      9        1          -0.000454160   -0.001884349    0.000864553
     10        1          -0.000271545   -0.001323996   -0.000081437
     11        6          -0.007999765    0.001691383   -0.005769383
     12        8           0.007283254   -0.000999668    0.004430222
     13        6           0.001517419   -0.000555369    0.001050109
     14        1          -0.001001482   -0.001048974   -0.000565602
     15        1           0.001570549    0.000548064    0.000585023
     16        1          -0.001395629   -0.000560860    0.000150743
     17        6           0.007949251   -0.009785176   -0.012777689
     18        9          -0.002764772    0.002552132    0.003142789
     19        9          -0.003638838    0.002534860    0.003460280
     20        1          -0.004485853   -0.003274805   -0.001317289
     21        9          -0.001591449    0.003618438    0.003435683
 -------------------------------------------------------------------
 Cartesian Forces:  Max     0.014160440 RMS     0.004429619
 FormGI is forming the generalized inverse of G from B-inverse, IUseBI=4.
 Leave Link  716 at Mon Dec  1 22:41:34 2025, MaxMem=   104857600 cpu:               0.0 elap:               0.0
 (Enter /home/zhouoh/g16/l103.exe)

 GradGradGradGradGradGradGradGradGradGradGradGradGradGradGradGradGradGrad
 Berny optimization.
 Red2BG is reusing G-inverse.
 Internal  Forces:  Max     0.009655270 RMS     0.002534187
 Search for a saddle point.
 Step number   1 out of a maximum of  114
 All quantities printed in internal units (Hartrees-Bohrs-Radians)
 Swapping is turned off.
 Second derivative matrix not updated -- analytic derivatives used.
 ITU=  0
     Eigenvalues ---   -0.00501   0.00066   0.00091   0.00382   0.01088
     Eigenvalues ---    0.01254   0.01494   0.01892   0.01948   0.02064
     Eigenvalues ---    0.02386   0.02693   0.02934   0.03160   0.03442
     Eigenvalues ---    0.04036   0.04494   0.05238   0.05389   0.05702
     Eigenvalues ---    0.06540   0.10706   0.11326   0.12285   0.12390
     Eigenvalues ---    0.12559   0.13005   0.13195   0.14566   0.14680
     Eigenvalues ---    0.14860   0.18391   0.18942   0.20605   0.21724
     Eigenvalues ---    0.25536   0.27781   0.29778   0.31789   0.33205
     Eigenvalues ---    0.33532   0.34380   0.35270   0.35994   0.36719
     Eigenvalues ---    0.36890   0.36986   0.38674   0.39039   0.39283
     Eigenvalues ---    0.42830   0.43816   0.45918   0.46845   0.53701
     Eigenvalues ---    0.59001   0.86852
 Eigenvectors required to have negative eigenvalues:
                          R4        D4        D10       D3        D9
   1                    0.85707   0.20016  -0.19479   0.17838  -0.16084
                          D7        D1        A6        D2        D8
   1                    0.12499  -0.12237  -0.11782  -0.10060   0.09104
 RFO step:  Lambda0=7.988430028D-04 Lambda=-2.69986657D-03.
 Linear search not attempted -- option 19 set.
 Maximum step size (   0.300) exceeded in Quadratic search.
    -- Step size scaled by   0.995
 Iteration  1 RMS(Cart)=  0.06422592 RMS(Int)=  0.00735769
 Iteration  2 RMS(Cart)=  0.01159583 RMS(Int)=  0.00045924
 Iteration  3 RMS(Cart)=  0.00001282 RMS(Int)=  0.00045916
 Iteration  4 RMS(Cart)=  0.00000001 RMS(Int)=  0.00045916
 ITry= 1 IFail=0 DXMaxC= 4.25D-01 DCOld= 1.00D+10 DXMaxT= 3.00D-01 DXLimC= 3.00D+00 Rises=F
 Variable       Old X    -DE/DX   Delta X   Delta X   Delta X     New X
                                 (Linear)    (Quad)   (Total)
    R1        2.65275  -0.00469   0.00000   0.01546   0.01545   2.66820
    R2        2.56664  -0.00123   0.00000   0.01513   0.01515   2.58178
    R3        2.04805  -0.00121   0.00000  -0.00090  -0.00090   2.04715
    R4        4.20807   0.00230   0.00000  -0.26743  -0.26743   3.94064
    R5        2.61613  -0.00262   0.00000  -0.02021  -0.02021   2.59592
    R6        2.04557  -0.00139   0.00000  -0.00305  -0.00305   2.04252
    R7        2.64936   0.00018   0.00000   0.01484   0.01485   2.66421
    R8        2.87383   0.00049   0.00000   0.00291   0.00291   2.87674
    R9        2.60368  -0.00966   0.00000  -0.02655  -0.02656   2.57712
   R10        2.04393  -0.00097   0.00000  -0.00302  -0.00302   2.04092
   R11        2.53592   0.00848   0.00000   0.02408   0.02407   2.55999
   R12        2.04381  -0.00125   0.00000  -0.00331  -0.00331   2.04050
   R13        1.92611  -0.00570   0.00000  -0.01521  -0.01521   1.91090
   R14        2.27977  -0.00794   0.00000  -0.00924  -0.00924   2.27053
   R15        2.82848   0.00186   0.00000   0.00452   0.00452   2.83300
   R16        2.06636  -0.00068   0.00000  -0.00267  -0.00267   2.06369
   R17        2.05558  -0.00176   0.00000  -0.00385  -0.00385   2.05173
   R18        2.06675  -0.00069   0.00000  -0.00250  -0.00250   2.06425
   R19        2.47955  -0.00152   0.00000  -0.01134  -0.01134   2.46821
   R20        2.47794  -0.00171   0.00000  -0.01053  -0.01053   2.46741
   R21        2.48276   0.00031   0.00000  -0.00455  -0.00455   2.47821
    A1        2.06312   0.00006   0.00000  -0.01132  -0.01239   2.05073
    A2        2.14331  -0.00035   0.00000  -0.02194  -0.02353   2.11978
    A3        1.71004  -0.00143   0.00000  -0.00525  -0.00499   1.70505
    A4        2.02976   0.00032   0.00000   0.00027  -0.00299   2.02677
    A5        1.76235   0.00016   0.00000   0.02413   0.02428   1.78662
    A6        1.52817   0.00123   0.00000   0.08307   0.08314   1.61131
    A7        2.08359   0.00121   0.00000   0.00922   0.00887   2.09247
    A8        2.06267  -0.00020   0.00000  -0.00374  -0.00359   2.05908
    A9        2.13605  -0.00101   0.00000  -0.00590  -0.00576   2.13028
   A10        2.08956   0.00040   0.00000  -0.00418  -0.00445   2.08511
   A11        2.12894   0.00265   0.00000   0.01646   0.01657   2.14551
   A12        2.06466  -0.00305   0.00000  -0.01222  -0.01211   2.05255
   A13        2.08245   0.00014   0.00000   0.00268   0.00239   2.08485
   A14        2.10670  -0.00199   0.00000  -0.02021  -0.02011   2.08660
   A15        2.09365   0.00185   0.00000   0.01715   0.01723   2.11088
   A16        2.08893   0.00069   0.00000   0.00818   0.00793   2.09686
   A17        2.15975  -0.00062   0.00000  -0.00055  -0.00044   2.15931
   A18        2.03422  -0.00006   0.00000  -0.00744  -0.00734   2.02688
   A19        2.14882  -0.00252   0.00000  -0.01439  -0.01472   2.13411
   A20        2.06574   0.00106   0.00000   0.00719   0.00701   2.07275
   A21        2.06789   0.00145   0.00000   0.00584   0.00571   2.07361
   A22        2.06521  -0.00498   0.00000  -0.01276  -0.01276   2.05245
   A23        2.06337   0.00254   0.00000   0.00379   0.00379   2.06716
   A24        2.15461   0.00244   0.00000   0.00896   0.00895   2.16356
   A25        1.92100   0.00164   0.00000   0.01139   0.01133   1.93233
   A26        1.90775  -0.00073   0.00000  -0.00632  -0.00631   1.90144
   A27        1.91865   0.00149   0.00000   0.00915   0.00909   1.92774
   A28        1.91867  -0.00096   0.00000  -0.00893  -0.00891   1.90976
   A29        1.87979  -0.00055   0.00000   0.00424   0.00410   1.88389
   A30        1.91789  -0.00089   0.00000  -0.00939  -0.00938   1.90851
   A31        1.89353  -0.00589   0.00000  -0.00093  -0.00103   1.89251
   A32        1.89388  -0.00726   0.00000  -0.03773  -0.03812   1.85576
   A33        1.84329  -0.00718   0.00000  -0.02836  -0.02874   1.81455
   A34        1.94422   0.00628   0.00000   0.02124   0.02111   1.96533
   A35        1.93896   0.00597   0.00000   0.01822   0.01814   1.95710
   A36        1.94589   0.00657   0.00000   0.02255   0.02172   1.96761
    D1        0.13217   0.00036   0.00000   0.07149   0.07149   0.20366
    D2       -3.05341   0.00017   0.00000   0.06098   0.06070  -2.99271
    D3        2.93692   0.00054   0.00000  -0.04294  -0.04189   2.89502
    D4       -0.24867   0.00035   0.00000  -0.05345  -0.05268  -0.30134
    D5       -1.73632   0.00103   0.00000   0.04979   0.04986  -1.68646
    D6        1.36128   0.00084   0.00000   0.03928   0.03908   1.40035
    D7       -0.15692   0.00001   0.00000  -0.07247  -0.07199  -0.22891
    D8        3.02632   0.00038   0.00000  -0.03372  -0.03343   2.99289
    D9       -2.98345  -0.00002   0.00000   0.03869   0.03920  -2.94425
   D10        0.19979   0.00035   0.00000   0.07744   0.07776   0.27756
   D11        1.68151  -0.00157   0.00000  -0.06793  -0.06768   1.61382
   D12       -1.41844  -0.00120   0.00000  -0.02918  -0.02912  -1.44756
   D13        0.85687   0.00004   0.00000   0.10270   0.10236   0.95923
   D14       -1.25800   0.00025   0.00000   0.09994   0.09979  -1.15821
   D15        2.93688   0.00017   0.00000   0.10826   0.10768   3.04456
   D16       -1.25303   0.00038   0.00000   0.10954   0.11024  -1.14280
   D17        2.91528   0.00059   0.00000   0.10678   0.10766   3.02295
   D18        0.82698   0.00051   0.00000   0.11510   0.11556   0.94254
   D19        2.99996  -0.00019   0.00000   0.09188   0.09158   3.09154
   D20        0.88509   0.00001   0.00000   0.08912   0.08901   0.97410
   D21       -1.20321  -0.00007   0.00000   0.09744   0.09690  -1.10631
   D22       -0.03625  -0.00017   0.00000  -0.02624  -0.02625  -0.06249
   D23        3.11188  -0.00043   0.00000  -0.03663  -0.03687   3.07501
   D24       -3.13192   0.00000   0.00000  -0.01535  -0.01509   3.13618
   D25        0.01621  -0.00026   0.00000  -0.02574  -0.02571  -0.00950
   D26       -0.04250  -0.00014   0.00000  -0.02059  -0.02081  -0.06332
   D27        3.12838  -0.00016   0.00000  -0.00573  -0.00600   3.12238
   D28        3.09280   0.00013   0.00000  -0.01047  -0.01065   3.08215
   D29       -0.01950   0.00011   0.00000   0.00439   0.00416  -0.01534
   D30       -3.13864   0.00010   0.00000   0.02005   0.02013  -3.11851
   D31        0.00097   0.00008   0.00000   0.01592   0.01603   0.01699
   D32        0.00939  -0.00017   0.00000   0.00978   0.00967   0.01906
   D33       -3.13418  -0.00019   0.00000   0.00564   0.00557  -3.12862
   D34        0.02402   0.00017   0.00000   0.02057   0.02042   0.04444
   D35       -3.09107  -0.00031   0.00000   0.01181   0.01201  -3.07906
   D36        3.13654   0.00012   0.00000   0.00519   0.00476   3.14131
   D37        0.02146  -0.00036   0.00000  -0.00358  -0.00365   0.01780
   D38        0.07884  -0.00019   0.00000   0.02770   0.02800   0.10684
   D39       -3.10445  -0.00057   0.00000  -0.01107  -0.01055  -3.11500
   D40       -3.08739   0.00025   0.00000   0.03592   0.03588  -3.05151
   D41        0.01250  -0.00013   0.00000  -0.00284  -0.00267   0.00983
   D42        1.02395   0.00061   0.00000  -0.00296  -0.00289   1.02107
   D43        3.13285  -0.00001   0.00000  -0.01086  -0.01086   3.12199
   D44       -1.04387  -0.00064   0.00000  -0.02072  -0.02077  -1.06464
   D45       -2.11973   0.00058   0.00000  -0.00734  -0.00729  -2.12703
   D46       -0.01084  -0.00003   0.00000  -0.01525  -0.01526  -0.02610
   D47        2.09563  -0.00066   0.00000  -0.02511  -0.02518   2.07045
         Item               Value     Threshold  Converged?
 Maximum Force            0.009655     0.000450     NO 
 RMS     Force            0.002534     0.000300     NO 
 Maximum Displacement     0.424877     0.001800     NO 
 RMS     Displacement     0.070188     0.001200     NO 
 Predicted change in Energy=-1.021283D-03
 GradGradGradGradGradGradGradGradGradGradGradGradGradGradGradGradGradGrad

 Leave Link  103 at Mon Dec  1 22:41:34 2025, MaxMem=   104857600 cpu:               0.0 elap:               0.0
 (Enter /home/zhouoh/g16/l202.exe)
                          Input orientation:                          
 ---------------------------------------------------------------------
 Center     Atomic      Atomic             Coordinates (Angstroms)
 Number     Number       Type             X           Y           Z
 ---------------------------------------------------------------------
      1          6           0        0.867803    0.440786    1.162455
      2          6           0       -0.351398   -0.247934    0.981298
      3          6           0       -1.322022    0.281355    0.165945
      4          6           0       -1.119464    1.546419   -0.422466
      5          6           0        0.002812    2.257336   -0.114375
      6          7           0        0.938485    1.727938    0.709904
      7          1           0        1.553316    0.176751    1.958636
      8          1           0       -0.465069   -1.211486    1.457632
      9          1           0       -1.873801    1.955977   -1.077943
     10          1           0        0.200353    3.253879   -0.480181
     11          6           0       -2.625477   -0.440796   -0.145364
     12          8           0       -3.397324    0.100249   -0.890455
     13          6           0       -2.867752   -1.779764    0.483880
     14          1           0       -2.835357   -1.706286    1.572984
     15          1           0       -3.843361   -2.142858    0.175401
     16          1           0       -2.101034   -2.492500    0.171798
     17          6           0        1.987338   -0.594749   -0.259788
     18          9           0        1.365393   -0.524304   -1.406165
     19          9           0        2.094597   -1.819982    0.178550
     20          1           0        1.751650    2.281804    0.943427
     21          9           0        3.135627    0.038334   -0.280914
 ---------------------------------------------------------------------
                    Distance matrix (angstroms):
                    1          2          3          4          5
     1  C    0.000000
     2  C    1.411950   0.000000
     3  C    2.411179   1.373703   0.000000
     4  C    2.771936   2.404201   1.409838   0.000000
     5  C    2.382931   2.757235   2.395467   1.363755   0.000000
     6  N    1.366221   2.375190   2.738318   2.355921   1.354689
     7  H    1.083303   2.182539   3.390022   3.832673   3.321184
     8  H    2.143287   1.080855   2.152069   3.401329   3.837036
     9  H    3.851180   3.378670   2.157794   1.080006   2.130953
    10  H    3.325242   3.834455   3.401618   2.158858   1.079785
    11  C    3.832830   2.545192   1.522304   2.508761   3.766799
    12  O    4.745705   3.591986   2.335735   2.738442   4.100762
    13  C    4.398372   2.987636   2.595877   3.865419   4.989612
    14  H    4.300214   2.940567   2.867169   4.184040   5.158748
    15  H    5.463017   4.053889   3.497721   4.624697   5.851386
    16  H    4.289471   2.958816   2.881175   4.198749   5.202788
    17  C    2.085298   2.670254   3.449734   3.776676   3.477624
    18  F    2.788692   2.953596   3.216024   3.380838   3.356019
    19  F    2.753936   3.016393   4.011117   4.692980   4.591937
    20  H    2.053901   3.289958   3.748831   3.263396   2.044010
    21  F    2.718144   3.719472   4.486577   4.516653   3.842685
                    6          7          8          9         10
     6  N    0.000000
     7  H    2.084113   0.000000
     8  H    3.342047   2.500417   0.000000
     9  H    3.340262   4.912391   4.294938   0.000000
    10  H    2.071143   4.152956   4.912982   2.518727   0.000000
    11  C    4.258722   4.719162   2.798379   2.679410   4.663479
    12  O    4.899976   5.712443   3.978980   2.408319   4.801769
    13  C    5.180975   5.054572   2.654057   4.169292   5.973295
    14  H    5.175006   4.791138   2.424128   4.622139   6.167192
    15  H    6.175339   6.138781   3.731544   4.717042   6.775410
    16  H    5.228799   4.865384   2.443511   4.626277   6.224334
    17  C    2.726769   2.388513   3.056828   4.699359   4.248979
    18  F    3.119710   3.442190   3.467585   4.092908   4.060717
    19  F    3.769174   2.729219   2.925442   5.620038   5.455836
    20  H    1.011206   2.345471   4.169092   4.163652   2.319075
    21  F    2.943453   2.745624   4.189225   5.422821   4.358356
                   11         12         13         14         15
    11  C    0.000000
    12  O    1.201515   0.000000
    13  C    1.499160   2.388241   0.000000
    14  H    2.144349   3.106108   1.092060   0.000000
    15  H    2.117344   2.523198   1.085730   1.777612   0.000000
    16  H    2.141290   3.087247   1.092357   1.766545   1.777066
    17  C    4.616801   5.465834   5.052643   5.277589   6.048394
    18  F    4.186123   4.831096   4.802912   5.283815   5.679100
    19  F    4.928100   5.915340   4.971896   5.124628   5.946730
    20  H    5.268516   5.885087   6.168176   6.110797   7.174375
    21  F    5.782582   6.561617   6.319094   6.491016   7.326124
                   16         17         18         19         20
    16  H    0.000000
    17  C    4.527970   0.000000
    18  F    4.287176   1.306123   0.000000
    19  F    4.249193   1.305696   2.172980   0.000000
    20  H    6.183249   3.126953   3.680220   4.186562   0.000000
    21  F    5.833754   1.311415   2.171746   2.179034   2.906469
                   21
    21  F    0.000000
 Stoichiometry    C8H8F3NO(1+,2)
 Framework group  C1[X(C8H8F3NO)]
 Deg. of freedom    57
 Full point group                 C1      NOp   1
 RotChk:  IX=0 Diff= 6.53D-02
 Largest Abelian subgroup         C1      NOp   1
 Largest concise Abelian subgroup C1      NOp   1
                         Standard orientation:                         
 ---------------------------------------------------------------------
 Center     Atomic      Atomic             Coordinates (Angstroms)
 Number     Number       Type             X           Y           Z
 ---------------------------------------------------------------------
      1          6           0        0.909948    0.367837    1.161613
      2          6           0       -0.336080   -0.270184    0.977366
      3          6           0       -1.294543    0.315161    0.186304
      4          6           0       -1.050719    1.586105   -0.373064
      5          6           0        0.100609    2.246742   -0.060289
      6          7           0        1.024236    1.662370    0.740088
      7          1           0        1.593282    0.058593    1.943257
      8          1           0       -0.480921   -1.240434    1.431110
      9          1           0       -1.795898    2.039775   -1.009700
     10          1           0        0.331642    3.244058   -0.403682
     11          6           0       -2.627368   -0.349861   -0.127917
     12          8           0       -3.386034    0.238057   -0.850701
     13          6           0       -2.913231   -1.694175    0.470901
     14          1           0       -2.866799   -1.649210    1.561046
     15          1           0       -3.904941   -2.012800    0.164634
     16          1           0       -2.177111   -2.426986    0.132734
     17          6           0        1.974971   -0.672850   -0.298237
     18          9           0        1.344249   -0.550616   -1.435429
     19          9           0        2.040668   -1.911808    0.108591
     20          1           0        1.860014    2.179508    0.977956
     21          9           0        3.145952   -0.082708   -0.316765
 ---------------------------------------------------------------------
 Rotational constants (GHZ):           1.3025712           0.5503375           0.4603985
 Leave Link  202 at Mon Dec  1 22:41:34 2025, MaxMem=   104857600 cpu:               0.0 elap:               0.0
 (Enter /home/zhouoh/g16/l301.exe)
 Standard basis: STO-3G (5D, 7F)
 Ernie: Thresh=  0.10000D-02 Tol=  0.10000D-05 Strict=F.
 There are    73 symmetry adapted cartesian basis functions of A   symmetry.
 There are    73 symmetry adapted basis functions of A   symmetry.
    73 basis functions,   219 primitive gaussians,    73 cartesian basis functions
    49 alpha electrons       48 beta electrons
       nuclear repulsion energy       836.5808746084 Hartrees.
 IExCor=    0 DFT=F Ex=HF Corr=None ExCW=0 ScaHFX=  1.000000
 ScaDFX=  1.000000  1.000000  1.000000  1.000000 ScalE2=  1.000000  1.000000
 IRadAn=      5 IRanWt=     -1 IRanGd=            0 ICorTp=0 IEmpDi=  4
 NAtoms=   21 NActive=   21 NUniq=   21 SFac= 1.00D+00 NAtFMM=   60 NAOKFM=F Big=F
 Integral buffers will be    131072 words long.
 Raffenetti 2 integral format.
 Two-electron integral symmetry is turned on.
 Leave Link  301 at Mon Dec  1 22:41:34 2025, MaxMem=   104857600 cpu:               0.0 elap:               0.0
 (Enter /home/zhouoh/g16/l402.exe)
 External calculation of energy, first and second derivatives.
 Running external command "python ../GauUMA_client.py R"
         input file       "/home/zhouoh/scratch/Gau-3546021.EIn"
         output file      "/home/zhouoh/scratch/Gau-3546021.EOu"
         message file     "/home/zhouoh/scratch/Gau-3546021.EMs"
         fchk file        "/home/zhouoh/scratch/Gau-3546021.EFC"
         mat. el file     "/home/zhouoh/scratch/Gau-3546021.EUF"
Sent job to server.
Received result from server:
SCF Done:  E(UMA) =  -738.9274868424192     A.U.
 Recovered energy= -738.927486842     dipole=      0.000000000000      0.000000000000      0.000000000000
 Energy=    -738.927487     NIter=   0.
 Dipole moment=       0.000000       0.000000       0.000000
 Leave Link  402 at Mon Dec  1 22:41:38 2025, MaxMem=   104857600 cpu:               0.0 elap:               4.3
 (Enter /home/zhouoh/g16/l716.exe)
 Dipole        = 0.00000000D+00 0.00000000D+00 0.00000000D+00
 ***** Axes restored to original set *****
 -------------------------------------------------------------------
 Center     Atomic                   Forces (Hartrees/Bohr)
 Number     Number              X              Y              Z
 -------------------------------------------------------------------
      1        6           0.002925193   -0.003937569   -0.001688318
      2        6          -0.001001313   -0.000200172    0.000686613
      3        6          -0.000652432    0.000327622   -0.000535736
      4        6          -0.002314518   -0.001857718   -0.000163304
      5        6           0.003598668    0.000617971    0.001887718
      6        7          -0.001759251    0.004342433   -0.001690813
      7        1          -0.000172613    0.000417088    0.000365380
      8        1          -0.000179800    0.000023785   -0.000091319
      9        1          -0.000018437   -0.000085851   -0.000091342
     10        1          -0.000012969    0.000034668   -0.000016637
     11        6          -0.000460535   -0.000276233    0.000106077
     12        8           0.000107640    0.000158864   -0.000170984
     13        6           0.000155389    0.000094877    0.000019422
     14        1          -0.000035937   -0.000049153    0.000026400
     15        1           0.000000253    0.000000008    0.000031067
     16        1          -0.000060134   -0.000087056   -0.000035910
     17        6          -0.002250627    0.001752130    0.003546604
     18        9           0.000493471   -0.000024665   -0.000884710
     19        9           0.000599024   -0.000983106   -0.000753021
     20        1           0.000304628    0.000099749   -0.000039695
     21        9           0.000734297   -0.000367673   -0.000507492
 -------------------------------------------------------------------
 Cartesian Forces:  Max     0.004342433 RMS     0.001292649
 FormGI is forming the generalized inverse of G from B-inverse, IUseBI=4.
 Leave Link  716 at Mon Dec  1 22:41:38 2025, MaxMem=   104857600 cpu:               0.0 elap:               0.0
 (Enter /home/zhouoh/g16/l103.exe)

 GradGradGradGradGradGradGradGradGradGradGradGradGradGradGradGradGradGrad
 Berny optimization.
 Red2BG is reusing G-inverse.
 Internal  Forces:  Max     0.003395249 RMS     0.000652587
 Search for a saddle point.
 Step number   2 out of a maximum of  114
 All quantities printed in internal units (Hartrees-Bohrs-Radians)
 Swapping is turned off.
 Second derivative matrix not updated -- analytic derivatives used.
 ITU=  0  0
     Eigenvalues ---   -0.03314   0.00097   0.00138   0.00351   0.01023
     Eigenvalues ---    0.01276   0.01504   0.01856   0.02003   0.02035
     Eigenvalues ---    0.02409   0.02914   0.03124   0.03208   0.04829
     Eigenvalues ---    0.05283   0.05327   0.05509   0.05795   0.06728
     Eigenvalues ---    0.08665   0.10741   0.11322   0.12163   0.12324
     Eigenvalues ---    0.12469   0.12906   0.13102   0.14697   0.15067
     Eigenvalues ---    0.15250   0.18301   0.18690   0.20472   0.21782
     Eigenvalues ---    0.25424   0.29438   0.30804   0.31612   0.33618
     Eigenvalues ---    0.33812   0.34686   0.35638   0.35944   0.36909
     Eigenvalues ---    0.37241   0.37302   0.38067   0.39737   0.40762
     Eigenvalues ---    0.41865   0.44551   0.45619   0.47423   0.53204
     Eigenvalues ---    0.58881   0.89819
 Eigenvectors required to have negative eigenvalues:
                          R4        D4        D10       D3        D9
   1                    0.88892   0.17758  -0.16321   0.15583  -0.15277
                          R2        D1        D7        A6        D8
   1                   -0.11738  -0.10200   0.09318  -0.08524   0.08275
 RFO step:  Lambda0=2.210467420D-04 Lambda=-2.59413102D-04.
 Linear search not attempted -- option 19 set.
 Iteration  1 RMS(Cart)=  0.04020598 RMS(Int)=  0.00165943
 Iteration  2 RMS(Cart)=  0.00172579 RMS(Int)=  0.00003140
 Iteration  3 RMS(Cart)=  0.00000227 RMS(Int)=  0.00003136
 Iteration  4 RMS(Cart)=  0.00000000 RMS(Int)=  0.00003136
 ITry= 1 IFail=0 DXMaxC= 2.02D-01 DCOld= 1.00D+10 DXMaxT= 3.00D-01 DXLimC= 3.00D+00 Rises=F
 Variable       Old X    -DE/DX   Delta X   Delta X   Delta X     New X
                                 (Linear)    (Quad)   (Total)
    R1        2.66820   0.00175   0.00000  -0.00490  -0.00489   2.66331
    R2        2.58178   0.00340   0.00000  -0.00138  -0.00137   2.58042
    R3        2.04715   0.00006   0.00000  -0.00082  -0.00082   2.04633
    R4        3.94064  -0.00137   0.00000   0.07921   0.07921   4.01985
    R5        2.59592   0.00057   0.00000   0.00423   0.00423   2.60016
    R6        2.04252  -0.00004   0.00000  -0.00019  -0.00019   2.04233
    R7        2.66421  -0.00040   0.00000  -0.00350  -0.00351   2.66070
    R8        2.87674   0.00033   0.00000   0.00232   0.00232   2.87906
    R9        2.57712   0.00310   0.00000   0.00353   0.00352   2.58065
   R10        2.04092   0.00004   0.00000   0.00011   0.00011   2.04102
   R11        2.55999  -0.00185   0.00000  -0.00214  -0.00214   2.55785
   R12        2.04050   0.00004   0.00000   0.00004   0.00004   2.04054
   R13        1.91090   0.00029   0.00000   0.00083   0.00083   1.91173
   R14        2.27053   0.00011   0.00000  -0.00006  -0.00006   2.27048
   R15        2.83300   0.00004   0.00000  -0.00030  -0.00030   2.83270
   R16        2.06369   0.00002   0.00000  -0.00012  -0.00012   2.06358
   R17        2.05173  -0.00001   0.00000   0.00010   0.00010   2.05184
   R18        2.06425   0.00002   0.00000   0.00022   0.00022   2.06448
   R19        2.46821   0.00054   0.00000   0.00252   0.00252   2.47074
   R20        2.46741   0.00072   0.00000   0.00009   0.00009   2.46750
   R21        2.47821   0.00047   0.00000   0.00144   0.00144   2.47966
    A1        2.05073  -0.00042   0.00000   0.00236   0.00229   2.05303
    A2        2.11978   0.00004   0.00000   0.00636   0.00628   2.12607
    A3        1.70505   0.00057   0.00000  -0.00038  -0.00037   1.70467
    A4        2.02677   0.00010   0.00000   0.00168   0.00149   2.02826
    A5        1.78662   0.00034   0.00000  -0.01193  -0.01192   1.77470
    A6        1.61131  -0.00025   0.00000  -0.01154  -0.01153   1.59977
    A7        2.09247   0.00032   0.00000  -0.00042  -0.00041   2.09206
    A8        2.05908   0.00003   0.00000   0.00199   0.00197   2.06105
    A9        2.13028  -0.00036   0.00000  -0.00129  -0.00131   2.12898
   A10        2.08511  -0.00028   0.00000  -0.00000  -0.00000   2.08511
   A11        2.14551   0.00032   0.00000   0.00023   0.00023   2.14575
   A12        2.05255  -0.00004   0.00000  -0.00023  -0.00023   2.05233
   A13        2.08485   0.00039   0.00000  -0.00008  -0.00009   2.08476
   A14        2.08660  -0.00027   0.00000   0.00019   0.00020   2.08679
   A15        2.11088  -0.00013   0.00000  -0.00005  -0.00004   2.11084
   A16        2.09686   0.00026   0.00000  -0.00065  -0.00065   2.09621
   A17        2.15931  -0.00015   0.00000  -0.00026  -0.00026   2.15905
   A18        2.02688  -0.00011   0.00000   0.00091   0.00091   2.02779
   A19        2.13411  -0.00035   0.00000   0.00079   0.00081   2.13492
   A20        2.07275   0.00015   0.00000  -0.00082  -0.00083   2.07192
   A21        2.07361   0.00020   0.00000   0.00020   0.00019   2.07380
   A22        2.05245  -0.00030   0.00000  -0.00102  -0.00102   2.05143
   A23        2.06716   0.00013   0.00000   0.00031   0.00031   2.06747
   A24        2.16356   0.00017   0.00000   0.00070   0.00070   2.16426
   A25        1.93233   0.00008   0.00000   0.00184   0.00183   1.93416
   A26        1.90144  -0.00003   0.00000  -0.00033  -0.00033   1.90111
   A27        1.92774   0.00010   0.00000  -0.00061  -0.00061   1.92712
   A28        1.90976  -0.00006   0.00000   0.00004   0.00004   1.90980
   A29        1.88389  -0.00003   0.00000   0.00028   0.00028   1.88416
   A30        1.90851  -0.00006   0.00000  -0.00123  -0.00123   1.90727
   A31        1.89251   0.00089   0.00000  -0.01774  -0.01773   1.87478
   A32        1.85576   0.00189   0.00000   0.02286   0.02287   1.87863
   A33        1.81455   0.00109   0.00000  -0.00089  -0.00097   1.81358
   A34        1.96533  -0.00112   0.00000  -0.00071  -0.00061   1.96472
   A35        1.95710  -0.00109   0.00000  -0.00198  -0.00207   1.95504
   A36        1.96761  -0.00116   0.00000  -0.00100  -0.00109   1.96652
    D1        0.20366   0.00037   0.00000  -0.00972  -0.00974   0.19392
    D2       -2.99271   0.00035   0.00000  -0.00429  -0.00430  -2.99701
    D3        2.89502  -0.00030   0.00000   0.01635   0.01639   2.91141
    D4       -0.30134  -0.00033   0.00000   0.02179   0.02182  -0.27952
    D5       -1.68646  -0.00023   0.00000   0.00372   0.00372  -1.68274
    D6        1.40035  -0.00025   0.00000   0.00916   0.00916   1.40951
    D7       -0.22891  -0.00036   0.00000   0.00975   0.00976  -0.21915
    D8        2.99289  -0.00030   0.00000   0.00717   0.00717   3.00006
    D9       -2.94425   0.00029   0.00000  -0.01614  -0.01613  -2.96038
   D10        0.27756   0.00034   0.00000  -0.01872  -0.01872   0.25884
   D11        1.61382   0.00036   0.00000   0.00300   0.00300   1.61683
   D12       -1.44756   0.00042   0.00000   0.00041   0.00042  -1.44714
   D13        0.95923   0.00025   0.00000   0.09666   0.09662   1.05584
   D14       -1.15821   0.00003   0.00000   0.09419   0.09425  -1.06396
   D15        3.04456  -0.00001   0.00000   0.08550   0.08551   3.13007
   D16       -1.14280   0.00041   0.00000   0.09769   0.09766  -1.04514
   D17        3.02295   0.00019   0.00000   0.09522   0.09529   3.11824
   D18        0.94254   0.00015   0.00000   0.08653   0.08655   1.02909
   D19        3.09154   0.00032   0.00000   0.10095   0.10086  -3.09079
   D20        0.97410   0.00010   0.00000   0.09848   0.09850   1.07260
   D21       -1.10631   0.00006   0.00000   0.08978   0.08976  -1.01656
   D22       -0.06249  -0.00017   0.00000   0.00416   0.00416  -0.05833
   D23        3.07501  -0.00011   0.00000   0.00496   0.00496   3.07997
   D24        3.13618  -0.00016   0.00000  -0.00161  -0.00160   3.13458
   D25       -0.00950  -0.00010   0.00000  -0.00081  -0.00080  -0.01031
   D26       -0.06332  -0.00012   0.00000   0.00188   0.00188  -0.06144
   D27        3.12238  -0.00004   0.00000   0.00025   0.00025   3.12263
   D28        3.08215  -0.00018   0.00000   0.00113   0.00113   3.08328
   D29       -0.01534  -0.00010   0.00000  -0.00050  -0.00050  -0.01584
   D30       -3.11851   0.00002   0.00000   0.00980   0.00980  -3.10871
   D31        0.01699  -0.00001   0.00000   0.00908   0.00908   0.02608
   D32        0.01906   0.00007   0.00000   0.01058   0.01058   0.02964
   D33       -3.12862   0.00005   0.00000   0.00986   0.00986  -3.11875
   D34        0.04444   0.00008   0.00000  -0.00198  -0.00198   0.04246
   D35       -3.07906   0.00014   0.00000  -0.00205  -0.00204  -3.08110
   D36        3.14131  -0.00001   0.00000  -0.00032  -0.00032   3.14098
   D37        0.01780   0.00006   0.00000  -0.00039  -0.00038   0.01742
   D38        0.10684   0.00020   0.00000  -0.00425  -0.00424   0.10260
   D39       -3.11500   0.00014   0.00000  -0.00171  -0.00170  -3.11670
   D40       -3.05151   0.00013   0.00000  -0.00420  -0.00420  -3.05571
   D41        0.00983   0.00007   0.00000  -0.00166  -0.00165   0.00818
   D42        1.02107   0.00003   0.00000  -0.01474  -0.01474   1.00633
   D43        3.12199  -0.00001   0.00000  -0.01377  -0.01377   3.10823
   D44       -1.06464  -0.00005   0.00000  -0.01587  -0.01586  -1.08050
   D45       -2.12703  -0.00000   0.00000  -0.01551  -0.01551  -2.14254
   D46       -0.02610  -0.00004   0.00000  -0.01454  -0.01454  -0.04064
   D47        2.07045  -0.00008   0.00000  -0.01664  -0.01664   2.05381
         Item               Value     Threshold  Converged?
 Maximum Force            0.003395     0.000450     NO 
 RMS     Force            0.000653     0.000300     NO 
 Maximum Displacement     0.201999     0.001800     NO 
 RMS     Displacement     0.040302     0.001200     NO 
 Predicted change in Energy=-2.935696D-05
 GradGradGradGradGradGradGradGradGradGradGradGradGradGradGradGradGradGrad

 Leave Link  103 at Mon Dec  1 22:41:38 2025, MaxMem=   104857600 cpu:               0.0 elap:               0.0
 (Enter /home/zhouoh/g16/l202.exe)
                          Input orientation:                          
 ---------------------------------------------------------------------
 Center     Atomic      Atomic             Coordinates (Angstroms)
 Number     Number       Type             X           Y           Z
 ---------------------------------------------------------------------
      1          6           0        0.856736    0.450991    1.175396
      2          6           0       -0.355081   -0.244252    0.989806
      3          6           0       -1.325758    0.278446    0.166523
      4          6           0       -1.125216    1.539390   -0.426955
      5          6           0       -0.003809    2.255466   -0.119390
      6          7           0        0.928851    1.733014    0.710854
      7          1           0        1.550482    0.188408    1.964303
      8          1           0       -0.469410   -1.205065    1.471261
      9          1           0       -1.878297    1.943352   -1.087424
     10          1           0        0.192833    3.249961   -0.491271
     11          6           0       -2.627228   -0.449430   -0.145765
     12          8           0       -3.392266    0.081498   -0.904974
     13          6           0       -2.874074   -1.779869    0.499222
     14          1           0       -2.836252   -1.696646    1.587386
     15          1           0       -3.852962   -2.140811    0.198507
     16          1           0       -2.113315   -2.500340    0.189923
     17          6           0        2.010092   -0.597273   -0.272345
     18          9           0        1.437380   -0.417411   -1.433852
     19          9           0        2.041974   -1.853751    0.081510
     20          1           0        1.741543    2.289011    0.942851
     21          9           0        3.189094   -0.024524   -0.211306
 ---------------------------------------------------------------------
                    Distance matrix (angstroms):
                    1          2          3          4          5
     1  C    0.000000
     2  C    1.409364   0.000000
     3  C    2.410576   1.375944   0.000000
     4  C    2.771331   2.404517   1.407982   0.000000
     5  C    2.381836   2.757227   2.395393   1.365619   0.000000
     6  N    1.365497   2.374000   2.737759   2.356117   1.353557
     7  H    1.082870   2.183577   3.393062   3.834400   3.321193
     8  H    2.142130   1.080755   2.153248   3.400785   3.836957
     9  H    3.850702   3.379451   2.156293   1.080063   2.132653
    10  H    3.324572   3.834491   3.401281   2.160426   1.079807
    11  C    3.833305   2.548386   1.523532   2.508089   3.768220
    12  O    4.745364   3.594551   2.336097   2.737420   4.101819
    13  C    4.399192   2.990672   2.597043   3.864426   4.990494
    14  H    4.291880   2.936453   2.863814   4.178175   5.153155
    15  H    5.463790   4.056878   3.498655   4.623384   5.851862
    16  H    4.301478   2.970039   2.888329   4.204319   5.211850
    17  C    2.127215   2.704014   3.476691   3.797287   3.495327
    18  F    2.810596   3.019441   3.268081   3.377841   3.308944
    19  F    2.813043   3.026774   3.986867   4.669372   4.594699
    20  H    2.053115   3.288687   3.748786   3.264446   2.043462
    21  F    2.754806   3.748617   4.540753   4.594084   3.924466
                    6          7          8          9         10
     6  N    0.000000
     7  H    2.084074   0.000000
     8  H    3.341506   2.502962   0.000000
     9  H    3.340378   4.914203   4.294691   0.000000
    10  H    2.070738   4.152849   4.912978   2.520358   0.000000
    11  C    4.259407   4.723609   2.800346   2.678250   4.664505
    12  O    4.900046   5.716199   3.980556   2.406635   4.802420
    13  C    5.181445   5.059375   2.656628   4.167900   5.973791
    14  H    5.167869   4.789460   2.420140   4.617562   6.161581
    15  H    6.175334   6.143329   3.734159   4.715221   6.775298
    16  H    5.239029   4.878647   2.453974   4.629606   6.232841
    17  C    2.750635   2.414773   3.091521   4.715792   4.260465
    18  F    3.079398   3.453587   3.563135   4.084964   3.985847
    19  F    3.807886   2.820795   2.942660   5.581481   5.458505
    20  H    1.011645   2.343587   4.168465   4.164702   2.319188
    21  F    3.007992   2.731971   4.196352   5.506231   4.447270
                   11         12         13         14         15
    11  C    0.000000
    12  O    1.201485   0.000000
    13  C    1.499003   2.388509   0.000000
    14  H    2.145473   3.111721   1.091998   0.000000
    15  H    2.117007   2.523602   1.085785   1.777629   0.000000
    16  H    2.140800   3.082272   1.092474   1.766767   1.776430
    17  C    4.641402   5.481461   5.084184   5.306060   6.081086
    18  F    4.263946   4.884067   4.917490   5.387788   5.798485
    19  F    4.881108   5.852290   4.934316   5.107782   5.903080
    20  H    5.269753   5.885878   6.168996   6.103859   7.174668
    21  F    5.832190   6.618665   6.352016   6.506619   7.364589
                   16         17         18         19         20
    16  H    0.000000
    17  C    4.564849   0.000000
    18  F    4.425232   1.307458   0.000000
    19  F    4.206692   1.305744   2.173690   0.000000
    20  H    6.193926   3.143160   3.614686   4.242009   0.000000
    21  F    5.865680   1.312179   2.171977   2.178922   2.963094
                   21
    21  F    0.000000
 Stoichiometry    C8H8F3NO(1+,2)
 Framework group  C1[X(C8H8F3NO)]
 Deg. of freedom    57
 Full point group                 C1      NOp   1
 RotChk:  IX=0 Diff= 9.06D-03
 Largest Abelian subgroup         C1      NOp   1
 Largest concise Abelian subgroup C1      NOp   1
                         Standard orientation:                         
 ---------------------------------------------------------------------
 Center     Atomic      Atomic             Coordinates (Angstroms)
 Number     Number       Type             X           Y           Z
 ---------------------------------------------------------------------
      1          6           0        0.889224    0.384577    1.181915
      2          6           0       -0.348658   -0.261412    0.990466
      3          6           0       -1.304132    0.313536    0.184410
      4          6           0       -1.060433    1.578037   -0.384854
      5          6           0        0.088603    2.245698   -0.070433
      6          7           0        1.006137    1.672260    0.742843
      7          1           0        1.577419    0.080462    1.960702
      8          1           0       -0.495725   -1.226956    1.453206
      9          1           0       -1.801906    2.022980   -1.031985
     10          1           0        0.319827    3.239612   -0.423495
     11          6           0       -2.633569   -0.359154   -0.133765
     12          8           0       -3.382864    0.215098   -0.876974
     13          6           0       -2.925815   -1.692425    0.485904
     14          1           0       -2.878458   -1.632871    1.575248
     15          1           0       -3.919202   -2.010683    0.184537
     16          1           0       -2.194189   -2.434099    0.157053
     17          6           0        1.994226   -0.675906   -0.294361
     18          9           0        1.421693   -0.451318   -1.448143
     19          9           0        1.981528   -1.939659    0.033868
     20          1           0        1.840282    2.192953    0.980554
     21          9           0        3.194028   -0.148547   -0.229685
 ---------------------------------------------------------------------
 Rotational constants (GHZ):           1.2952105           0.5451427           0.4573137
 Leave Link  202 at Mon Dec  1 22:41:38 2025, MaxMem=   104857600 cpu:               0.0 elap:               0.0
 (Enter /home/zhouoh/g16/l301.exe)
 Standard basis: STO-3G (5D, 7F)
 Ernie: Thresh=  0.10000D-02 Tol=  0.10000D-05 Strict=F.
 There are    73 symmetry adapted cartesian basis functions of A   symmetry.
 There are    73 symmetry adapted basis functions of A   symmetry.
    73 basis functions,   219 primitive gaussians,    73 cartesian basis functions
    49 alpha electrons       48 beta electrons
       nuclear repulsion energy       834.2844067583 Hartrees.
 IExCor=    0 DFT=F Ex=HF Corr=None ExCW=0 ScaHFX=  1.000000
 ScaDFX=  1.000000  1.000000  1.000000  1.000000 ScalE2=  1.000000  1.000000
 IRadAn=      5 IRanWt=     -1 IRanGd=            0 ICorTp=0 IEmpDi=  4
 NAtoms=   21 NActive=   21 NUniq=   21 SFac= 1.00D+00 NAtFMM=   60 NAOKFM=F Big=F
 Integral buffers will be    131072 words long.
 Raffenetti 2 integral format.
 Two-electron integral symmetry is turned on.
 Leave Link  301 at Mon Dec  1 22:41:38 2025, MaxMem=   104857600 cpu:               0.0 elap:               0.0
 (Enter /home/zhouoh/g16/l402.exe)
 External calculation of energy, first and second derivatives.
 Running external command "python ../GauUMA_client.py R"
         input file       "/home/zhouoh/scratch/Gau-3546021.EIn"
         output file      "/home/zhouoh/scratch/Gau-3546021.EOu"
         message file     "/home/zhouoh/scratch/Gau-3546021.EMs"
         fchk file        "/home/zhouoh/scratch/Gau-3546021.EFC"
         mat. el file     "/home/zhouoh/scratch/Gau-3546021.EUF"
Sent job to server.
Received result from server:
SCF Done:  E(UMA) =  -738.927511795801     A.U.
 Recovered energy= -738.927511796     dipole=      0.000000000000      0.000000000000      0.000000000000
 Energy=    -738.927512     NIter=   0.
 Dipole moment=       0.000000       0.000000       0.000000
 Leave Link  402 at Mon Dec  1 22:41:43 2025, MaxMem=   104857600 cpu:               0.0 elap:               4.4
 (Enter /home/zhouoh/g16/l716.exe)
 Dipole        = 0.00000000D+00 0.00000000D+00 0.00000000D+00
 ***** Axes restored to original set *****
 -------------------------------------------------------------------
 Center     Atomic                   Forces (Hartrees/Bohr)
 Number     Number              X              Y              Z
 -------------------------------------------------------------------
      1        6           0.000385653   -0.000395982   -0.000458115
      2        6          -0.000216958    0.000039420    0.000096882
      3        6          -0.000019336   -0.000020285    0.000019550
      4        6          -0.000121579   -0.000029485    0.000011550
      5        6           0.000262289   -0.000022889    0.000199794
      6        7          -0.000230010    0.000307823   -0.000123357
      7        1          -0.000038245    0.000081833    0.000071543
      8        1          -0.000000328   -0.000028313   -0.000026055
      9        1           0.000003363   -0.000000188   -0.000025655
     10        1          -0.000004692    0.000007061   -0.000010781
     11        6          -0.000001110   -0.000036845    0.000020194
     12        8           0.000033238    0.000008095   -0.000008068
     13        6           0.000006228    0.000002943    0.000009603
     14        1           0.000000511   -0.000004261    0.000003620
     15        1          -0.000011115   -0.000001004    0.000003162
     16        1          -0.000002768   -0.000003925   -0.000003118
     17        6          -0.000236959    0.000349991    0.000551107
     18        9           0.000065805   -0.000045409   -0.000108368
     19        9           0.000008320   -0.000147413   -0.000138701
     20        1           0.000003464    0.000016904   -0.000013374
     21        9           0.000114233   -0.000078065   -0.000071416
 -------------------------------------------------------------------
 Cartesian Forces:  Max     0.000551107 RMS     0.000151589
 FormGI is forming the generalized inverse of G from B-inverse, IUseBI=4.
 Leave Link  716 at Mon Dec  1 22:41:43 2025, MaxMem=   104857600 cpu:               0.0 elap:               0.0
 (Enter /home/zhouoh/g16/l103.exe)

 GradGradGradGradGradGradGradGradGradGradGradGradGradGradGradGradGradGrad
 Berny optimization.
 Red2BG is reusing G-inverse.
 Internal  Forces:  Max     0.000223650 RMS     0.000069461
 Search for a saddle point.
 Step number   3 out of a maximum of  114
 All quantities printed in internal units (Hartrees-Bohrs-Radians)
 Swapping is turned off.
 Second derivative matrix not updated -- analytic derivatives used.
 ITU=  0  0  0
     Eigenvalues ---   -0.02261   0.00100   0.00129   0.00346   0.01058
     Eigenvalues ---    0.01302   0.01513   0.01882   0.01988   0.02054
     Eigenvalues ---    0.02411   0.02891   0.03085   0.03178   0.04602
     Eigenvalues ---    0.05226   0.05280   0.05324   0.05616   0.05955
     Eigenvalues ---    0.08030   0.10760   0.11339   0.12155   0.12318
     Eigenvalues ---    0.12458   0.12900   0.13096   0.14578   0.14728
     Eigenvalues ---    0.14944   0.18260   0.18742   0.20505   0.21792
     Eigenvalues ---    0.25469   0.29111   0.30612   0.31374   0.33572
     Eigenvalues ---    0.33815   0.34680   0.35634   0.36135   0.36998
     Eigenvalues ---    0.37259   0.37299   0.38338   0.39488   0.40537
     Eigenvalues ---    0.42087   0.44795   0.45565   0.47260   0.53155
     Eigenvalues ---    0.58869   0.89729
 Eigenvectors required to have negative eigenvalues:
                          R4        D4        D10       D3        D9
   1                    0.88612   0.18245  -0.17200   0.15930  -0.15346
                          D1        R2        D7        A6        D2
   1                   -0.11052  -0.10669   0.10302  -0.09676  -0.08737
 RFO step:  Lambda0=5.599953412D-06 Lambda=-1.10009905D-05.
 Linear search not attempted -- option 19 set.
 Iteration  1 RMS(Cart)=  0.01158138 RMS(Int)=  0.00013851
 Iteration  2 RMS(Cart)=  0.00014401 RMS(Int)=  0.00000120
 Iteration  3 RMS(Cart)=  0.00000002 RMS(Int)=  0.00000120
 ITry= 1 IFail=0 DXMaxC= 5.47D-02 DCOld= 1.00D+10 DXMaxT= 3.00D-01 DXLimC= 3.00D+00 Rises=F
 Variable       Old X    -DE/DX   Delta X   Delta X   Delta X     New X
                                 (Linear)    (Quad)   (Total)
    R1        2.66331   0.00015   0.00000  -0.00105  -0.00105   2.66226
    R2        2.58042   0.00022   0.00000  -0.00136  -0.00136   2.57906
    R3        2.04633   0.00001   0.00000  -0.00012  -0.00012   2.04620
    R4        4.01985  -0.00022   0.00000   0.01559   0.01559   4.03544
    R5        2.60016  -0.00006   0.00000   0.00032   0.00032   2.60048
    R6        2.04233   0.00001   0.00000   0.00001   0.00001   2.04234
    R7        2.66070   0.00003   0.00000  -0.00016  -0.00016   2.66054
    R8        2.87906  -0.00001   0.00000   0.00012   0.00012   2.87917
    R9        2.58065   0.00015   0.00000  -0.00026  -0.00026   2.58038
   R10        2.04102   0.00001   0.00000   0.00004   0.00004   2.04107
   R11        2.55785  -0.00021   0.00000   0.00004   0.00004   2.55789
   R12        2.04054   0.00001   0.00000   0.00002   0.00002   2.04056
   R13        1.91173   0.00001   0.00000   0.00007   0.00007   1.91180
   R14        2.27048  -0.00001   0.00000  -0.00001  -0.00001   2.27047
   R15        2.83270   0.00001   0.00000   0.00001   0.00001   2.83272
   R16        2.06358   0.00000   0.00000  -0.00005  -0.00005   2.06353
   R17        2.05184   0.00001   0.00000   0.00005   0.00005   2.05188
   R18        2.06448   0.00000   0.00000   0.00006   0.00006   2.06453
   R19        2.47074   0.00006   0.00000   0.00051   0.00051   2.47125
   R20        2.46750   0.00010   0.00000   0.00013   0.00013   2.46763
   R21        2.47966   0.00007   0.00000   0.00001   0.00001   2.47967
    A1        2.05303  -0.00005   0.00000   0.00051   0.00051   2.05354
    A2        2.12607  -0.00001   0.00000   0.00090   0.00090   2.12696
    A3        1.70467   0.00008   0.00000  -0.00019  -0.00019   1.70449
    A4        2.02826   0.00001   0.00000   0.00019   0.00019   2.02845
    A5        1.77470   0.00008   0.00000  -0.00107  -0.00107   1.77363
    A6        1.59977  -0.00005   0.00000  -0.00265  -0.00265   1.59713
    A7        2.09206   0.00002   0.00000  -0.00025  -0.00025   2.09181
    A8        2.06105   0.00000   0.00000   0.00030   0.00030   2.06135
    A9        2.12898  -0.00002   0.00000  -0.00004  -0.00004   2.12893
   A10        2.08511  -0.00002   0.00000   0.00021   0.00021   2.08532
   A11        2.14575  -0.00003   0.00000  -0.00042  -0.00042   2.14533
   A12        2.05233   0.00004   0.00000   0.00021   0.00021   2.05253
   A13        2.08476   0.00001   0.00000  -0.00025  -0.00026   2.08450
   A14        2.08679  -0.00000   0.00000   0.00015   0.00015   2.08695
   A15        2.11084  -0.00001   0.00000   0.00014   0.00014   2.11098
   A16        2.09621   0.00003   0.00000  -0.00019  -0.00019   2.09603
   A17        2.15905  -0.00003   0.00000   0.00010   0.00010   2.15915
   A18        2.02779  -0.00001   0.00000   0.00009   0.00009   2.02788
   A19        2.13492  -0.00001   0.00000   0.00042   0.00042   2.13533
   A20        2.07192   0.00002   0.00000   0.00012   0.00012   2.07204
   A21        2.07380  -0.00001   0.00000  -0.00042  -0.00042   2.07338
   A22        2.05143  -0.00005   0.00000  -0.00021  -0.00021   2.05123
   A23        2.06747   0.00003   0.00000   0.00020   0.00020   2.06768
   A24        2.16426   0.00002   0.00000   0.00000   0.00000   2.16426
   A25        1.93416   0.00001   0.00000   0.00042   0.00042   1.93458
   A26        1.90111  -0.00000   0.00000  -0.00010  -0.00010   1.90101
   A27        1.92712   0.00000   0.00000  -0.00028  -0.00028   1.92684
   A28        1.90980  -0.00000   0.00000   0.00023   0.00023   1.91002
   A29        1.88416  -0.00000   0.00000   0.00003   0.00003   1.88419
   A30        1.90727  -0.00000   0.00000  -0.00029  -0.00029   1.90698
   A31        1.87478   0.00014   0.00000  -0.00428  -0.00428   1.87050
   A32        1.87863   0.00021   0.00000   0.00370   0.00370   1.88233
   A33        1.81358   0.00021   0.00000   0.00129   0.00129   1.81487
   A34        1.96472  -0.00020   0.00000  -0.00059  -0.00059   1.96414
   A35        1.95504  -0.00015   0.00000  -0.00008  -0.00008   1.95495
   A36        1.96652  -0.00015   0.00000   0.00006   0.00005   1.96657
    D1        0.19392   0.00006   0.00000  -0.00220  -0.00220   0.19172
    D2       -2.99701   0.00005   0.00000  -0.00206  -0.00206  -2.99907
    D3        2.91141  -0.00006   0.00000   0.00211   0.00211   2.91352
    D4       -0.27952  -0.00007   0.00000   0.00225   0.00225  -0.27727
    D5       -1.68274  -0.00006   0.00000  -0.00099  -0.00099  -1.68373
    D6        1.40951  -0.00007   0.00000  -0.00085  -0.00085   1.40866
    D7       -0.21915  -0.00006   0.00000   0.00235   0.00235  -0.21680
    D8        3.00006  -0.00006   0.00000   0.00056   0.00056   3.00062
    D9       -2.96038   0.00006   0.00000  -0.00189  -0.00189  -2.96227
   D10        0.25884   0.00006   0.00000  -0.00368  -0.00368   0.25516
   D11        1.61683   0.00007   0.00000   0.00166   0.00166   1.61849
   D12       -1.44714   0.00007   0.00000  -0.00013  -0.00013  -1.44727
   D13        1.05584   0.00002   0.00000   0.02740   0.02740   1.08324
   D14       -1.06396   0.00006   0.00000   0.02844   0.02845  -1.03552
   D15        3.13007   0.00003   0.00000   0.02600   0.02599  -3.12712
   D16       -1.04514   0.00003   0.00000   0.02722   0.02722  -1.01792
   D17        3.11824   0.00007   0.00000   0.02826   0.02826  -3.13668
   D18        1.02909   0.00003   0.00000   0.02581   0.02581   1.05490
   D19       -3.09079   0.00002   0.00000   0.02782   0.02782  -3.06296
   D20        1.07260   0.00005   0.00000   0.02887   0.02887   1.10146
   D21       -1.01656   0.00002   0.00000   0.02642   0.02641  -0.99014
   D22       -0.05833  -0.00003   0.00000   0.00074   0.00074  -0.05759
   D23        3.07997  -0.00003   0.00000   0.00022   0.00022   3.08019
   D24        3.13458  -0.00002   0.00000   0.00058   0.00058   3.13517
   D25       -0.01031  -0.00001   0.00000   0.00006   0.00006  -0.01024
   D26       -0.06144  -0.00001   0.00000   0.00069   0.00069  -0.06075
   D27        3.12263  -0.00000   0.00000  -0.00034  -0.00034   3.12229
   D28        3.08328  -0.00002   0.00000   0.00118   0.00118   3.08446
   D29       -0.01584  -0.00001   0.00000   0.00015   0.00015  -0.01569
   D30       -3.10871   0.00001   0.00000   0.00667   0.00667  -3.10204
   D31        0.02608   0.00001   0.00000   0.00664   0.00664   0.03272
   D32        0.02964   0.00002   0.00000   0.00616   0.00616   0.03580
   D33       -3.11875   0.00002   0.00000   0.00613   0.00613  -3.11263
   D34        0.04246   0.00001   0.00000  -0.00054  -0.00054   0.04192
   D35       -3.08110   0.00002   0.00000  -0.00077  -0.00077  -3.08187
   D36        3.14098   0.00001   0.00000   0.00050   0.00050   3.14149
   D37        0.01742   0.00001   0.00000   0.00027   0.00027   0.01769
   D38        0.10260   0.00003   0.00000  -0.00106  -0.00106   0.10154
   D39       -3.11670   0.00003   0.00000   0.00075   0.00075  -3.11594
   D40       -3.05571   0.00002   0.00000  -0.00084  -0.00084  -3.05655
   D41        0.00818   0.00002   0.00000   0.00097   0.00097   0.00915
   D42        1.00633  -0.00000   0.00000  -0.00514  -0.00514   1.00119
   D43        3.10823  -0.00001   0.00000  -0.00466  -0.00466   3.10357
   D44       -1.08050  -0.00001   0.00000  -0.00526  -0.00526  -1.08576
   D45       -2.14254  -0.00000   0.00000  -0.00518  -0.00518  -2.14772
   D46       -0.04064  -0.00000   0.00000  -0.00470  -0.00470  -0.04534
   D47        2.05381  -0.00000   0.00000  -0.00530  -0.00530   2.04851
         Item               Value     Threshold  Converged?
 Maximum Force            0.000224     0.000450     YES
 RMS     Force            0.000069     0.000300     YES
 Maximum Displacement     0.054714     0.001800     NO 
 RMS     Displacement     0.011584     0.001200     NO 
 Predicted change in Energy=-2.739499D-06
 GradGradGradGradGradGradGradGradGradGradGradGradGradGradGradGradGradGrad

 Leave Link  103 at Mon Dec  1 22:41:43 2025, MaxMem=   104857600 cpu:               0.0 elap:               0.0
 (Enter /home/zhouoh/g16/l202.exe)
                          Input orientation:                          
 ---------------------------------------------------------------------
 Center     Atomic      Atomic             Coordinates (Angstroms)
 Number     Number       Type             X           Y           Z
 ---------------------------------------------------------------------
      1          6           0        0.854589    0.453412    1.176506
      2          6           0       -0.355338   -0.243747    0.989984
      3          6           0       -1.326406    0.277781    0.166136
      4          6           0       -1.127426    1.538849   -0.427407
      5          6           0       -0.006743    2.255850   -0.119976
      6          7           0        0.926094    1.734217    0.710619
      7          1           0        1.549791    0.191320    1.964203
      8          1           0       -0.468513   -1.204926    1.470991
      9          1           0       -1.880613    1.941673   -1.088488
     10          1           0        0.189353    3.250297   -0.492303
     11          6           0       -2.626415   -0.452520   -0.146873
     12          8           0       -3.388774    0.073973   -0.911838
     13          6           0       -2.875209   -1.779528    0.504419
     14          1           0       -2.836425   -1.691835    1.592174
     15          1           0       -3.854851   -2.140165    0.205709
     16          1           0       -2.115963   -2.502666    0.197531
     17          6           0        2.015526   -0.597817   -0.275165
     18          9           0        1.458915   -0.388457   -1.439857
     19          9           0        2.022649   -1.860828    0.056351
     20          1           0        1.737935    2.291393    0.942929
     21          9           0        3.203141   -0.046108   -0.191385
 ---------------------------------------------------------------------
                    Distance matrix (angstroms):
                    1          2          3          4          5
     1  C    0.000000
     2  C    1.408809   0.000000
     3  C    2.410069   1.376115   0.000000
     4  C    2.771117   2.404738   1.407899   0.000000
     5  C    2.381500   2.757085   2.395022   1.365480   0.000000
     6  N    1.364780   2.373279   2.737046   2.355889   1.353578
     7  H    1.082805   2.183553   3.393086   3.834465   3.320977
     8  H    2.141823   1.080760   2.153381   3.400938   3.836846
     9  H    3.850513   3.379730   2.156331   1.080087   2.132630
    10  H    3.324157   3.834345   3.401017   2.160364   1.079817
    11  C    3.832679   2.548298   1.523594   2.508230   3.768113
    12  O    4.744606   3.594386   2.336007   2.737560   4.101923
    13  C    4.398763   2.990677   2.597257   3.864540   4.990215
    14  H    4.289342   2.935198   2.862364   4.175728   5.150027
    15  H    5.463324   4.056856   3.498723   4.623292   5.851406
    16  H    4.303599   2.971615   2.890548   4.207326   5.214700
    17  C    2.135464   2.710528   3.482805   3.803507   3.501010
    18  F    2.814127   3.035882   3.283459   3.380639   3.298879
    19  F    2.823972   3.023481   3.975157   4.659914   4.593100
    20  H    2.052568   3.288000   3.748097   3.264113   2.043265
    21  F    2.763394   3.754659   4.555165   4.617532   3.950629
                    6          7          8          9         10
     6  N    0.000000
     7  H    2.083507   0.000000
     8  H    3.340907   2.503261   0.000000
     9  H    3.340273   4.914299   4.294887   0.000000
    10  H    2.070822   4.152415   4.912873   2.520454   0.000000
    11  C    4.258806   4.723544   2.800025   2.678623   4.664625
    12  O    4.899680   5.716188   3.980124   2.407086   4.802919
    13  C    5.180620   5.059233   2.656429   4.168203   5.973619
    14  H    5.164448   4.787857   2.420490   4.615399   6.158331
    15  H    6.174399   6.143149   3.734019   4.715290   6.774945
    16  H    5.241044   4.880209   2.453552   4.632644   6.235938
    17  C    2.756268   2.419591   3.096465   4.721272   4.264978
    18  F    3.068255   3.454277   3.585336   4.087226   3.968649
    19  F    3.815082   2.841621   2.938929   5.568225   5.457618
    20  H    1.011682   2.342799   4.167915   4.164475   2.318942
    21  F    3.027889   2.726995   4.193734   5.531783   4.476578
                   11         12         13         14         15
    11  C    0.000000
    12  O    1.201482   0.000000
    13  C    1.499009   2.388514   0.000000
    14  H    2.145761   3.113398   1.091973   0.000000
    15  H    2.116958   2.523597   1.085811   1.777773   0.000000
    16  H    2.140624   3.080555   1.092503   1.766788   1.776290
    17  C    4.645986   5.482984   5.091511   5.312746   6.088629
    18  F    4.285537   4.898238   4.949739   5.416821   5.832021
    19  F    4.861936   5.827893   4.918982   5.098814   5.886029
    20  H    5.269182   5.885598   6.168127   6.100197   7.173664
    21  F    5.843875   6.632256   6.358870   6.508906   7.372789
                   16         17         18         19         20
    16  H    0.000000
    17  C    4.573958   0.000000
    18  F    4.464377   1.307729   0.000000
    19  F    4.190464   1.305815   2.173548   0.000000
    20  H    6.196059   3.147752   3.596821   4.255353   0.000000
    21  F    5.871865   1.312185   2.172145   2.179024   2.982853
                   21
    21  F    0.000000
 Stoichiometry    C8H8F3NO(1+,2)
 Framework group  C1[X(C8H8F3NO)]
 Deg. of freedom    57
 Full point group                 C1      NOp   1
 RotChk:  IX=0 Diff= 1.88D-03
 Largest Abelian subgroup         C1      NOp   1
 Largest concise Abelian subgroup C1      NOp   1
                         Standard orientation:                         
 ---------------------------------------------------------------------
 Center     Atomic      Atomic             Coordinates (Angstroms)
 Number     Number       Type             X           Y           Z
 ---------------------------------------------------------------------
      1          6           0        0.884949    0.388782    1.184824
      2          6           0       -0.350957   -0.259369    0.992007
      3          6           0       -1.306186    0.313610    0.183971
      4          6           0       -1.063561    1.577712   -0.386431
      5          6           0        0.084517    2.246649   -0.071831
      6          7           0        1.001571    1.674849    0.743172
      7          1           0        1.573951    0.085924    1.963296
      8          1           0       -0.497280   -1.224840    1.455148
      9          1           0       -1.804638    2.020872   -1.035277
     10          1           0        0.315491    3.240182   -0.426156
     11          6           0       -2.633987   -0.361869   -0.135419
     12          8           0       -3.380168    0.207204   -0.885704
     13          6           0       -2.928544   -1.691129    0.491745
     14          1           0       -2.880985   -1.626024    1.580738
     15          1           0       -3.922408   -2.009401    0.191876
     16          1           0       -2.198238   -2.435792    0.166640
     17          6           0        1.998647   -0.676374   -0.293461
     18          9           0        1.444258   -0.424028   -1.450669
     19          9           0        1.960572   -1.944970    0.013731
     20          1           0        1.834710    2.196987    0.981398
     21          9           0        3.206335   -0.170730   -0.206025
 ---------------------------------------------------------------------
 Rotational constants (GHZ):           1.2932048           0.5441555           0.4567207
 Leave Link  202 at Mon Dec  1 22:41:43 2025, MaxMem=   104857600 cpu:               0.0 elap:               0.0
 (Enter /home/zhouoh/g16/l301.exe)
 Standard basis: STO-3G (5D, 7F)
 Ernie: Thresh=  0.10000D-02 Tol=  0.10000D-05 Strict=F.
 There are    73 symmetry adapted cartesian basis functions of A   symmetry.
 There are    73 symmetry adapted basis functions of A   symmetry.
    73 basis functions,   219 primitive gaussians,    73 cartesian basis functions
    49 alpha electrons       48 beta electrons
       nuclear repulsion energy       833.8262698883 Hartrees.
 IExCor=    0 DFT=F Ex=HF Corr=None ExCW=0 ScaHFX=  1.000000
 ScaDFX=  1.000000  1.000000  1.000000  1.000000 ScalE2=  1.000000  1.000000
 IRadAn=      5 IRanWt=     -1 IRanGd=            0 ICorTp=0 IEmpDi=  4
 NAtoms=   21 NActive=   21 NUniq=   21 SFac= 1.00D+00 NAtFMM=   60 NAOKFM=F Big=F
 Integral buffers will be    131072 words long.
 Raffenetti 2 integral format.
 Two-electron integral symmetry is turned on.
 Leave Link  301 at Mon Dec  1 22:41:43 2025, MaxMem=   104857600 cpu:               0.0 elap:               0.0
 (Enter /home/zhouoh/g16/l402.exe)
 External calculation of energy, first and second derivatives.
 Running external command "python ../GauUMA_client.py R"
         input file       "/home/zhouoh/scratch/Gau-3546021.EIn"
         output file      "/home/zhouoh/scratch/Gau-3546021.EOu"
         message file     "/home/zhouoh/scratch/Gau-3546021.EMs"
         fchk file        "/home/zhouoh/scratch/Gau-3546021.EFC"
         mat. el file     "/home/zhouoh/scratch/Gau-3546021.EUF"
Sent job to server.
Received result from server:
SCF Done:  E(UMA) =  -738.9275145820283     A.U.
 Recovered energy= -738.927514582     dipole=      0.000000000000      0.000000000000      0.000000000000
 Energy=    -738.927515     NIter=   0.
 Dipole moment=       0.000000       0.000000       0.000000
 Leave Link  402 at Mon Dec  1 22:41:47 2025, MaxMem=   104857600 cpu:               0.0 elap:               4.4
 (Enter /home/zhouoh/g16/l716.exe)
 Dipole        = 0.00000000D+00 0.00000000D+00 0.00000000D+00
 ***** Axes restored to original set *****
 -------------------------------------------------------------------
 Center     Atomic                   Forces (Hartrees/Bohr)
 Number     Number              X              Y              Z
 -------------------------------------------------------------------
      1        6           0.000009111   -0.000013187   -0.000008979
      2        6          -0.000005131    0.000002397    0.000004926
      3        6          -0.000002332    0.000001296   -0.000002134
      4        6          -0.000007148   -0.000005353   -0.000000185
      5        6           0.000015184   -0.000000074    0.000010070
      6        7          -0.000012072    0.000017988   -0.000003771
      7        1          -0.000001445    0.000002572    0.000001799
      8        1          -0.000000253   -0.000001464   -0.000001264
      9        1           0.000000343   -0.000000319   -0.000000656
     10        1          -0.000000376   -0.000000119   -0.000000323
     11        6          -0.000001259   -0.000002099    0.000000986
     12        8           0.000002904    0.000000022   -0.000000218
     13        6           0.000000695    0.000000322    0.000000425
     14        1          -0.000000090   -0.000000226    0.000000041
     15        1           0.000001225    0.000000571   -0.000000196
     16        1          -0.000000233    0.000000028   -0.000000114
     17        6          -0.000005059    0.000010636    0.000014172
     18        9           0.000002623   -0.000004637   -0.000004544
     19        9          -0.000001369   -0.000003776   -0.000005126
     20        1           0.000000325    0.000000059   -0.000000816
     21        9           0.000004364   -0.000004636   -0.000004087
 -------------------------------------------------------------------
 Cartesian Forces:  Max     0.000017988 RMS     0.000005382
 FormGI is forming the generalized inverse of G from B-inverse, IUseBI=4.
 Leave Link  716 at Mon Dec  1 22:41:47 2025, MaxMem=   104857600 cpu:               0.0 elap:               0.0
 (Enter /home/zhouoh/g16/l103.exe)

 GradGradGradGradGradGradGradGradGradGradGradGradGradGradGradGradGradGrad
 Berny optimization.
 Red2BG is reusing G-inverse.
 Internal  Forces:  Max     0.000012368 RMS     0.000003170
 Search for a saddle point.
 Step number   4 out of a maximum of  114
 All quantities printed in internal units (Hartrees-Bohrs-Radians)
 Swapping is turned off.
 Second derivative matrix not updated -- analytic derivatives used.
 ITU=  0  0  0  0
     Eigenvalues ---   -0.02105   0.00099   0.00128   0.00344   0.01063
     Eigenvalues ---    0.01306   0.01519   0.01888   0.01991   0.02058
     Eigenvalues ---    0.02412   0.02886   0.03084   0.03175   0.04553
     Eigenvalues ---    0.05178   0.05278   0.05326   0.05616   0.05803
     Eigenvalues ---    0.07932   0.10759   0.11344   0.12155   0.12321
     Eigenvalues ---    0.12461   0.12902   0.13098   0.14554   0.14693
     Eigenvalues ---    0.14898   0.18262   0.18761   0.20514   0.21794
     Eigenvalues ---    0.25489   0.29059   0.30575   0.31358   0.33559
     Eigenvalues ---    0.33816   0.34675   0.35640   0.36163   0.37014
     Eigenvalues ---    0.37261   0.37295   0.38410   0.39468   0.40484
     Eigenvalues ---    0.42126   0.44912   0.45596   0.47317   0.53199
     Eigenvalues ---    0.58866   0.89723
 Eigenvectors required to have negative eigenvalues:
                          R4        D4        D10       D3        D9
   1                    0.88608   0.18273  -0.17281   0.15941  -0.15302
                          D1        D7        R2        A6        D2
   1                   -0.11206   0.10496  -0.10352  -0.09850  -0.08874
 RFO step:  Lambda0=9.604397885D-10 Lambda=-1.51582273D-08.
 Linear search not attempted -- option 19 set.
 Iteration  1 RMS(Cart)=  0.00035113 RMS(Int)=  0.00000011
 Iteration  2 RMS(Cart)=  0.00000012 RMS(Int)=  0.00000000
 ITry= 1 IFail=0 DXMaxC= 1.68D-03 DCOld= 1.00D+10 DXMaxT= 3.00D-01 DXLimC= 3.00D+00 Rises=F
 Variable       Old X    -DE/DX   Delta X   Delta X   Delta X     New X
                                 (Linear)    (Quad)   (Total)
    R1        2.66226   0.00000   0.00000  -0.00002  -0.00002   2.66225
    R2        2.57906   0.00001   0.00000   0.00000   0.00000   2.57906
    R3        2.04620  -0.00000   0.00000  -0.00000  -0.00000   2.04620
    R4        4.03544   0.00000   0.00000   0.00027   0.00027   4.03571
    R5        2.60048  -0.00000   0.00000   0.00001   0.00001   2.60049
    R6        2.04234   0.00000   0.00000   0.00000   0.00000   2.04234
    R7        2.66054  -0.00000   0.00000  -0.00001  -0.00001   2.66053
    R8        2.87917  -0.00000   0.00000  -0.00000  -0.00000   2.87917
    R9        2.58038   0.00001   0.00000   0.00002   0.00002   2.58040
   R10        2.04107   0.00000   0.00000   0.00000   0.00000   2.04107
   R11        2.55789  -0.00001   0.00000  -0.00002  -0.00002   2.55787
   R12        2.04056  -0.00000   0.00000   0.00000   0.00000   2.04056
   R13        1.91180   0.00000   0.00000   0.00000   0.00000   1.91180
   R14        2.27047  -0.00000   0.00000  -0.00000  -0.00000   2.27047
   R15        2.83272  -0.00000   0.00000  -0.00000  -0.00000   2.83271
   R16        2.06353   0.00000   0.00000  -0.00000  -0.00000   2.06353
   R17        2.05188  -0.00000   0.00000  -0.00000  -0.00000   2.05188
   R18        2.06453  -0.00000   0.00000   0.00000   0.00000   2.06453
   R19        2.47125   0.00000   0.00000   0.00002   0.00002   2.47127
   R20        2.46763   0.00000   0.00000   0.00002   0.00002   2.46765
   R21        2.47967   0.00000   0.00000  -0.00001  -0.00001   2.47967
    A1        2.05354  -0.00000   0.00000  -0.00000  -0.00000   2.05353
    A2        2.12696   0.00000   0.00000   0.00002   0.00002   2.12698
    A3        1.70449  -0.00000   0.00000  -0.00008  -0.00008   1.70440
    A4        2.02845  -0.00000   0.00000  -0.00001  -0.00001   2.02844
    A5        1.77363   0.00001   0.00000   0.00009   0.00009   1.77372
    A6        1.59713  -0.00000   0.00000  -0.00001  -0.00001   1.59712
    A7        2.09181   0.00000   0.00000  -0.00000  -0.00000   2.09181
    A8        2.06135   0.00000   0.00000   0.00001   0.00001   2.06136
    A9        2.12893  -0.00000   0.00000  -0.00001  -0.00001   2.12892
   A10        2.08532  -0.00000   0.00000   0.00000   0.00000   2.08532
   A11        2.14533  -0.00000   0.00000  -0.00002  -0.00002   2.14531
   A12        2.05253   0.00000   0.00000   0.00002   0.00002   2.05255
   A13        2.08450   0.00000   0.00000  -0.00001  -0.00001   2.08449
   A14        2.08695  -0.00000   0.00000   0.00001   0.00001   2.08696
   A15        2.11098  -0.00000   0.00000  -0.00000  -0.00000   2.11098
   A16        2.09603   0.00000   0.00000   0.00000   0.00000   2.09603
   A17        2.15915  -0.00000   0.00000  -0.00001  -0.00001   2.15914
   A18        2.02788  -0.00000   0.00000   0.00001   0.00001   2.02789
   A19        2.13533  -0.00000   0.00000   0.00000   0.00000   2.13534
   A20        2.07204   0.00000   0.00000   0.00000   0.00000   2.07204
   A21        2.07338   0.00000   0.00000  -0.00000  -0.00000   2.07338
   A22        2.05123  -0.00000   0.00000  -0.00001  -0.00001   2.05122
   A23        2.06768  -0.00000   0.00000   0.00000   0.00000   2.06768
   A24        2.16426   0.00000   0.00000   0.00001   0.00001   2.16427
   A25        1.93458   0.00000   0.00000   0.00002   0.00002   1.93460
   A26        1.90101  -0.00000   0.00000  -0.00001  -0.00001   1.90100
   A27        1.92684   0.00000   0.00000  -0.00001  -0.00001   1.92683
   A28        1.91002   0.00000   0.00000   0.00001   0.00001   1.91004
   A29        1.88419  -0.00000   0.00000   0.00000   0.00000   1.88420
   A30        1.90698  -0.00000   0.00000  -0.00002  -0.00002   1.90696
   A31        1.87050   0.00001   0.00000  -0.00006  -0.00006   1.87044
   A32        1.88233   0.00000   0.00000   0.00000   0.00000   1.88233
   A33        1.81487   0.00001   0.00000   0.00012   0.00012   1.81499
   A34        1.96414  -0.00001   0.00000  -0.00004  -0.00004   1.96409
   A35        1.95495  -0.00001   0.00000  -0.00001  -0.00001   1.95495
   A36        1.96657  -0.00001   0.00000  -0.00001  -0.00001   1.96656
    D1        0.19172   0.00000   0.00000   0.00007   0.00007   0.19179
    D2       -2.99907   0.00000   0.00000  -0.00002  -0.00002  -2.99909
    D3        2.91352  -0.00000   0.00000   0.00007   0.00007   2.91359
    D4       -0.27727  -0.00000   0.00000  -0.00002  -0.00002  -0.27729
    D5       -1.68373  -0.00000   0.00000   0.00001   0.00001  -1.68372
    D6        1.40866  -0.00000   0.00000  -0.00008  -0.00008   1.40858
    D7       -0.21680  -0.00000   0.00000  -0.00003  -0.00003  -0.21683
    D8        3.00062  -0.00000   0.00000  -0.00001  -0.00001   3.00061
    D9       -2.96227   0.00000   0.00000  -0.00004  -0.00004  -2.96230
   D10        0.25516   0.00000   0.00000  -0.00002  -0.00002   0.25514
   D11        1.61849  -0.00000   0.00000  -0.00008  -0.00008   1.61842
   D12       -1.44727  -0.00000   0.00000  -0.00005  -0.00005  -1.44732
   D13        1.08324  -0.00000   0.00000   0.00073   0.00073   1.08398
   D14       -1.03552   0.00000   0.00000   0.00082   0.00082  -1.03470
   D15       -3.12712   0.00000   0.00000   0.00076   0.00076  -3.12636
   D16       -1.01792  -0.00000   0.00000   0.00074   0.00074  -1.01718
   D17       -3.13668   0.00000   0.00000   0.00082   0.00082  -3.13586
   D18        1.05490   0.00000   0.00000   0.00077   0.00077   1.05567
   D19       -3.06296  -0.00000   0.00000   0.00074   0.00074  -3.06222
   D20        1.10146   0.00000   0.00000   0.00083   0.00083   1.10229
   D21       -0.99014   0.00000   0.00000   0.00077   0.00077  -0.98937
   D22       -0.05759  -0.00000   0.00000  -0.00006  -0.00006  -0.05765
   D23        3.08019  -0.00000   0.00000  -0.00014  -0.00014   3.08004
   D24        3.13517  -0.00000   0.00000   0.00003   0.00003   3.13520
   D25       -0.01024  -0.00000   0.00000  -0.00005  -0.00005  -0.01029
   D26       -0.06075   0.00000   0.00000   0.00002   0.00002  -0.06073
   D27        3.12229  -0.00000   0.00000  -0.00002  -0.00002   3.12227
   D28        3.08446   0.00000   0.00000   0.00010   0.00010   3.08456
   D29       -0.01569   0.00000   0.00000   0.00006   0.00006  -0.01563
   D30       -3.10204   0.00000   0.00000   0.00038   0.00038  -3.10166
   D31        0.03272   0.00000   0.00000   0.00034   0.00034   0.03305
   D32        0.03580   0.00000   0.00000   0.00030   0.00030   0.03610
   D33       -3.11263  -0.00000   0.00000   0.00026   0.00026  -3.11237
   D34        0.04192   0.00000   0.00000   0.00002   0.00002   0.04194
   D35       -3.08187   0.00000   0.00000  -0.00000  -0.00000  -3.08188
   D36        3.14149   0.00000   0.00000   0.00006   0.00006   3.14154
   D37        0.01769   0.00000   0.00000   0.00004   0.00004   0.01773
   D38        0.10154  -0.00000   0.00000  -0.00001  -0.00001   0.10152
   D39       -3.11594  -0.00000   0.00000  -0.00004  -0.00004  -3.11598
   D40       -3.05655   0.00000   0.00000   0.00000   0.00000  -3.05655
   D41        0.00915  -0.00000   0.00000  -0.00002  -0.00002   0.00914
   D42        1.00119   0.00000   0.00000  -0.00015  -0.00015   1.00104
   D43        3.10357   0.00000   0.00000  -0.00013  -0.00013   3.10344
   D44       -1.08576   0.00000   0.00000  -0.00016  -0.00016  -1.08593
   D45       -2.14772  -0.00000   0.00000  -0.00020  -0.00020  -2.14791
   D46       -0.04534  -0.00000   0.00000  -0.00017  -0.00017  -0.04551
   D47        2.04851  -0.00000   0.00000  -0.00020  -0.00020   2.04831
         Item               Value     Threshold  Converged?
 Maximum Force            0.000012     0.000450     YES
 RMS     Force            0.000003     0.000300     YES
 Maximum Displacement     0.001676     0.001800     YES
 RMS     Displacement     0.000351     0.001200     YES
 Predicted change in Energy=-7.098894D-09
 Optimization completed.
    -- Stationary point found.
                           ----------------------------
                           !   Optimized Parameters   !
                           ! (Angstroms and Degrees)  !
 --------------------------                            --------------------------
 ! Name  Definition              Value          Derivative Info.                !
 --------------------------------------------------------------------------------
 ! R1    R(1,2)                  1.4088         -DE/DX =    0.0                 !
 ! R2    R(1,6)                  1.3648         -DE/DX =    0.0                 !
 ! R3    R(1,7)                  1.0828         -DE/DX =    0.0                 !
 ! R4    R(1,17)                 2.1355         -DE/DX =    0.0                 !
 ! R5    R(2,3)                  1.3761         -DE/DX =    0.0                 !
 ! R6    R(2,8)                  1.0808         -DE/DX =    0.0                 !
 ! R7    R(3,4)                  1.4079         -DE/DX =    0.0                 !
 ! R8    R(3,11)                 1.5236         -DE/DX =    0.0                 !
 ! R9    R(4,5)                  1.3655         -DE/DX =    0.0                 !
 ! R10   R(4,9)                  1.0801         -DE/DX =    0.0                 !
 ! R11   R(5,6)                  1.3536         -DE/DX =    0.0                 !
 ! R12   R(5,10)                 1.0798         -DE/DX =    0.0                 !
 ! R13   R(6,20)                 1.0117         -DE/DX =    0.0                 !
 ! R14   R(11,12)                1.2015         -DE/DX =    0.0                 !
 ! R15   R(11,13)                1.499          -DE/DX =    0.0                 !
 ! R16   R(13,14)                1.092          -DE/DX =    0.0                 !
 ! R17   R(13,15)                1.0858         -DE/DX =    0.0                 !
 ! R18   R(13,16)                1.0925         -DE/DX =    0.0                 !
 ! R19   R(17,18)                1.3077         -DE/DX =    0.0                 !
 ! R20   R(17,19)                1.3058         -DE/DX =    0.0                 !
 ! R21   R(17,21)                1.3122         -DE/DX =    0.0                 !
 ! A1    A(2,1,6)              117.6591         -DE/DX =    0.0                 !
 ! A2    A(2,1,7)              121.866          -DE/DX =    0.0                 !
 ! A3    A(2,1,17)              97.6599         -DE/DX =    0.0                 !
 ! A4    A(6,1,7)              116.2218         -DE/DX =    0.0                 !
 ! A5    A(6,1,17)             101.6213         -DE/DX =    0.0                 !
 ! A6    A(7,1,17)              91.5085         -DE/DX =    0.0                 !
 ! A7    A(1,2,3)              119.8519         -DE/DX =    0.0                 !
 ! A8    A(1,2,8)              118.1066         -DE/DX =    0.0                 !
 ! A9    A(3,2,8)              121.9789         -DE/DX =    0.0                 !
 ! A10   A(2,3,4)              119.48           -DE/DX =    0.0                 !
 ! A11   A(2,3,11)             122.9181         -DE/DX =    0.0                 !
 ! A12   A(4,3,11)             117.6016         -DE/DX =    0.0                 !
 ! A13   A(3,4,5)              119.4331         -DE/DX =    0.0                 !
 ! A14   A(3,4,9)              119.5734         -DE/DX =    0.0                 !
 ! A15   A(5,4,9)              120.9501         -DE/DX =    0.0                 !
 ! A16   A(4,5,6)              120.0935         -DE/DX =    0.0                 !
 ! A17   A(4,5,10)             123.7101         -DE/DX =    0.0                 !
 ! A18   A(6,5,10)             116.1891         -DE/DX =    0.0                 !
 ! A19   A(1,6,5)              122.3456         -DE/DX =    0.0                 !
 ! A20   A(1,6,20)             118.7189         -DE/DX =    0.0                 !
 ! A21   A(5,6,20)             118.7962         -DE/DX =    0.0                 !
 ! A22   A(3,11,12)            117.5266         -DE/DX =    0.0                 !
 ! A23   A(3,11,13)            118.4691         -DE/DX =    0.0                 !
 ! A24   A(12,11,13)           124.0031         -DE/DX =    0.0                 !
 ! A25   A(11,13,14)           110.8435         -DE/DX =    0.0                 !
 ! A26   A(11,13,15)           108.9197         -DE/DX =    0.0                 !
 ! A27   A(11,13,16)           110.3997         -DE/DX =    0.0                 !
 ! A28   A(14,13,15)           109.4363         -DE/DX =    0.0                 !
 ! A29   A(14,13,16)           107.9563         -DE/DX =    0.0                 !
 ! A30   A(15,13,16)           109.2619         -DE/DX =    0.0                 !
 ! A31   A(1,17,18)            107.1716         -DE/DX =    0.0                 !
 ! A32   A(1,17,19)            107.8495         -DE/DX =    0.0                 !
 ! A33   A(1,17,21)            103.9844         -DE/DX =    0.0                 !
 ! A34   A(18,17,19)           112.5367         -DE/DX =    0.0                 !
 ! A35   A(18,17,21)           112.0106         -DE/DX =    0.0                 !
 ! A36   A(19,17,21)           112.6762         -DE/DX =    0.0                 !
 ! D1    D(6,1,2,3)             10.9849         -DE/DX =    0.0                 !
 ! D2    D(6,1,2,8)           -171.8341         -DE/DX =    0.0                 !
 ! D3    D(7,1,2,3)            166.9325         -DE/DX =    0.0                 !
 ! D4    D(7,1,2,8)            -15.8865         -DE/DX =    0.0                 !
 ! D5    D(17,1,2,3)           -96.4707         -DE/DX =    0.0                 !
 ! D6    D(17,1,2,8)            80.7103         -DE/DX =    0.0                 !
 ! D7    D(2,1,6,5)            -12.422          -DE/DX =    0.0                 !
 ! D8    D(2,1,6,20)           171.9229         -DE/DX =    0.0                 !
 ! D9    D(7,1,6,5)           -169.7253         -DE/DX =    0.0                 !
 ! D10   D(7,1,6,20)            14.6195         -DE/DX =    0.0                 !
 ! D11   D(17,1,6,5)            92.7327         -DE/DX =    0.0                 !
 ! D12   D(17,1,6,20)          -82.9225         -DE/DX =    0.0                 !
 ! D13   D(2,1,17,18)           62.0652         -DE/DX =    0.0                 !
 ! D14   D(2,1,17,19)          -59.3307         -DE/DX =    0.0                 !
 ! D15   D(2,1,17,21)         -179.171          -DE/DX =    0.0                 !
 ! D16   D(6,1,17,18)          -58.3226         -DE/DX =    0.0                 !
 ! D17   D(6,1,17,19)         -179.7186         -DE/DX =    0.0                 !
 ! D18   D(6,1,17,21)           60.4411         -DE/DX =    0.0                 !
 ! D19   D(7,1,17,18)         -175.4948         -DE/DX =    0.0                 !
 ! D20   D(7,1,17,19)           63.1092         -DE/DX =    0.0                 !
 ! D21   D(7,1,17,21)          -56.7311         -DE/DX =    0.0                 !
 ! D22   D(1,2,3,4)             -3.2997         -DE/DX =    0.0                 !
 ! D23   D(1,2,3,11)           176.4816         -DE/DX =    0.0                 !
 ! D24   D(8,2,3,4)            179.6318         -DE/DX =    0.0                 !
 ! D25   D(8,2,3,11)            -0.5869         -DE/DX =    0.0                 !
 ! D26   D(2,3,4,5)             -3.4806         -DE/DX =    0.0                 !
 ! D27   D(2,3,4,9)            178.8939         -DE/DX =    0.0                 !
 ! D28   D(11,3,4,5)           176.7265         -DE/DX =    0.0                 !
 ! D29   D(11,3,4,9)            -0.8989         -DE/DX =    0.0                 !
 ! D30   D(2,3,11,12)         -177.7337         -DE/DX =    0.0                 !
 ! D31   D(2,3,11,13)            1.8745         -DE/DX =    0.0                 !
 ! D32   D(4,3,11,12)            2.0515         -DE/DX =    0.0                 !
 ! D33   D(4,3,11,13)         -178.3403         -DE/DX =    0.0                 !
 ! D34   D(3,4,5,6)              2.402          -DE/DX =    0.0                 !
 ! D35   D(3,4,5,10)          -176.5784         -DE/DX =    0.0                 !
 ! D36   D(9,4,5,6)            179.9939         -DE/DX =    0.0                 !
 ! D37   D(9,4,5,10)             1.0135         -DE/DX =    0.0                 !
 ! D38   D(4,5,6,1)              5.8176         -DE/DX =    0.0                 !
 ! D39   D(4,5,6,20)          -178.5304         -DE/DX =    0.0                 !
 ! D40   D(10,5,6,1)          -175.1275         -DE/DX =    0.0                 !
 ! D41   D(10,5,6,20)            0.5244         -DE/DX =    0.0                 !
 ! D42   D(3,11,13,14)          57.3641         -DE/DX =    0.0                 !
 ! D43   D(3,11,13,15)         177.8213         -DE/DX =    0.0                 !
 ! D44   D(3,11,13,16)         -62.2097         -DE/DX =    0.0                 !
 ! D45   D(12,11,13,14)       -123.055          -DE/DX =    0.0                 !
 ! D46   D(12,11,13,15)         -2.5978         -DE/DX =    0.0                 !
 ! D47   D(12,11,13,16)        117.3712         -DE/DX =    0.0                 !
 --------------------------------------------------------------------------------
 Largest change from initial coordinates is atom   19       0.287 Angstoms.
 GradGradGradGradGradGradGradGradGradGradGradGradGradGradGradGradGradGrad

 Leave Link  103 at Mon Dec  1 22:41:47 2025, MaxMem=   104857600 cpu:               0.0 elap:               0.0
 (Enter /home/zhouoh/g16/l202.exe)
                          Input orientation:                          
 ---------------------------------------------------------------------
 Center     Atomic      Atomic             Coordinates (Angstroms)
 Number     Number       Type             X           Y           Z
 ---------------------------------------------------------------------
      1          6           0        0.854589    0.453412    1.176506
      2          6           0       -0.355338   -0.243747    0.989984
      3          6           0       -1.326406    0.277781    0.166136
      4          6           0       -1.127426    1.538849   -0.427407
      5          6           0       -0.006743    2.255850   -0.119976
      6          7           0        0.926094    1.734217    0.710619
      7          1           0        1.549791    0.191320    1.964203
      8          1           0       -0.468513   -1.204926    1.470991
      9          1           0       -1.880613    1.941673   -1.088488
     10          1           0        0.189353    3.250297   -0.492303
     11          6           0       -2.626415   -0.452520   -0.146873
     12          8           0       -3.388774    0.073973   -0.911838
     13          6           0       -2.875209   -1.779528    0.504419
     14          1           0       -2.836425   -1.691835    1.592174
     15          1           0       -3.854851   -2.140165    0.205709
     16          1           0       -2.115963   -2.502666    0.197531
     17          6           0        2.015526   -0.597817   -0.275165
     18          9           0        1.458915   -0.388457   -1.439857
     19          9           0        2.022649   -1.860828    0.056351
     20          1           0        1.737935    2.291393    0.942929
     21          9           0        3.203141   -0.046108   -0.191385
 ---------------------------------------------------------------------
                    Distance matrix (angstroms):
                    1          2          3          4          5
     1  C    0.000000
     2  C    1.408809   0.000000
     3  C    2.410069   1.376115   0.000000
     4  C    2.771117   2.404738   1.407899   0.000000
     5  C    2.381500   2.757085   2.395022   1.365480   0.000000
     6  N    1.364780   2.373279   2.737046   2.355889   1.353578
     7  H    1.082805   2.183553   3.393086   3.834465   3.320977
     8  H    2.141823   1.080760   2.153381   3.400938   3.836846
     9  H    3.850513   3.379730   2.156331   1.080087   2.132630
    10  H    3.324157   3.834345   3.401017   2.160364   1.079817
    11  C    3.832679   2.548298   1.523594   2.508230   3.768113
    12  O    4.744606   3.594386   2.336007   2.737560   4.101923
    13  C    4.398763   2.990677   2.597257   3.864540   4.990215
    14  H    4.289342   2.935198   2.862364   4.175728   5.150027
    15  H    5.463324   4.056856   3.498723   4.623292   5.851406
    16  H    4.303599   2.971615   2.890548   4.207326   5.214700
    17  C    2.135464   2.710528   3.482805   3.803507   3.501010
    18  F    2.814127   3.035882   3.283459   3.380639   3.298879
    19  F    2.823972   3.023481   3.975157   4.659914   4.593100
    20  H    2.052568   3.288000   3.748097   3.264113   2.043265
    21  F    2.763394   3.754659   4.555165   4.617532   3.950629
                    6          7          8          9         10
     6  N    0.000000
     7  H    2.083507   0.000000
     8  H    3.340907   2.503261   0.000000
     9  H    3.340273   4.914299   4.294887   0.000000
    10  H    2.070822   4.152415   4.912873   2.520454   0.000000
    11  C    4.258806   4.723544   2.800025   2.678623   4.664625
    12  O    4.899680   5.716188   3.980124   2.407086   4.802919
    13  C    5.180620   5.059233   2.656429   4.168203   5.973619
    14  H    5.164448   4.787857   2.420490   4.615399   6.158331
    15  H    6.174399   6.143149   3.734019   4.715290   6.774945
    16  H    5.241044   4.880209   2.453552   4.632644   6.235938
    17  C    2.756268   2.419591   3.096465   4.721272   4.264978
    18  F    3.068255   3.454277   3.585336   4.087226   3.968649
    19  F    3.815082   2.841621   2.938929   5.568225   5.457618
    20  H    1.011682   2.342799   4.167915   4.164475   2.318942
    21  F    3.027889   2.726995   4.193734   5.531783   4.476578
                   11         12         13         14         15
    11  C    0.000000
    12  O    1.201482   0.000000
    13  C    1.499009   2.388514   0.000000
    14  H    2.145761   3.113398   1.091973   0.000000
    15  H    2.116958   2.523597   1.085811   1.777773   0.000000
    16  H    2.140624   3.080555   1.092503   1.766788   1.776290
    17  C    4.645986   5.482984   5.091511   5.312746   6.088629
    18  F    4.285537   4.898238   4.949739   5.416821   5.832021
    19  F    4.861936   5.827893   4.918982   5.098814   5.886029
    20  H    5.269182   5.885598   6.168127   6.100197   7.173664
    21  F    5.843875   6.632256   6.358870   6.508906   7.372789
                   16         17         18         19         20
    16  H    0.000000
    17  C    4.573958   0.000000
    18  F    4.464377   1.307729   0.000000
    19  F    4.190464   1.305815   2.173548   0.000000
    20  H    6.196059   3.147752   3.596821   4.255353   0.000000
    21  F    5.871865   1.312185   2.172145   2.179024   2.982853
                   21
    21  F    0.000000
 Stoichiometry    C8H8F3NO(1+,2)
 Framework group  C1[X(C8H8F3NO)]
 Deg. of freedom    57
 Full point group                 C1      NOp   1
 RotChk:  IX=0 Diff= 6.72D-16
 Largest Abelian subgroup         C1      NOp   1
 Largest concise Abelian subgroup C1      NOp   1
                         Standard orientation:                         
 ---------------------------------------------------------------------
 Center     Atomic      Atomic             Coordinates (Angstroms)
 Number     Number       Type             X           Y           Z
 ---------------------------------------------------------------------
      1          6           0        0.884949    0.388782    1.184824
      2          6           0       -0.350957   -0.259369    0.992007
      3          6           0       -1.306186    0.313610    0.183971
      4          6           0       -1.063561    1.577712   -0.386431
      5          6           0        0.084517    2.246649   -0.071831
      6          7           0        1.001571    1.674849    0.743172
      7          1           0        1.573951    0.085924    1.963296
      8          1           0       -0.497280   -1.224840    1.455148
      9          1           0       -1.804638    2.020872   -1.035277
     10          1           0        0.315491    3.240182   -0.426156
     11          6           0       -2.633987   -0.361869   -0.135419
     12          8           0       -3.380168    0.207204   -0.885704
     13          6           0       -2.928544   -1.691129    0.491745
     14          1           0       -2.880985   -1.626024    1.580738
     15          1           0       -3.922408   -2.009401    0.191876
     16          1           0       -2.198238   -2.435792    0.166640
     17          6           0        1.998647   -0.676374   -0.293461
     18          9           0        1.444258   -0.424028   -1.450669
     19          9           0        1.960572   -1.944970    0.013731
     20          1           0        1.834710    2.196987    0.981398
     21          9           0        3.206335   -0.170730   -0.206025
 ---------------------------------------------------------------------
 Rotational constants (GHZ):           1.2932048           0.5441555           0.4567207
 Leave Link  202 at Mon Dec  1 22:41:47 2025, MaxMem=   104857600 cpu:               0.0 elap:               0.0
 (Enter /home/zhouoh/g16/l601.exe)
 Leave Link  601 at Mon Dec  1 22:41:47 2025, MaxMem=   104857600 cpu:               0.0 elap:               0.0
 (Enter /home/zhouoh/g16/l716.exe)
 Rotating derivatives to standard orientation.
 Dipole        = 0.00000000D+00 0.00000000D+00 0.00000000D+00
 Full mass-weighted force constant matrix:
 Low frequencies --- -261.2731   -5.4605   -4.2669   -3.6429   -3.1029    3.8675
 Low frequencies ---    5.7816   32.2762   35.3392
 ******    1 imaginary frequencies (negative Signs) ****** 
 Diagonal vibrational polarizability:
        0.0000000       0.0000000       0.0000000
 Harmonic frequencies (cm**-1), IR intensities (KM/Mole), Raman scattering
 activities (A**4/AMU), depolarization ratios for plane and unpolarized
 incident light, reduced masses (AMU), force constants (mDyne/A),
 and normal coordinates:
                      1                      2                      3
                      A                      A                      A
 Frequencies --   -261.2731                32.2746                35.3328
 Red. masses --     10.5168                 9.3302                 6.2910
 Frc consts  --      0.4230                 0.0057                 0.0046
 IR Inten    --      0.0000                 0.0000                 0.0000
  Atom  AN      X      Y      Z        X      Y      Z        X      Y      Z
     1   6    -0.36   0.34   0.48     0.01   0.03  -0.00    -0.00   0.06  -0.04
     2   6    -0.08   0.12   0.18     0.01   0.02   0.03     0.00   0.04  -0.01
     3   6    -0.01   0.05   0.02     0.00  -0.02   0.02    -0.01   0.00  -0.03
     4   6    -0.00   0.02  -0.03    -0.02  -0.04  -0.03    -0.02  -0.02  -0.08
     5   6    -0.05   0.02  -0.05    -0.03  -0.01  -0.05    -0.02  -0.00  -0.13
     6   7    -0.14   0.05   0.16    -0.01   0.02  -0.04    -0.01   0.04  -0.10
     7   1    -0.09   0.14   0.15     0.02   0.06  -0.01    -0.01   0.11  -0.01
     8   1    -0.06   0.12   0.19     0.03   0.03   0.06     0.01   0.06   0.03
     9   1     0.02  -0.04  -0.11    -0.02  -0.07  -0.04    -0.04  -0.05  -0.09
    10   1     0.06  -0.05  -0.17    -0.04  -0.02  -0.08    -0.03  -0.02  -0.18
    11   6     0.02   0.01  -0.02     0.01  -0.06   0.04    -0.02  -0.00   0.05
    12   8    -0.01  -0.00  -0.00     0.09  -0.20  -0.13    -0.19   0.13   0.31
    13   6     0.02   0.00  -0.01    -0.06   0.07   0.28     0.16  -0.16  -0.21
    14   1    -0.03   0.02  -0.01    -0.06   0.26   0.27     0.18  -0.36  -0.20
    15   1     0.04  -0.01  -0.05    -0.08   0.07   0.33     0.19  -0.22  -0.23
    16   1     0.05   0.01   0.03    -0.11  -0.03   0.41     0.25  -0.01  -0.37
    17   6     0.18  -0.16  -0.20     0.00   0.03  -0.02     0.02  -0.01   0.04
    18   9     0.07  -0.08  -0.12     0.17   0.33  -0.03     0.13   0.07   0.00
    19   9     0.11  -0.13  -0.12    -0.25  -0.01  -0.24    -0.11  -0.02  -0.00
    20   1    -0.15   0.06   0.17    -0.02   0.04  -0.06    -0.02   0.06  -0.13
    21   9     0.12  -0.08  -0.11     0.08  -0.20   0.20     0.06  -0.12   0.14
                      4                      5                      6
                      A                      A                      A
 Frequencies --     60.2773                96.5063               157.2738
 Red. masses --      7.7045                 6.2932                 6.9845
 Frc consts  --      0.0165                 0.0345                 0.1018
 IR Inten    --      0.0000                 0.0000                 0.0000
  Atom  AN      X      Y      Z        X      Y      Z        X      Y      Z
     1   6    -0.06  -0.12  -0.07     0.03   0.03  -0.14     0.01   0.01  -0.04
     2   6    -0.06  -0.10  -0.10     0.04   0.01  -0.13    -0.07   0.12   0.12
     3   6    -0.08  -0.04  -0.05    -0.05   0.07   0.03    -0.08   0.14   0.16
     4   6    -0.05  -0.05  -0.05    -0.18   0.17   0.21    -0.09   0.14   0.15
     5   6    -0.03  -0.08  -0.04    -0.17   0.17   0.18     0.03   0.03  -0.05
     6   7    -0.05  -0.11  -0.04    -0.05   0.08  -0.02     0.11  -0.04  -0.18
     7   1    -0.09  -0.13  -0.06     0.07  -0.01  -0.19     0.05   0.02  -0.08
     8   1    -0.09  -0.11  -0.12     0.12  -0.06  -0.24    -0.10   0.15   0.17
     9   1    -0.05  -0.01  -0.02    -0.27   0.24   0.35    -0.13   0.18   0.23
    10   1    -0.01  -0.08  -0.03    -0.24   0.23   0.30     0.09  -0.02  -0.14
    11   6    -0.16   0.07   0.05    -0.01   0.00  -0.00     0.01   0.03   0.04
    12   8    -0.16   0.12   0.10    -0.00  -0.06  -0.06     0.04  -0.07  -0.07
    13   6    -0.26   0.13   0.14     0.03  -0.00   0.02     0.12  -0.03  -0.05
    14   1    -0.19   0.19   0.14     0.12  -0.02   0.01    -0.03  -0.08  -0.04
    15   1    -0.31   0.22   0.22     0.01   0.00   0.08     0.20  -0.17  -0.19
    16   1    -0.36   0.03   0.15     0.00   0.00  -0.06     0.27   0.09   0.01
    17   6     0.15  -0.00  -0.01     0.06  -0.04  -0.06    -0.08  -0.11   0.00
    18   9     0.24  -0.02  -0.06     0.19  -0.17  -0.14     0.01  -0.07  -0.03
    19   9     0.26  -0.01  -0.06    -0.07   0.01   0.13     0.13  -0.16  -0.18
    20   1    -0.04  -0.12  -0.02    -0.05   0.09  -0.03     0.21  -0.13  -0.36
    21   9     0.08   0.14   0.14     0.09  -0.13  -0.01    -0.18   0.11   0.22
                      7                      8                      9
                      A                      A                      A
 Frequencies --    166.4312               172.1491               194.4562
 Red. masses --      1.0477                 9.0358                 4.8039
 Frc consts  --      0.0171                 0.1578                 0.1070
 IR Inten    --      0.0000                 0.0000                 0.0000
  Atom  AN      X      Y      Z        X      Y      Z        X      Y      Z
     1   6    -0.00   0.01   0.00     0.02   0.02  -0.07     0.05   0.01   0.03
     2   6    -0.00   0.01   0.01    -0.01   0.03  -0.01     0.01   0.01   0.22
     3   6    -0.01   0.01   0.01    -0.08   0.03   0.07    -0.03  -0.05   0.22
     4   6    -0.01   0.00   0.00    -0.17   0.07   0.12    -0.04  -0.11   0.10
     5   6    -0.00   0.00  -0.01    -0.10   0.03  -0.04    -0.00  -0.10  -0.08
     6   7     0.00   0.00  -0.01     0.00   0.00  -0.18     0.05  -0.03  -0.10
     7   1    -0.00   0.01   0.01    -0.02   0.12   0.01     0.13   0.05  -0.03
     8   1     0.00   0.01   0.00     0.01   0.03   0.00     0.03   0.05   0.32
     9   1    -0.01   0.00   0.00    -0.25   0.10   0.24    -0.07  -0.17   0.09
    10   1     0.00  -0.00  -0.02    -0.12   0.02  -0.07    -0.01  -0.14  -0.22
    11   6    -0.00   0.01   0.01    -0.07   0.01  -0.01    -0.03  -0.01   0.06
    12   8     0.01  -0.01  -0.02    -0.01   0.01  -0.07     0.13   0.07  -0.04
    13   6     0.00  -0.00  -0.00    -0.11  -0.01  -0.09    -0.21  -0.06  -0.14
    14   1     0.56  -0.21  -0.02    -0.35  -0.00  -0.07    -0.28  -0.24  -0.13
    15   1    -0.21   0.25   0.42    -0.02  -0.08  -0.30    -0.22   0.08  -0.27
    16   1    -0.31  -0.10  -0.51     0.02   0.04   0.08    -0.26  -0.08  -0.21
    17   6     0.00  -0.01   0.01     0.17  -0.05   0.13     0.01   0.07  -0.05
    18   9    -0.01   0.01   0.02    -0.15   0.17   0.34     0.09   0.00  -0.10
    19   9     0.01  -0.01  -0.01     0.19  -0.09  -0.03    -0.08   0.11   0.08
    20   1     0.00   0.00  -0.02     0.03   0.00  -0.28     0.10  -0.04  -0.24
    21   9     0.00  -0.00   0.01     0.24  -0.18  -0.15     0.03   0.03  -0.05
                     10                     11                     12
                      A                      A                      A
 Frequencies --    240.4227               355.5561               386.9540
 Red. masses --      5.0741                 4.6800                 3.7195
 Frc consts  --      0.1728                 0.3486                 0.3281
 IR Inten    --      0.0000                 0.0000                 0.0000
  Atom  AN      X      Y      Z        X      Y      Z        X      Y      Z
     1   6     0.10   0.14  -0.03    -0.08  -0.09  -0.00    -0.11   0.09   0.17
     2   6     0.19  -0.03  -0.03    -0.04  -0.13   0.03     0.09  -0.10  -0.17
     3   6     0.14  -0.14  -0.04     0.00  -0.05   0.05     0.06  -0.05  -0.09
     4   6    -0.03  -0.10  -0.02    -0.13  -0.08   0.01    -0.07   0.11   0.18
     5   6    -0.16   0.08   0.02    -0.14  -0.09  -0.06     0.08  -0.05  -0.11
     6   7    -0.07   0.17  -0.00    -0.16  -0.11  -0.07     0.08  -0.07  -0.09
     7   1     0.15   0.24  -0.04    -0.04  -0.02  -0.02    -0.09   0.06   0.14
     8   1     0.31  -0.06  -0.04    -0.05  -0.14   0.00     0.19  -0.21  -0.36
     9   1    -0.11  -0.21   0.00    -0.21  -0.16   0.04    -0.18   0.22   0.38
    10   1    -0.33   0.14   0.09    -0.12  -0.10  -0.07     0.19  -0.13  -0.27
    11   6     0.09  -0.04  -0.01     0.07   0.10  -0.01     0.07  -0.07  -0.07
    12   8     0.14   0.13   0.07     0.17   0.20  -0.03     0.01   0.01   0.05
    13   6    -0.15   0.01  -0.03     0.25   0.13   0.06    -0.04  -0.01   0.01
    14   1    -0.22   0.03  -0.03     0.38   0.24   0.05    -0.04   0.11   0.01
    15   1    -0.18   0.17  -0.10     0.28  -0.10   0.21    -0.08   0.10   0.05
    16   1    -0.24  -0.12   0.05     0.36   0.25   0.04    -0.14  -0.15   0.11
    17   6    -0.05  -0.07   0.02     0.00   0.01  -0.00    -0.00   0.00  -0.01
    18   9    -0.05  -0.06   0.02     0.00   0.02   0.00    -0.02   0.03   0.01
    19   9     0.05  -0.11  -0.10    -0.01   0.01   0.02    -0.07   0.02   0.05
    20   1    -0.16   0.29   0.04    -0.15  -0.10  -0.10     0.16  -0.15  -0.20
    21   9    -0.09   0.00   0.10     0.00   0.01  -0.01    -0.03   0.06   0.02
                     13                     14                     15
                      A                      A                      A
 Frequencies --    417.3895               457.4502               516.7886
 Red. masses --      3.3935                 4.1855                15.9079
 Frc consts  --      0.3483                 0.5160                 2.5032
 IR Inten    --      0.0000                 0.0000                 0.0000
  Atom  AN      X      Y      Z        X      Y      Z        X      Y      Z
     1   6     0.00   0.00   0.03    -0.10  -0.09  -0.04    -0.04   0.03  -0.01
     2   6    -0.07   0.07   0.18    -0.14   0.05  -0.01    -0.00  -0.02   0.01
     3   6     0.08  -0.12  -0.16     0.03   0.11  -0.09     0.00  -0.03   0.00
     4   6     0.01  -0.04   0.01    -0.02   0.14  -0.13     0.02  -0.00   0.05
     5   6    -0.07   0.05   0.16    -0.03   0.08   0.02     0.03  -0.01  -0.03
     6   7     0.10  -0.07  -0.14    -0.07  -0.10  -0.05     0.01   0.01   0.02
     7   1     0.04   0.04   0.02    -0.11  -0.10  -0.04     0.10  -0.08  -0.18
     8   1    -0.17   0.21   0.44    -0.36   0.10   0.01     0.07  -0.05  -0.03
     9   1    -0.05   0.03   0.13    -0.01   0.16  -0.12     0.01  -0.00   0.05
    10   1    -0.22   0.16   0.38     0.04   0.13   0.20     0.06  -0.05  -0.12
    11   6     0.03  -0.07  -0.18     0.20  -0.06   0.11     0.02  -0.04  -0.06
    12   8    -0.09   0.04   0.02     0.21  -0.02   0.14    -0.01   0.02   0.01
    13   6     0.02   0.03   0.01    -0.07  -0.09   0.01     0.00  -0.01   0.00
    14   1     0.13   0.30  -0.01    -0.28  -0.26   0.03     0.04   0.12  -0.00
    15   1    -0.05   0.05   0.21    -0.13   0.28  -0.21    -0.02   0.00   0.08
    16   1    -0.06  -0.09   0.13    -0.28  -0.29   0.03    -0.03  -0.07   0.08
    17   6     0.00  -0.00  -0.00     0.00  -0.01  -0.01    -0.21   0.06  -0.23
    18   9     0.02   0.01  -0.01     0.01   0.03  -0.00    -0.23   0.24  -0.31
    19   9    -0.01   0.01   0.01     0.01   0.00   0.03     0.45   0.19   0.24
    20   1     0.17  -0.11  -0.26    -0.03  -0.17  -0.02     0.08  -0.05  -0.05
    21   9     0.00   0.01  -0.02    -0.00  -0.00  -0.01    -0.11  -0.44   0.22
                     16                     17                     18
                      A                      A                      A
 Frequencies --    523.7480               579.2496               593.2353
 Red. masses --     17.1300                 3.2807                 4.3283
 Frc consts  --      2.7686                 0.6485                 0.8975
 IR Inten    --      0.0000                 0.0000                 0.0000
  Atom  AN      X      Y      Z        X      Y      Z        X      Y      Z
     1   6     0.03   0.03  -0.00    -0.06   0.05   0.08     0.09  -0.08   0.02
     2   6     0.05  -0.00  -0.03     0.06  -0.08  -0.05     0.07  -0.06   0.10
     3   6    -0.00  -0.00   0.03     0.08  -0.04  -0.06     0.11   0.07   0.08
     4   6     0.01  -0.03  -0.01     0.07  -0.05  -0.06    -0.05   0.03   0.00
     5   6    -0.01   0.01   0.00    -0.06   0.05   0.08    -0.04  -0.02  -0.07
     6   7     0.00   0.04   0.02     0.06  -0.08  -0.13    -0.13  -0.04   0.02
     7   1     0.04   0.04  -0.00     0.01   0.04   0.01     0.20   0.02  -0.04
     8   1     0.11  -0.02  -0.05     0.05  -0.04   0.03    -0.00  -0.09   0.01
     9   1     0.02  -0.05  -0.04    -0.03  -0.01   0.07    -0.13  -0.13  -0.02
    10   1    -0.05   0.02  -0.00    -0.19   0.17   0.34     0.07  -0.05  -0.10
    11   6    -0.04   0.03   0.02    -0.08   0.15   0.21     0.19   0.08  -0.05
    12   8    -0.02  -0.01  -0.02    -0.01  -0.09  -0.05    -0.15  -0.20   0.07
    13   6     0.00   0.01  -0.00    -0.01   0.07  -0.01     0.02   0.24  -0.14
    14   1     0.01  -0.04  -0.00    -0.10  -0.45   0.01    -0.14   0.23  -0.13
    15   1     0.03  -0.05  -0.02     0.11  -0.03  -0.30    -0.05   0.62  -0.29
    16   1     0.05   0.08  -0.05     0.18   0.38  -0.33    -0.20  -0.01  -0.05
    17   6    -0.16  -0.29   0.08     0.03  -0.03  -0.06     0.01  -0.01  -0.01
    18   9     0.37   0.43  -0.01    -0.05   0.03  -0.02    -0.00   0.00  -0.00
    19   9     0.09  -0.36   0.30    -0.02   0.00   0.04    -0.00  -0.00   0.01
    20   1    -0.03   0.08   0.06     0.03  -0.06  -0.05    -0.13  -0.01  -0.05
    21   9    -0.38   0.05  -0.34     0.01   0.02   0.04    -0.00   0.00   0.01
                     19                     20                     21
                      A                      A                      A
 Frequencies --    653.8239               666.3933               719.5943
 Red. masses --      5.8464                 4.9131                 3.5665
 Frc consts  --      1.4725                 1.2855                 1.0881
 IR Inten    --      0.0000                 0.0000                 0.0000
  Atom  AN      X      Y      Z        X      Y      Z        X      Y      Z
     1   6    -0.24   0.04  -0.19    -0.05  -0.01   0.02    -0.06   0.06   0.11
     2   6    -0.12  -0.27   0.07    -0.07  -0.08   0.04     0.03  -0.02  -0.11
     3   6     0.00  -0.06   0.16     0.08  -0.10  -0.12    -0.13   0.11   0.19
     4   6     0.26  -0.04   0.12     0.01   0.02   0.10     0.04  -0.09  -0.11
     5   6     0.10   0.29  -0.06     0.06   0.05  -0.07    -0.08   0.00   0.14
     6   7    -0.03   0.08  -0.09    -0.03   0.07  -0.01     0.10  -0.05  -0.11
     7   1    -0.09   0.06  -0.33    -0.34   0.26   0.39    -0.07   0.01   0.11
     8   1     0.06  -0.30   0.06    -0.17   0.03   0.23     0.20  -0.20  -0.44
     9   1     0.23  -0.26   0.01    -0.13   0.08   0.30     0.22  -0.21  -0.39
    10   1     0.03   0.30  -0.09     0.02   0.06  -0.08    -0.12   0.01   0.15
    11   6     0.04  -0.02  -0.06    -0.01   0.06   0.08     0.05  -0.03  -0.04
    12   8    -0.03  -0.01   0.02     0.01  -0.04  -0.00    -0.00  -0.01   0.03
    13   6     0.02  -0.01  -0.01     0.00   0.05   0.00     0.02   0.02  -0.04
    14   1     0.02   0.16  -0.02    -0.06  -0.22   0.02     0.01   0.24  -0.05
    15   1    -0.03   0.05   0.07     0.06   0.05  -0.16    -0.04   0.15   0.03
    16   1    -0.07  -0.13   0.10     0.07   0.18  -0.17    -0.10  -0.16   0.12
    17   6     0.04  -0.03  -0.03    -0.18   0.15   0.22    -0.08   0.07   0.10
    18   9    -0.02   0.02   0.02     0.14  -0.09   0.04     0.06  -0.04   0.03
    19   9    -0.02  -0.03   0.02     0.08   0.11  -0.13     0.03   0.06  -0.05
    20   1     0.01  -0.12   0.22    -0.04   0.04   0.10     0.14  -0.07  -0.21
    21   9     0.02   0.03   0.01    -0.08  -0.14  -0.10    -0.04  -0.05  -0.04
                     22                     23                     24
                      A                      A                      A
 Frequencies --    745.7259               747.9770               881.0472
 Red. masses --      1.2376                 4.2234                 1.3281
 Frc consts  --      0.4055                 1.3922                 0.6074
 IR Inten    --      0.0000                 0.0000                 0.0000
  Atom  AN      X      Y      Z        X      Y      Z        X      Y      Z
     1   6    -0.01   0.01  -0.01    -0.11   0.08  -0.15    -0.01   0.01   0.00
     2   6    -0.02   0.03  -0.02    -0.13   0.10  -0.09     0.01  -0.01  -0.02
     3   6    -0.04   0.01   0.02    -0.13  -0.10  -0.08    -0.03   0.03   0.05
     4   6    -0.01  -0.02   0.02    -0.01  -0.16   0.11     0.05  -0.04  -0.07
     5   6     0.02  -0.05  -0.02    -0.00  -0.15   0.07     0.05  -0.04  -0.07
     6   7     0.06  -0.02  -0.06     0.12   0.13   0.10    -0.03   0.03   0.05
     7   1    -0.13   0.06   0.12    -0.23  -0.22  -0.17    -0.00  -0.01  -0.01
     8   1    -0.02   0.06   0.05    -0.03   0.15   0.03    -0.03   0.04   0.08
     9   1    -0.06   0.07   0.14     0.10  -0.05   0.06    -0.30   0.29   0.55
    10   1    -0.14   0.05   0.18    -0.17  -0.22  -0.23    -0.28   0.23   0.47
    11   6     0.02  -0.01  -0.01     0.10   0.01   0.06     0.00   0.00  -0.00
    12   8     0.01  -0.01   0.01     0.06  -0.06   0.07    -0.00  -0.00  -0.00
    13   6     0.01   0.02  -0.02     0.05   0.16  -0.05     0.01  -0.01  -0.02
    14   1     0.00   0.08  -0.02    -0.06   0.00  -0.04     0.01   0.12  -0.02
    15   1    -0.01   0.08  -0.00     0.04   0.37  -0.23    -0.02   0.03   0.05
    16   1    -0.03  -0.04   0.03    -0.02   0.11  -0.11    -0.04  -0.10   0.08
    17   6     0.01  -0.00  -0.01     0.02  -0.02  -0.02    -0.00  -0.00   0.00
    18   9    -0.01   0.00  -0.01    -0.01   0.01   0.00     0.00  -0.00   0.00
    19   9    -0.00  -0.00   0.01    -0.01  -0.03   0.01     0.00   0.00  -0.00
    20   1    -0.40   0.34   0.75     0.34  -0.04  -0.28     0.14  -0.10  -0.25
    21   9    -0.00   0.00   0.00     0.02   0.02   0.01    -0.00  -0.00  -0.00
                     25                     26                     27
                      A                      A                      A
 Frequencies --    893.4937               948.6130               968.7032
 Red. masses --      1.3581                 1.6499                 2.0466
 Frc consts  --      0.6388                 0.8748                 1.1315
 IR Inten    --      0.0000                 0.0000                 0.0000
  Atom  AN      X      Y      Z        X      Y      Z        X      Y      Z
     1   6     0.04  -0.04   0.02    -0.06   0.06  -0.03     0.00  -0.01   0.00
     2   6     0.03  -0.05  -0.09     0.09  -0.01  -0.09     0.00   0.03   0.01
     3   6    -0.02   0.01   0.04     0.01   0.01   0.02    -0.03  -0.04   0.00
     4   6     0.00  -0.00   0.01     0.01   0.02   0.01    -0.01   0.04  -0.03
     5   6    -0.01   0.04   0.02    -0.01  -0.02   0.02     0.03   0.05  -0.02
     6   7    -0.01   0.02  -0.00    -0.02  -0.06   0.01    -0.01  -0.03   0.01
     7   1    -0.40   0.27   0.53     0.26  -0.21  -0.43    -0.04   0.01   0.05
     8   1    -0.27   0.27   0.49    -0.11   0.38   0.65     0.12  -0.01  -0.04
     9   1     0.04  -0.07  -0.08     0.05   0.02  -0.03     0.01   0.08  -0.04
    10   1     0.06  -0.03  -0.13     0.13  -0.09  -0.08     0.09   0.07   0.08
    11   6    -0.00   0.00   0.00    -0.01   0.00   0.01    -0.05  -0.14   0.05
    12   8     0.00  -0.00   0.00    -0.00  -0.00  -0.00     0.08  -0.06   0.08
    13   6     0.01  -0.01  -0.02    -0.01  -0.01  -0.03    -0.11   0.12  -0.12
    14   1     0.01   0.10  -0.02     0.04   0.11  -0.03     0.35   0.44  -0.16
    15   1    -0.02   0.04   0.05    -0.03  -0.03   0.08    -0.03  -0.39   0.21
    16   1    -0.03  -0.07   0.06     0.01  -0.03   0.06     0.29   0.48  -0.06
    17   6     0.01  -0.01  -0.00     0.01  -0.02  -0.03    -0.01   0.01   0.01
    18   9    -0.03   0.01  -0.05     0.03  -0.01   0.07    -0.00   0.00  -0.01
    19   9    -0.00  -0.03   0.02     0.00   0.06  -0.02     0.00  -0.01   0.00
    20   1     0.06  -0.02  -0.13    -0.05  -0.07   0.11     0.02  -0.08   0.02
    21   9     0.03   0.02   0.01    -0.06  -0.02  -0.01     0.01   0.00   0.00
                     28                     29                     30
                      A                      A                      A
 Frequencies --   1001.4286              1020.4057              1035.4711
 Red. masses --      3.9590                 1.3590                 4.9099
 Frc consts  --      2.3392                 0.8337                 3.1017
 IR Inten    --      0.0000                 0.0000                 0.0000
  Atom  AN      X      Y      Z        X      Y      Z        X      Y      Z
     1   6    -0.02   0.03  -0.09    -0.01   0.01   0.01    -0.07   0.08  -0.01
     2   6     0.07   0.27  -0.05     0.01  -0.02  -0.02     0.05  -0.01  -0.01
     3   6     0.02   0.01   0.00    -0.00  -0.00  -0.00     0.01   0.01  -0.02
     4   6     0.17  -0.11   0.17    -0.06   0.05   0.08     0.01   0.00  -0.02
     5   6     0.05  -0.03   0.03     0.06  -0.05  -0.09     0.03  -0.05   0.08
     6   7    -0.25  -0.15  -0.06     0.00   0.01   0.01    -0.06  -0.04  -0.04
     7   1    -0.30   0.36   0.27     0.04  -0.03  -0.05     0.39  -0.07  -0.50
     8   1     0.32   0.15  -0.25    -0.03   0.05   0.12     0.12   0.09   0.22
     9   1     0.24  -0.12   0.11     0.28  -0.27  -0.53     0.01   0.21   0.13
    10   1     0.10   0.01   0.20    -0.30   0.27   0.57     0.27  -0.16  -0.05
    11   6     0.01  -0.00  -0.02     0.01  -0.01  -0.01    -0.03   0.01   0.03
    12   8    -0.01   0.00  -0.00    -0.00   0.00   0.00     0.00  -0.00  -0.01
    13   6    -0.01  -0.00   0.02    -0.00   0.01   0.02     0.02  -0.01  -0.02
    14   1    -0.02  -0.11   0.03    -0.01  -0.07   0.02    -0.03   0.10  -0.02
    15   1     0.01   0.00  -0.06     0.01   0.00  -0.04    -0.03   0.10   0.02
    16   1    -0.00   0.02  -0.04     0.01   0.03  -0.04    -0.05  -0.12   0.07
    17   6     0.01  -0.01   0.00    -0.02   0.01   0.02    -0.24   0.17   0.26
    18   9    -0.00   0.00  -0.00    -0.00   0.00  -0.01    -0.05   0.02  -0.16
    19   9     0.00   0.01  -0.00     0.00  -0.01   0.00     0.01  -0.18   0.02
    20   1    -0.18  -0.26  -0.13     0.06  -0.04  -0.08    -0.12  -0.01   0.12
    21   9    -0.01  -0.00   0.00     0.01   0.00  -0.00     0.19   0.06  -0.01
                     31                     32                     33
                      A                      A                      A
 Frequencies --   1045.8762              1068.7996              1091.4046
 Red. masses --      1.9294                 1.9195                 2.0765
 Frc consts  --      1.2435                 1.2919                 1.4573
 IR Inten    --      0.0000                 0.0000                 0.0000
  Atom  AN      X      Y      Z        X      Y      Z        X      Y      Z
     1   6     0.01  -0.00   0.01    -0.02   0.09  -0.10     0.13  -0.01   0.11
     2   6    -0.02   0.02   0.02     0.01  -0.10   0.09    -0.06  -0.04  -0.04
     3   6     0.03  -0.04  -0.07    -0.02  -0.02   0.00    -0.15  -0.06  -0.04
     4   6    -0.01   0.01   0.04    -0.03   0.10  -0.07     0.09  -0.01   0.05
     5   6     0.00   0.00  -0.01     0.03  -0.13   0.08     0.00   0.03  -0.02
     6   7    -0.01  -0.00  -0.00    -0.02   0.01  -0.01    -0.07   0.01  -0.05
     7   1     0.00   0.02   0.02    -0.11   0.51   0.14     0.52   0.20  -0.14
     8   1     0.04  -0.08  -0.17     0.35  -0.15   0.12    -0.34   0.00  -0.04
     9   1     0.09  -0.08  -0.13     0.29   0.53  -0.14     0.37   0.39   0.01
    10   1    -0.04   0.03   0.03     0.15  -0.15   0.15    -0.08   0.04  -0.06
    11   6    -0.09   0.09   0.16    -0.00  -0.00   0.00    -0.05  -0.08   0.01
    12   8     0.02  -0.02  -0.03    -0.00   0.00  -0.00     0.03   0.01   0.01
    13   6     0.07  -0.07  -0.13     0.01   0.00   0.00     0.06   0.05   0.01
    14   1    -0.01   0.58  -0.14    -0.02  -0.02   0.01    -0.09  -0.02   0.01
    15   1    -0.13   0.18   0.27     0.01   0.05  -0.03     0.04   0.24  -0.14
    16   1    -0.13  -0.46   0.38    -0.02  -0.02  -0.00    -0.05  -0.01  -0.08
    17   6     0.01  -0.01  -0.02     0.03  -0.02  -0.03     0.01  -0.01  -0.02
    18   9     0.00  -0.00   0.01     0.00  -0.00   0.01     0.00  -0.00   0.01
    19   9    -0.00   0.01  -0.00    -0.00   0.02  -0.00    -0.00   0.01   0.00
    20   1     0.00  -0.00  -0.02    -0.02   0.02  -0.09    -0.14   0.15  -0.12
    21   9    -0.01  -0.00   0.00    -0.02  -0.01   0.00    -0.01  -0.00   0.00
                     34                     35                     36
                      A                      A                      A
 Frequencies --   1106.7551              1200.2512              1258.2071
 Red. masses --      2.0152                 1.1993                 1.6720
 Frc consts  --      1.4543                 1.0180                 1.5595
 IR Inten    --      0.0000                 0.0000                 0.0000
  Atom  AN      X      Y      Z        X      Y      Z        X      Y      Z
     1   6     0.01  -0.00  -0.00     0.03   0.07  -0.03    -0.04  -0.05   0.02
     2   6     0.05   0.04   0.02    -0.05  -0.02  -0.02     0.02  -0.02   0.01
     3   6    -0.10  -0.12   0.01    -0.01   0.01  -0.01     0.04   0.05  -0.01
     4   6    -0.07   0.02  -0.07    -0.04  -0.02  -0.01     0.00  -0.01   0.01
     5   6     0.02   0.13  -0.05     0.05  -0.01   0.03     0.07  -0.05   0.06
     6   7     0.02  -0.06   0.04     0.01  -0.02   0.02    -0.05   0.10  -0.08
     7   1    -0.14  -0.15   0.07     0.26   0.52  -0.06    -0.16  -0.40  -0.02
     8   1     0.51   0.04   0.17    -0.30  -0.02  -0.12    -0.00  -0.01   0.02
     9   1    -0.19  -0.08  -0.02    -0.36  -0.46   0.04    -0.11  -0.17   0.02
    10   1     0.28   0.13   0.10     0.38  -0.02   0.21     0.43  -0.06   0.26
    11   6    -0.07  -0.08   0.01    -0.01  -0.01   0.00    -0.08  -0.08   0.01
    12   8     0.01   0.03  -0.01     0.00   0.00   0.00     0.02   0.01   0.00
    13   6     0.10   0.05   0.03     0.01   0.00   0.00     0.03   0.02   0.01
    14   1    -0.18  -0.08   0.04    -0.01   0.01   0.00    -0.05   0.07   0.00
    15   1     0.05   0.44  -0.24     0.00   0.01  -0.01     0.01   0.16  -0.09
    16   1    -0.13  -0.13  -0.07    -0.00   0.01  -0.02    -0.01   0.02  -0.09
    17   6    -0.00   0.00  -0.00     0.00  -0.02  -0.01     0.04   0.01  -0.01
    18   9     0.00  -0.00   0.00     0.00   0.00   0.00    -0.00  -0.00   0.00
    19   9    -0.00   0.00   0.00    -0.00   0.01  -0.00    -0.00  -0.00   0.00
    20   1     0.10  -0.23   0.14     0.04  -0.08   0.04    -0.23   0.50  -0.33
    21   9     0.00  -0.00   0.00    -0.00   0.00   0.00    -0.02  -0.01   0.00
                     37                     38                     39
                      A                      A                      A
 Frequencies --   1266.3443              1310.5317              1326.6587
 Red. masses --      2.3645                11.6648                12.5024
 Frc consts  --      2.2341                11.8038                12.9646
 IR Inten    --      0.0000                 0.0000                 0.0000
  Atom  AN      X      Y      Z        X      Y      Z        X      Y      Z
     1   6     0.05  -0.02   0.06     0.00   0.03  -0.01     0.02   0.03  -0.01
     2   6    -0.04  -0.01  -0.02    -0.01   0.01  -0.00    -0.03   0.00  -0.01
     3   6    -0.17  -0.08  -0.04    -0.03  -0.03   0.00     0.02  -0.01   0.02
     4   6    -0.02  -0.03   0.00    -0.01  -0.01  -0.01     0.01   0.01  -0.00
     5   6     0.05   0.05   0.00    -0.01   0.03  -0.02    -0.02  -0.01  -0.01
     6   7    -0.03   0.02  -0.03     0.01  -0.04   0.03     0.01  -0.04   0.01
     7   1     0.07  -0.15  -0.00     0.21   0.02  -0.19    -0.06   0.14   0.10
     8   1     0.43   0.01   0.20    -0.03   0.02  -0.00    -0.09   0.02  -0.01
     9   1    -0.04  -0.04   0.01     0.02   0.06  -0.00    -0.01  -0.02  -0.00
    10   1     0.45   0.04   0.23    -0.05   0.03  -0.04    -0.01  -0.01   0.00
    11   6     0.18   0.18  -0.01     0.03   0.03  -0.00     0.01   0.00  -0.00
    12   8    -0.02  -0.02   0.00    -0.01  -0.00  -0.00    -0.01   0.00  -0.00
    13   6    -0.07  -0.04  -0.02    -0.01  -0.01  -0.00    -0.00  -0.00  -0.00
    14   1     0.15  -0.16  -0.01     0.02  -0.03  -0.00     0.01  -0.03   0.00
    15   1    -0.04  -0.34   0.20    -0.01  -0.04   0.03    -0.01   0.00   0.01
    16   1     0.05  -0.04   0.23     0.01  -0.01   0.04     0.01   0.00   0.03
    17   6    -0.00   0.00  -0.02     0.68   0.22   0.44     0.05   0.75  -0.45
    18   9     0.00  -0.00   0.01    -0.12   0.02  -0.23     0.06  -0.06   0.18
    19   9     0.00  -0.00   0.00    -0.03  -0.06  -0.01     0.00  -0.33   0.07
    20   1    -0.13   0.24  -0.17     0.09  -0.17   0.05     0.06  -0.13   0.02
    21   9     0.00   0.00   0.00    -0.27  -0.09  -0.02    -0.10  -0.07   0.02
                     40                     41                     42
                      A                      A                      A
 Frequencies --   1337.2824              1382.1281              1396.8249
 Red. masses --      1.4739                 2.8602                 1.4443
 Frc consts  --      1.5530                 3.2192                 1.6603
 IR Inten    --      0.0000                 0.0000                 0.0000
  Atom  AN      X      Y      Z        X      Y      Z        X      Y      Z
     1   6    -0.02  -0.08   0.03    -0.12  -0.15   0.03    -0.02  -0.02   0.01
     2   6    -0.02  -0.03   0.00     0.17   0.04   0.05     0.03   0.01   0.01
     3   6    -0.05   0.12  -0.09    -0.04   0.03  -0.03    -0.02  -0.01  -0.00
     4   6     0.03   0.01   0.01    -0.15  -0.14  -0.01    -0.05  -0.05   0.00
     5   6     0.04  -0.02   0.04     0.13   0.05   0.05     0.02   0.02  -0.00
     6   7    -0.01   0.01  -0.00    -0.03   0.12  -0.06    -0.00   0.03  -0.01
     7   1     0.22   0.30  -0.03     0.18   0.27  -0.09     0.03   0.03  -0.01
     8   1     0.58   0.01   0.28    -0.25   0.03  -0.13    -0.08   0.00  -0.04
     9   1    -0.20  -0.32   0.05     0.16   0.30  -0.08     0.09   0.14  -0.02
    10   1    -0.42  -0.01  -0.25     0.04   0.06  -0.03     0.11   0.02   0.05
    11   6    -0.02  -0.02   0.01    -0.00  -0.00   0.00     0.05   0.05  -0.00
    12   8     0.02  -0.00   0.01     0.00   0.00   0.00    -0.01  -0.00  -0.01
    13   6    -0.01  -0.02   0.01     0.01   0.06  -0.03    -0.04  -0.14   0.06
    14   1     0.05   0.07  -0.01    -0.02  -0.28  -0.00     0.07   0.57   0.01
    15   1    -0.02   0.09  -0.07     0.05  -0.21   0.14    -0.11   0.38  -0.24
    16   1     0.05   0.06  -0.02    -0.12  -0.18   0.19     0.28   0.36  -0.37
    17   6     0.01   0.01  -0.01     0.01   0.00  -0.02     0.00   0.00  -0.01
    18   9     0.00  -0.00   0.00     0.00  -0.00   0.01     0.00  -0.00   0.00
    19   9    -0.00  -0.00   0.00    -0.00   0.00   0.00    -0.00  -0.00   0.00
    20   1    -0.00   0.00  -0.00     0.20  -0.40   0.29     0.06  -0.12   0.09
    21   9    -0.01  -0.00   0.00    -0.01  -0.00   0.00    -0.00  -0.00   0.00
                     43                     44                     45
                      A                      A                      A
 Frequencies --   1453.7047              1465.3462              1523.7358
 Red. masses --      1.0500                 1.0447                 2.2887
 Frc consts  --      1.3074                 1.3217                 3.1308
 IR Inten    --      0.0000                 0.0000                 0.0000
  Atom  AN      X      Y      Z        X      Y      Z        X      Y      Z
     1   6    -0.00   0.00  -0.00     0.00   0.00  -0.00     0.01  -0.04   0.02
     2   6     0.00  -0.00  -0.00     0.00  -0.00   0.00    -0.10  -0.01  -0.04
     3   6     0.01  -0.00   0.01    -0.00   0.00   0.00     0.10   0.14  -0.03
     4   6     0.00   0.00  -0.00     0.00   0.00  -0.00    -0.01  -0.14   0.07
     5   6    -0.00  -0.00  -0.00     0.00  -0.00   0.00    -0.16   0.02  -0.10
     6   7     0.00   0.00   0.00    -0.00  -0.00  -0.00     0.06   0.03   0.03
     7   1    -0.01  -0.00  -0.00    -0.00  -0.00   0.00     0.12   0.16   0.02
     8   1    -0.05  -0.00  -0.03     0.01  -0.01  -0.01     0.40   0.02   0.18
     9   1     0.01   0.01  -0.00    -0.01  -0.00   0.00     0.30   0.27   0.02
    10   1     0.01  -0.00   0.01    -0.01   0.00  -0.00     0.57   0.00   0.33
    11   6    -0.01  -0.02   0.01     0.01  -0.01  -0.02    -0.05  -0.03  -0.01
    12   8    -0.01   0.01  -0.01     0.00  -0.00   0.00     0.02  -0.00   0.01
    13   6    -0.04  -0.01  -0.02     0.03  -0.02  -0.04     0.00   0.01  -0.01
    14   1     0.51  -0.30  -0.02    -0.48  -0.23   0.01    -0.02  -0.04  -0.00
    15   1    -0.11   0.41  -0.20    -0.27   0.29   0.60     0.00  -0.01   0.02
    16   1     0.31   0.07   0.56     0.35   0.28   0.04    -0.02  -0.02   0.02
    17   6    -0.00  -0.00   0.00    -0.00  -0.00   0.00     0.00  -0.00   0.00
    18   9    -0.00   0.00  -0.00     0.00   0.00   0.00    -0.00   0.00  -0.00
    19   9     0.00   0.00  -0.00     0.00   0.00  -0.00    -0.00   0.00   0.00
    20   1     0.00   0.00   0.00    -0.00   0.00  -0.00     0.13  -0.12   0.13
    21   9     0.00   0.00  -0.00     0.00   0.00   0.00     0.00   0.00  -0.00
                     46                     47                     48
                      A                      A                      A
 Frequencies --   1528.2393              1620.6317              1663.7918
 Red. masses --      2.2931                 3.0533                 4.9096
 Frc consts  --      3.1555                 4.7249                 8.0074
 IR Inten    --      0.0000                 0.0000                 0.0000
  Atom  AN      X      Y      Z        X      Y      Z        X      Y      Z
     1   6    -0.14  -0.15   0.01    -0.05   0.05  -0.08     0.12   0.15   0.01
     2   6    -0.03   0.11  -0.08     0.15  -0.05   0.11    -0.22  -0.03  -0.09
     3   6     0.10  -0.13   0.12    -0.10   0.13  -0.12     0.19   0.05   0.07
     4   6    -0.02   0.04  -0.03    -0.04  -0.12   0.04    -0.24  -0.19  -0.04
     5   6     0.00   0.03  -0.01    -0.01   0.11  -0.06     0.28   0.12   0.10
     6   7     0.07  -0.02   0.05     0.08  -0.17   0.12    -0.07  -0.10  -0.00
     7   1     0.28   0.52  -0.11    -0.14   0.14  -0.01    -0.06  -0.25   0.02
     8   1     0.14   0.14  -0.01    -0.27  -0.09  -0.08     0.27   0.01   0.14
     9   1     0.03   0.12  -0.04     0.11   0.09   0.01     0.13   0.35  -0.12
    10   1    -0.03   0.04  -0.04    -0.01   0.14  -0.07    -0.38   0.17  -0.31
    11   6     0.01   0.01   0.00    -0.00   0.00  -0.00    -0.03  -0.01  -0.01
    12   8    -0.02   0.01  -0.01     0.02  -0.01   0.01     0.00  -0.00   0.00
    13   6     0.00  -0.00   0.00    -0.01  -0.00  -0.00     0.00   0.00   0.00
    14   1    -0.02   0.01   0.00     0.02  -0.00  -0.00    -0.01  -0.01   0.00
    15   1     0.00   0.01  -0.00    -0.00  -0.01   0.00     0.00   0.02  -0.01
    16   1    -0.00  -0.00  -0.02     0.01   0.01   0.01    -0.01  -0.01   0.00
    17   6    -0.00   0.00   0.00    -0.01   0.01   0.01     0.01  -0.01  -0.01
    18   9    -0.00  -0.00  -0.00     0.00  -0.00   0.00     0.00   0.00   0.00
    19   9     0.00  -0.00   0.00     0.00  -0.00   0.00    -0.00   0.00  -0.00
    20   1    -0.18   0.56  -0.34    -0.26   0.63  -0.43    -0.17   0.13  -0.16
    21   9     0.00   0.00  -0.00     0.00  -0.00  -0.00    -0.01  -0.00   0.00
                     49                     50                     51
                      A                      A                      A
 Frequencies --   1828.7408              3054.1713              3114.4006
 Red. masses --     11.6925                 1.0395                 1.0992
 Frc consts  --     23.0388                 5.7127                 6.2816
 IR Inten    --      0.0000                 0.0000                 0.0000
  Atom  AN      X      Y      Z        X      Y      Z        X      Y      Z
     1   6     0.01   0.01  -0.00     0.00   0.00  -0.00    -0.00  -0.00   0.00
     2   6    -0.02  -0.02   0.00    -0.00  -0.00   0.00    -0.00   0.00   0.00
     3   6     0.01   0.07  -0.03    -0.00   0.00  -0.00     0.00  -0.00  -0.00
     4   6     0.00  -0.03   0.02     0.00   0.00   0.00     0.00   0.00   0.00
     5   6    -0.00   0.01  -0.01    -0.00   0.00  -0.00    -0.00  -0.00  -0.00
     6   7     0.00  -0.01   0.00     0.00  -0.00   0.00     0.00   0.00  -0.00
     7   1    -0.01  -0.01   0.01     0.00  -0.00   0.00    -0.00   0.00   0.00
     8   1     0.04  -0.02   0.03     0.00   0.01  -0.00     0.00  -0.00   0.00
     9   1     0.06   0.03   0.02    -0.00   0.00  -0.00    -0.00   0.00  -0.00
    10   1     0.04   0.01   0.02     0.00   0.00   0.00     0.00  -0.00  -0.00
    11   6     0.43  -0.42   0.49    -0.00  -0.00  -0.00     0.00  -0.00  -0.00
    12   8    -0.32   0.25  -0.32     0.00  -0.00   0.00     0.00  -0.00  -0.00
    13   6    -0.01   0.05  -0.04    -0.01   0.05  -0.03     0.04  -0.04  -0.07
    14   1    -0.07   0.15  -0.03     0.02   0.04   0.61     0.04   0.03   0.74
    15   1     0.04  -0.20   0.13    -0.33  -0.10  -0.10    -0.03  -0.02  -0.03
    16   1    -0.02   0.07  -0.14     0.47  -0.48  -0.22    -0.45   0.46   0.18
    17   6    -0.00   0.00   0.00     0.00  -0.00  -0.00    -0.00   0.00  -0.00
    18   9    -0.00   0.00  -0.00    -0.00   0.00   0.00    -0.00  -0.00   0.00
    19   9     0.00  -0.00  -0.00    -0.00   0.00   0.00    -0.00   0.00   0.00
    20   1    -0.00   0.01  -0.01    -0.00  -0.00   0.00     0.00  -0.00  -0.00
    21   9     0.00   0.00  -0.00    -0.00   0.00   0.00     0.00   0.00   0.00
                     52                     53                     54
                      A                      A                      A
 Frequencies --   3179.9041              3210.6561              3240.6356
 Red. masses --      1.1006                 1.0940                 1.0911
 Frc consts  --      6.5568                 6.6443                 6.7512
 IR Inten    --      0.0000                 0.0000                 0.0000
  Atom  AN      X      Y      Z        X      Y      Z        X      Y      Z
     1   6    -0.00   0.00  -0.00    -0.06   0.03  -0.06     0.00   0.00   0.00
     2   6    -0.00  -0.00   0.00     0.00  -0.01   0.01    -0.00  -0.00   0.00
     3   6     0.00   0.00  -0.00     0.00   0.00  -0.00    -0.00  -0.00   0.00
     4   6     0.00   0.00   0.00    -0.00  -0.00  -0.00    -0.05   0.03  -0.05
     5   6    -0.00  -0.00  -0.00     0.00   0.00   0.00    -0.00  -0.03   0.01
     6   7     0.00  -0.00   0.00     0.00  -0.00   0.00     0.00   0.00   0.00
     7   1     0.00  -0.00   0.00     0.63  -0.28   0.70    -0.00   0.00  -0.00
     8   1     0.00   0.01  -0.00     0.02   0.14  -0.07     0.01   0.05  -0.02
     9   1    -0.00   0.00  -0.00    -0.00  -0.00   0.00     0.63  -0.39   0.56
    10   1    -0.00  -0.00   0.00    -0.00  -0.01   0.00     0.07   0.33  -0.12
    11   6    -0.00   0.00  -0.00     0.00  -0.00   0.00    -0.00   0.00  -0.00
    12   8     0.00  -0.00   0.00     0.00   0.00   0.00    -0.00  -0.00   0.00
    13   6    -0.08  -0.01  -0.04     0.00  -0.00   0.00    -0.00  -0.00  -0.00
    14   1     0.00   0.02   0.26    -0.00  -0.00  -0.00    -0.00   0.00   0.00
    15   1     0.86   0.28   0.26    -0.00  -0.00  -0.00     0.00   0.00   0.00
    16   1     0.14  -0.16  -0.07    -0.00   0.00   0.00     0.00  -0.00  -0.00
    17   6     0.00  -0.00  -0.00    -0.00  -0.00  -0.00     0.00   0.00  -0.00
    18   9    -0.00   0.00   0.00     0.00   0.00   0.00     0.00  -0.00  -0.00
    19   9    -0.00   0.00   0.00     0.00  -0.00   0.00     0.00  -0.00  -0.00
    20   1    -0.00  -0.00   0.00    -0.01  -0.00  -0.01    -0.00  -0.00   0.00
    21   9    -0.00   0.00   0.00     0.00   0.00   0.00     0.00  -0.00   0.00
                     55                     56                     57
                      A                      A                      A
 Frequencies --   3244.8601              3258.1568              3571.7306
 Red. masses --      1.0928                 1.0984                 1.0790
 Frc consts  --      6.7791                 6.8698                 8.1105
 IR Inten    --      0.0000                 0.0000                 0.0000
  Atom  AN      X      Y      Z        X      Y      Z        X      Y      Z
     1   6     0.01  -0.00   0.01    -0.00   0.00  -0.00    -0.00   0.00  -0.00
     2   6    -0.01  -0.08   0.04     0.00   0.00  -0.00     0.00   0.00   0.00
     3   6    -0.00   0.00  -0.00     0.00   0.00  -0.00    -0.00  -0.00   0.00
     4   6     0.00  -0.00   0.00     0.03  -0.01   0.02     0.00   0.00   0.00
     5   6    -0.00  -0.00   0.00    -0.02  -0.08   0.03     0.00  -0.00   0.00
     6   7     0.00   0.00  -0.00    -0.00   0.00  -0.00    -0.06  -0.04  -0.02
     7   1    -0.10   0.04  -0.11     0.01  -0.00   0.01     0.01  -0.00   0.01
     8   1     0.14   0.88  -0.42    -0.00  -0.03   0.01     0.00   0.00  -0.00
     9   1    -0.04   0.03  -0.04    -0.24   0.15  -0.21    -0.00  -0.00  -0.00
    10   1     0.00   0.01  -0.00     0.20   0.86  -0.30     0.00   0.01  -0.00
    11   6     0.00  -0.00   0.00     0.00  -0.00   0.00    -0.00  -0.00  -0.00
    12   8     0.00   0.00   0.00    -0.00   0.00  -0.00     0.00   0.00   0.00
    13   6     0.00  -0.00   0.00     0.00  -0.00   0.00     0.00   0.00   0.00
    14   1    -0.00  -0.00  -0.00    -0.00  -0.00  -0.00    -0.00  -0.00   0.00
    15   1    -0.00  -0.00  -0.00    -0.00  -0.00  -0.00     0.00   0.00   0.00
    16   1    -0.01   0.00   0.00    -0.00  -0.00   0.00     0.00  -0.00  -0.00
    17   6    -0.00  -0.00  -0.00     0.00   0.00   0.00     0.00  -0.00  -0.00
    18   9     0.00   0.00  -0.00    -0.00   0.00   0.00    -0.00   0.00   0.00
    19   9     0.00   0.00  -0.00    -0.00   0.00   0.00    -0.00   0.00   0.00
    20   1     0.00  -0.00   0.00    -0.01  -0.01  -0.00     0.82   0.52   0.24
    21   9    -0.00   0.00   0.00    -0.00   0.00  -0.00    -0.00  -0.00   0.00

 -------------------
 - Thermochemistry -
 -------------------
 Temperature   298.150 Kelvin.  Pressure   1.00000 Atm.
 Atom     1 has atomic number  6 and mass  12.00000
 Atom     2 has atomic number  6 and mass  12.00000
 Atom     3 has atomic number  6 and mass  12.00000
 Atom     4 has atomic number  6 and mass  12.00000
 Atom     5 has atomic number  6 and mass  12.00000
 Atom     6 has atomic number  7 and mass  14.00307
 Atom     7 has atomic number  1 and mass   1.00783
 Atom     8 has atomic number  1 and mass   1.00783
 Atom     9 has atomic number  1 and mass   1.00783
 Atom    10 has atomic number  1 and mass   1.00783
 Atom    11 has atomic number  6 and mass  12.00000
 Atom    12 has atomic number  8 and mass  15.99491
 Atom    13 has atomic number  6 and mass  12.00000
 Atom    14 has atomic number  1 and mass   1.00783
 Atom    15 has atomic number  1 and mass   1.00783
 Atom    16 has atomic number  1 and mass   1.00783
 Atom    17 has atomic number  6 and mass  12.00000
 Atom    18 has atomic number  9 and mass  18.99840
 Atom    19 has atomic number  9 and mass  18.99840
 Atom    20 has atomic number  1 and mass   1.00783
 Atom    21 has atomic number  9 and mass  18.99840
 Molecular mass:   191.05580 amu.
 Principal axes and moments of inertia in atomic units:
                           1         2         3
     Eigenvalues --  1395.557153316.590743951.52020
           X            0.99894   0.04604   0.00218
           Y           -0.04593   0.99824  -0.03760
           Z           -0.00390   0.03746   0.99929
 This molecule is an asymmetric top.
 Rotational symmetry number  1.
 Warning -- assumption of classical behavior for rotation
           may cause significant error
 Rotational temperatures (Kelvin)      0.06206     0.02612     0.02192
 Rotational constants (GHZ):           1.29320     0.54416     0.45672
    1 imaginary frequencies ignored.
 Zero-point vibrational energy     400856.3 (Joules/Mol)
                                   95.80696 (Kcal/Mol)
 Warning -- explicit consideration of  17 degrees of freedom as
           vibrations may cause significant error
 Vibrational temperatures:     46.44    50.84    86.73   138.85   226.28
          (Kelvin)            239.46   247.68   279.78   345.91   511.57
                              556.74   600.53   658.17   743.54   753.56
                              833.41   853.53   940.71   958.79  1035.34
                             1072.93  1076.17  1267.63  1285.54  1364.84
                             1393.75  1440.83  1468.14  1489.81  1504.78
                             1537.76  1570.29  1592.37  1726.89  1810.28
                             1821.99  1885.56  1908.77  1924.05  1988.57
                             2009.72  2091.56  2108.31  2192.32  2198.80
                             2331.73  2393.83  2631.15  4394.27  4480.93
                             4575.17  4619.42  4662.55  4668.63  4687.76
                             5138.92
 
 Zero-point correction=                           0.152678 (Hartree/Particle)
 Thermal correction to Energy=                    0.164790
 Thermal correction to Enthalpy=                  0.165734
 Thermal correction to Gibbs Free Energy=         0.111685
 Sum of electronic and zero-point Energies=           -738.774836
 Sum of electronic and thermal Energies=              -738.762724
 Sum of electronic and thermal Enthalpies=            -738.761780
 Sum of electronic and thermal Free Energies=         -738.815829
 
                     E (Thermal)             CV                S
                      KCal/Mol        Cal/Mol-Kelvin    Cal/Mol-Kelvin
 Total                  103.407             43.343            113.755
 Electronic               0.000              0.000              1.377
 Translational            0.889              2.981             41.648
 Rotational               0.889              2.981             31.281
 Vibrational            101.630             37.382             39.449
 Vibration     1          0.594              1.983              5.684
 Vibration     2          0.594              1.982              5.505
 Vibration     3          0.597              1.973              4.448
 Vibration     4          0.603              1.952              3.524
 Vibration     5          0.621              1.895              2.582
 Vibration     6          0.624              1.884              2.475
 Vibration     7          0.626              1.877              2.412
 Vibration     8          0.635              1.848              2.185
 Vibration     9          0.658              1.779              1.800
 Vibration    10          0.731              1.564              1.141
 Vibration    11          0.755              1.498              1.012
 Vibration    12          0.780              1.432              0.901
 Vibration    13          0.816              1.344              0.774
 Vibration    14          0.872              1.213              0.617
 Vibration    15          0.879              1.197              0.601
 Vibration    16          0.936              1.076              0.487
 Vibration    17          0.951              1.046              0.461
                       Q            Log10(Q)             Ln(Q)
 Total Bot       0.424905D-51        -51.371708       -118.287729
 Total V=0       0.716610D+19         18.855283         43.415894
 Vib (Bot)       0.133697D-65        -65.873880       -151.680213
 Vib (Bot)    1  0.641418D+01          0.807141          1.858512
 Vib (Bot)    2  0.585783D+01          0.767737          1.767780
 Vib (Bot)    3  0.342576D+01          0.534757          1.231324
 Vib (Bot)    4  0.212798D+01          0.327968          0.755175
 Vib (Bot)    5  0.128650D+01          0.109411          0.251929
 Vib (Bot)    6  0.121226D+01          0.083596          0.192488
 Vib (Bot)    7  0.116982D+01          0.068120          0.156851
 Vib (Bot)    8  0.102754D+01          0.011800          0.027172
 Vib (Bot)    9  0.815409D+00         -0.088625         -0.204066
 Vib (Bot)   10  0.517022D+00         -0.286491         -0.659669
 Vib (Bot)   11  0.464968D+00         -0.332577         -0.765787
 Vib (Bot)   12  0.421522D+00         -0.375180         -0.863884
 Vib (Bot)   13  0.372600D+00         -0.428757         -0.987250
 Vib (Bot)   14  0.313258D+00         -0.504097         -1.160727
 Vib (Bot)   15  0.307129D+00         -0.512679         -1.180488
 Vib (Bot)   16  0.263265D+00         -0.579606         -1.334593
 Vib (Bot)   17  0.253453D+00         -0.596102         -1.372576
 Vib (V=0)       0.225482D+05          4.353111         10.023410
 Vib (V=0)    1  0.693364D+01          0.840961          1.936385
 Vib (V=0)    2  0.637913D+01          0.804762          1.853032
 Vib (V=0)    3  0.396206D+01          0.597921          1.376764
 Vib (V=0)    4  0.268594D+01          0.429096          0.988029
 Vib (V=0)    5  0.188025D+01          0.274216          0.631405
 Vib (V=0)    6  0.181133D+01          0.257997          0.594060
 Vib (V=0)    7  0.177220D+01          0.248512          0.572219
 Vib (V=0)    8  0.164274D+01          0.215568          0.496363
 Vib (V=0)    9  0.145650D+01          0.163310          0.376036
 Vib (V=0)   10  0.121924D+01          0.086091          0.198231
 Vib (V=0)   11  0.118278D+01          0.072906          0.167872
 Vib (V=0)   12  0.115397D+01          0.062196          0.143211
 Vib (V=0)   13  0.112356D+01          0.050597          0.116505
 Vib (V=0)   14  0.109003D+01          0.037437          0.086202
 Vib (V=0)   15  0.108679D+01          0.036148          0.083233
 Vib (V=0)   16  0.106507D+01          0.027380          0.063044
 Vib (V=0)   17  0.106057D+01          0.025539          0.058806
 Electronic      0.200000D+01          0.301030          0.693147
 Translational   0.103799D+09          8.016194         18.457969
 Rotational      0.153090D+07          6.184947         14.241368
 ***** Axes restored to original set *****
 -------------------------------------------------------------------
 Center     Atomic                   Forces (Hartrees/Bohr)
 Number     Number              X              Y              Z
 -------------------------------------------------------------------
      1        6           0.000009111   -0.000013187   -0.000008979
      2        6          -0.000005131    0.000002397    0.000004926
      3        6          -0.000002332    0.000001296   -0.000002134
      4        6          -0.000007148   -0.000005353   -0.000000185
      5        6           0.000015184   -0.000000074    0.000010070
      6        7          -0.000012072    0.000017988   -0.000003771
      7        1          -0.000001445    0.000002572    0.000001799
      8        1          -0.000000253   -0.000001464   -0.000001264
      9        1           0.000000343   -0.000000319   -0.000000656
     10        1          -0.000000376   -0.000000119   -0.000000323
     11        6          -0.000001259   -0.000002099    0.000000986
     12        8           0.000002904    0.000000022   -0.000000218
     13        6           0.000000695    0.000000322    0.000000425
     14        1          -0.000000090   -0.000000226    0.000000041
     15        1           0.000001225    0.000000571   -0.000000196
     16        1          -0.000000233    0.000000028   -0.000000114
     17        6          -0.000005059    0.000010636    0.000014172
     18        9           0.000002623   -0.000004637   -0.000004544
     19        9          -0.000001369   -0.000003776   -0.000005126
     20        1           0.000000325    0.000000059   -0.000000816
     21        9           0.000004364   -0.000004636   -0.000004087
 -------------------------------------------------------------------
 Cartesian Forces:  Max     0.000017988 RMS     0.000005382
 Red2BG is reusing G-inverse.
 Leave Link  716 at Mon Dec  1 22:41:47 2025, MaxMem=   104857600 cpu:               0.0 elap:               0.0
 (Enter /home/zhouoh/g16/l9999.exe)
 1\1\GINC-ZHOUOH-B650M\Freq\UExternal='python ../GauUMA_client.py'\ZDO\
 C8H8F3N1O1(1+,2)\ZHOUOH\01-Dec-2025\0\\#p opt=(calcall,ts,noeigen,nomi
 cro) external='python ../GauUMA_client.py'\\t\\1,2\C,0.85458875,0.4534
 122294,1.176505731\C,-0.3553375188,-0.2437471593,0.9899836633\C,-1.326
 4063268,0.2777810661,0.1661360631\C,-1.1274257658,1.538848882,-0.42740
 6608\C,-0.0067429536,2.2558502979,-0.1199764931\N,0.926093578,1.734217
 003,0.7106187523\H,1.5497908202,0.1913203583,1.9642034753\H,-0.4685132
 093,-1.2049262583,1.4709912911\H,-1.8806129158,1.9416733905,-1.0884881
 97\H,0.1893528849,3.2502965437,-0.4923026526\C,-2.6264149451,-0.452520
 3478,-0.1468729995\O,-3.3887742269,0.073972915,-0.9118381501\C,-2.8752
 091409,-1.7795280625,0.5044189093\H,-2.8364252203,-1.6918351462,1.5921
 740233\H,-3.8548510566,-2.1401646924,0.2057087104\H,-2.1159626314,-2.5
 026659082,0.1975312644\C,2.0155263215,-0.5978167016,-0.2751650713\F,1.
 4589145261,-0.3884573112,-1.4398571193\F,2.0226485304,-1.8608284025,0.
 0563508854\H,1.7379353136,2.2913933943,0.9429286751\F,3.2031411866,-0.
 0461080902,-0.1913851531\\Version=ES64L-G16RevA.03\HF=-738.9275146\S2=
 0.\S2-1=0.\S2A=0.\RMSD=0.000e+00\RMSF=5.382e-06\ZeroPoint=0.1526781\Th
 ermal=0.1647902\Dipole=0.,0.,0.\PG=C01 [X(C8H8F3N1O1)]\NImag=1\\0.5249
 1899,0.14373403,0.49885328,0.28524225,-0.20277720,0.40913435,-0.222052
 18,-0.10420854,-0.07564811,0.56559843,-0.10071487,-0.15572152,-0.00329
 875,0.07844776,0.62617789,-0.02968596,0.01715828,-0.09709390,0.1753187
 4,-0.23267379,0.36608254,-0.03992935,-0.00631030,-0.02281877,-0.238087
 74,0.07043001,-0.13611573,0.55157688,0.02392863,0.03777662,-0.02328483
 ,0.02410738,-0.15488981,0.06461718,0.04978413,0.54544255,-0.03666793,-
 0.02005326,0.01216415,-0.11167026,0.08923852,-0.17313793,0.19554168,-0
 .19716084,0.36393602,-0.00583256,-0.04142605,0.00109150,0.03324182,0.0
 2659145,0.00449589,-0.11728904,-0.01122935,-0.02314275,0.63282629,-0.0
 1224674,-0.04101279,0.00294599,0.04512132,-0.01009752,0.03790102,-0.04
 960656,-0.25216263,0.07878953,0.10019654,0.57074395,0.00715173,-0.0071
 9534,-0.00807345,-0.00843274,0.02415792,-0.01070163,-0.00117447,0.1019
 8452,-0.12389321,0.24707077,-0.17787454,0.37979667,0.00704746,0.079704
 23,-0.00201219,-0.03226675,-0.00835767,-0.01936581,0.01200215,-0.05704
 740,0.03240487,-0.27804345,-0.09982474,-0.07681544,0.57894732,0.021769
 44,-0.02279711,0.03237080,0.00349483,-0.00308152,0.00093627,-0.0306775
 6,-0.02106128,-0.00303417,-0.15207627,-0.20687033,-0.02121797,0.167210
 42,0.71510773,-0.00862152,0.06204570,-0.00838069,-0.01761983,-0.005747
 55,-0.01758639,0.01884993,-0.01724567,0.02796329,-0.05172673,0.0093264
 7,-0.10094921,0.17710890,-0.18016207,0.34183638,-0.11842478,-0.0507874
 2,-0.02736614,0.01023757,-0.03334047,0.01965625,-0.00501820,0.02362527
 ,-0.00981961,-0.05844233,-0.01976666,-0.03288020,-0.20521365,0.0540672
 7,-0.11891209,0.67202851,-0.04911023,-0.24360824,0.12155338,-0.0337833
 5,-0.03548472,-0.01030180,0.01586977,-0.02787905,0.01947137,0.02458781
 ,0.05461281,-0.00760756,-0.00620383,-0.16950168,0.04989102,0.16661676,
 0.66035089,-0.02908244,0.04697625,-0.12333492,0.02145305,0.00530776,0.
 02329045,-0.00443846,0.02296359,-0.02439591,-0.05240983,-0.03167152,-0
 .00593336,-0.09112863,0.08414377,-0.15340175,0.26153823,-0.13136580,0.
 33248742,-0.16605425,0.03417955,-0.14718736,-0.01288408,0.00731156,-0.
 01864154,-0.00251690,-0.00598566,-0.00130007,-0.00151401,-0.00136272,-
 0.00000741,0.00498397,-0.00155603,0.00042354,0.00357576,0.00384852,0.0
 0191585,0.17636314,0.02782952,-0.06338091,0.05119226,-0.00482509,0.008
 54633,-0.01038459,-0.00458004,0.00060659,0.00079335,0.00134298,-0.0002
 9048,0.00075438,-0.00740581,-0.00374976,0.00034353,0.02507779,-0.01393
 966,0.02822756,-0.04244780,0.07322035,-0.15748796,0.06814735,-0.196146
 34,0.00595186,-0.00013629,0.00574312,-0.00063510,0.00349923,0.00143036
 ,0.00125008,-0.00014787,0.00047514,-0.00208147,0.00133403,0.00161987,-
 0.00340124,-0.00476331,-0.00170626,0.15231577,-0.06145420,0.20434477,0
 .00238313,-0.02552180,0.01207712,-0.05998746,-0.03046412,0.00768900,0.
 00856214,0.01995772,-0.00909027,-0.00194575,0.00047965,-0.00524408,-0.
 00126986,0.00030540,-0.00045633,-0.00426558,-0.00269108,-0.00310401,-0
 .00014878,0.00093602,0.00052057,0.05728609,0.00073810,-0.00858420,0.00
 646795,-0.03171442,-0.28606148,0.12331591,-0.00190149,-0.00530805,0.00
 465587,0.00010694,0.00210808,0.00312315,0.00008190,0.00012491,-0.00060
 476,-0.00351063,0.00100634,0.00122037,0.00087222,0.00002237,-0.0009869
 4,0.03656085,0.29850462,0.00054845,-0.00576304,0.00351681,0.00671757,0
 .12399834,-0.10428535,0.00334575,0.01626588,-0.00305280,-0.00533382,0.
 00281582,0.00299026,-0.00038062,-0.00030506,-0.00088101,-0.00346910,-0
 .00037365,0.00463212,0.00155413,-0.00106201,-0.00089965,-0.00474604,-0
 .13489226,0.09955445,-0.00027771,-0.00008032,0.00073967,0.00099494,-0.
 00320108,-0.00062479,0.00897466,0.00146960,0.00232594,-0.19442258,0.07
 365728,-0.13154298,-0.01127005,0.01052374,-0.01309916,-0.00054468,-0.0
 0480150,-0.00295200,-0.00020639,0.00012891,0.00015632,0.00041697,-0.00
 018492,0.00036766,0.19942362,-0.00041347,-0.00138025,-0.00059162,-0.00
 280700,-0.00382188,0.00340809,0.02062639,-0.00484739,0.01666808,0.0758
 3304,-0.09716127,0.07603852,-0.01226971,0.01015850,-0.01169125,-0.0056
 7923,-0.00016892,0.00109372,0.00011975,-0.00003716,-0.00020190,0.00111
 523,-0.00024901,0.00063954,-0.07795753,0.09591342,0.00084746,0.0003547
 5,-0.00061201,-0.00110292,0.00367465,0.00243916,-0.00793333,0.00425179
 ,-0.00295163,-0.13175121,0.07498262,-0.15758423,-0.00147076,0.00179535
 ,-0.00021940,-0.00247778,0.00106204,0.00630905,0.00021625,-0.00029978,
 -0.00032232,-0.00025807,-0.00006457,-0.00029405,0.14336051,-0.08276781
 ,0.15704273,-0.00194642,-0.00095186,-0.00518027,-0.00045780,0.00041671
 ,-0.00001955,-0.00229473,-0.00338540,-0.00447798,0.00205618,-0.0230927
 6,0.00828835,-0.06681440,-0.06184880,0.01428179,0.00393195,0.02810917,
 -0.01171780,0.00036858,0.00108228,-0.00049029,-0.00008800,0.00014432,0
 .00035321,-0.00043801,0.00118738,0.00184009,0.06513815,0.00075011,0.00
 334033,0.00242276,-0.00049109,0.00050321,-0.00100665,-0.00340045,0.000
 64965,0.00135013,-0.00016338,-0.00561169,0.00641367,-0.05595371,-0.309
 32546,0.09810163,-0.00067936,-0.00826052,0.00447269,-0.00028475,-0.000
 36443,0.00013343,0.00009218,-0.00013098,-0.00022410,0.00088683,-0.0001
 1610,-0.00144644,0.05802115,0.31987772,-0.00489457,0.00185896,0.002288
 87,0.00016049,-0.00014966,-0.00049160,-0.00495500,0.00139865,0.0042176
 4,-0.00159672,-0.00659657,0.01006544,0.00970037,0.09467646,-0.08291635
 ,0.00298621,0.02103717,-0.00580195,-0.00031537,0.00085986,0.00017764,0
 .00032582,-0.00035177,-0.00056342,0.00197166,-0.00149330,-0.00255849,-
 0.00544907,-0.10958071,0.07749826,0.00242682,-0.00284188,-0.00343773,-
 0.01108328,-0.00096235,-0.00640728,-0.12020579,-0.03673695,0.00197284,
 -0.00186011,-0.01640129,0.00347956,0.00232678,0.00058546,-0.00251374,-
 0.00000731,0.00073212,-0.00048848,0.00022091,0.00051979,0.00019820,0.0
 0102192,0.00099332,0.00225252,-0.00059566,0.00243969,-0.00015124,0.000
 33656,0.00066135,0.00059869,0.58023505,0.00005742,-0.00006279,0.006649
 09,0.01472814,0.01573394,0.00233415,-0.05436973,-0.13466695,-0.0004009
 8,-0.02811067,-0.01324890,-0.00482121,-0.00279081,-0.00472279,0.005036
 62,0.00226379,-0.00102163,0.00121963,0.00134123,0.00090956,-0.00028695
 ,0.00259328,-0.00051524,-0.00128300,0.00028127,-0.00092836,-0.00059166
 ,-0.00083441,-0.00063209,-0.00108296,-0.08475495,0.57529180,-0.0039841
 4,0.00218295,0.00466411,-0.01575300,-0.00667829,0.00097460,0.01061113,
 0.01063702,-0.08288036,0.01080911,-0.00028327,0.01220135,0.00005599,0.
 00739300,0.00281018,-0.00177893,0.00208996,-0.00261039,0.00011485,-0.0
 0009989,-0.00017230,0.00164385,-0.00180248,-0.00290525,0.00086209,0.00
 051606,-0.00243084,0.00149589,0.00030116,-0.00003331,0.26541501,-0.265
 57073,0.52797429,-0.00293898,0.00182209,-0.00024914,-0.00550169,-0.008
 03826,0.00101570,-0.05202004,0.00753618,-0.04805549,-0.00203055,0.0012
 8212,-0.00179016,0.00114824,0.00195842,0.00049489,-0.00103720,-0.00004
 159,-0.00094666,-0.00062232,-0.00067757,0.00012609,-0.00008355,-0.0002
 3668,-0.00033512,-0.00193560,-0.00084490,-0.00042368,-0.00001973,-0.00
 012903,-0.00015195,-0.35385564,0.18522284,-0.28263447,0.40463491,-0.00
 014628,-0.00069467,-0.00060461,-0.00298266,-0.00118855,-0.00068862,0.0
 0286937,0.02368383,-0.00009087,-0.00259841,-0.00475108,0.00092423,0.00
 129798,0.00221725,-0.00099359,-0.00187883,0.00065614,-0.00146315,0.000
 01824,-0.00014830,0.00002076,-0.00092957,0.00012111,0.00007466,-0.0013
 3612,0.00118905,-0.00162483,0.00019289,0.00020366,0.00029936,0.1721681
 2,-0.23245396,0.20238589,-0.19681007,0.23388393,-0.00010082,0.00019531
 ,-0.00276909,-0.00231193,-0.00349836,0.00163255,-0.04405401,0.00246023
 ,-0.00688218,0.00025403,0.00394736,-0.00189379,0.00024838,-0.00085591,
 -0.00007815,0.00071552,-0.00063496,0.00058247,-0.00050036,-0.00038863,
 0.00011447,0.00005636,0.00022244,0.00063431,0.00006941,-0.00143696,0.0
 0026997,-0.00036496,-0.00005019,0.00004760,-0.27414154,0.20991090,-0.3
 5120425,0.34311072,-0.24296758,0.36982264,-0.00035637,-0.00023194,0.00
 075564,-0.00090384,-0.00035682,0.00047765,-0.00082571,-0.02759403,0.00
 678920,-0.00473566,-0.00145413,-0.00208256,0.00024900,-0.00172199,0.00
 132649,-0.00034453,0.00007686,-0.00022673,0.00010020,-0.00004369,-0.00
 002544,-0.00040749,-0.00110572,-0.00023663,-0.00026307,-0.00024104,-0.
 00007542,-0.00034938,-0.00014572,-0.00019265,-0.09593800,-0.03624409,0
 .01565319,0.01142084,0.02751819,-0.02439516,0.58822231,0.00113984,-0.0
 0027186,-0.00061506,-0.00196744,-0.00155028,-0.00114593,-0.00699658,-0
 .00624983,0.00995511,-0.00057536,0.00102592,-0.00086291,-0.00008943,-0
 .00033137,-0.00035856,-0.00038902,0.00002647,0.00033255,-0.00006800,-0
 .00001174,0.00002851,-0.00085704,-0.00038139,0.00074597,0.00023461,0.0
 0038754,0.00014903,-0.00004889,-0.00005077,0.00000336,-0.03284087,-0.1
 8195971,0.03795525,0.00839367,-0.01671199,0.03067524,0.00631469,0.4908
 9087,0.00025897,-0.00064853,-0.00080072,0.00103047,-0.00004309,-0.0006
 4405,-0.00570720,-0.00238583,0.01421258,-0.00238741,-0.00093189,-0.000
 47299,0.00053744,-0.00111369,0.00021029,-0.00009416,0.00000597,-0.0000
 0468,0.00000394,-0.00000734,0.00005747,-0.00072394,0.00030357,0.000981
 83,-0.00044665,-0.00020014,0.00005839,-0.00021273,-0.00000771,-0.00004
 019,0.01402523,0.03728646,-0.10024368,-0.01274395,0.04181290,-0.006704
 24,0.03256196,0.02037124,0.53202675,-0.00015047,0.00030907,0.00005764,
 -0.00041313,-0.00093355,0.00023262,-0.00003938,-0.00057000,-0.00102723
 ,0.00018954,0.00034129,0.00000387,-0.00014287,0.00012259,-0.00003962,0
 .00012737,0.00010345,0.00004685,-0.00004962,-0.00001038,0.00001311,-0.
 00130504,-0.00036836,0.00015446,0.00010085,0.00006467,-0.00003868,0.00
 001864,-0.00002079,-0.00002961,-0.00200457,0.00429271,0.00462480,0.000
 77848,0.00020240,-0.00007986,-0.04352276,-0.00575903,-0.00924654,0.044
 11756,-0.00025249,0.00011722,0.00030136,-0.00069482,-0.00006008,0.0000
 2418,0.00057561,-0.00086132,-0.00283655,0.00011943,-0.00004204,0.00008
 644,0.00003029,0.00016992,0.00020199,-0.00002141,-0.00000171,-0.000097
 29,-0.00003006,0.00000958,-0.00000021,-0.00025359,-0.00000029,-0.00010
 496,0.00013768,0.00007702,-0.00001857,0.00002247,-0.00001872,-0.000022
 90,0.00323627,0.00768154,0.03155565,0.00084485,-0.00730029,-0.00026837
 ,-0.00586438,-0.04496815,-0.01893527,0.00258762,0.04775097,0.00036889,
 -0.00004738,0.00027907,-0.00087677,-0.00007691,-0.00004387,-0.00038848
 ,0.00058715,0.00064152,0.00022000,0.00043427,-0.00004835,-0.00034825,-
 0.00007398,-0.00029621,0.00002448,-0.00021651,0.00014159,-0.00001207,-
 0.00000885,0.00000214,0.00043870,-0.00023692,0.00015029,-0.00003444,-0
 .00005417,0.00002893,0.00001538,-0.00000348,-0.00000025,-0.00239659,-0
 .00237274,-0.01331984,0.00119451,0.00284640,0.00006583,-0.00919350,-0.
 02205887,-0.31119280,0.01096566,0.02253731,0.33791498,0.00005845,0.000
 06964,0.00011482,0.00015154,0.00018709,-0.00012142,0.00061096,-0.00066
 089,-0.00012871,-0.00005977,0.00015381,-0.00018926,-0.00001436,-0.0000
 5440,0.00012145,-0.00000114,-0.00008903,0.00005155,0.00002326,0.000004
 32,-0.00000852,-0.00003051,0.00000715,0.00022259,-0.00001953,-0.000066
 50,-0.00001359,-0.00002660,-0.00000283,-0.00000369,-0.00584691,-0.0016
 7028,-0.00144536,0.00156242,0.00201772,0.00015380,-0.27887294,-0.08646
 371,-0.07069168,0.00206340,0.00120228,0.00066950,0.29691629,-0.0001400
 4,0.00010645,-0.00006588,0.00079552,-0.00007605,0.00048456,-0.00011909
 ,-0.00465606,0.00361169,-0.00135992,-0.00016179,-0.00054394,0.00005981
 ,-0.00051449,0.00021292,0.00006876,0.00008985,-0.00004257,-0.00000709,
 -0.00002042,0.00002492,0.00003848,0.00011495,-0.00027593,-0.00004458,-
 0.00000248,0.00001108,-0.00012659,-0.00005058,-0.00005611,-0.03083949,
 -0.01210157,-0.00970598,0.00248421,0.00387921,-0.00179254,-0.08181679,
 -0.07617651,-0.02427676,-0.00094347,-0.00143377,-0.00056265,0.09270192
 ,0.08258905,0.00001707,0.00000479,0.00021232,-0.00049497,0.00024179,-0
 .00017111,-0.00054872,0.00324013,-0.00043292,0.00061252,0.00016751,0.0
 0033797,0.00010179,0.00020409,-0.00019184,-0.00002077,-0.00008664,-0.0
 0001863,0.00001304,0.00001918,-0.00001795,0.00028513,-0.00026429,-0.00
 016384,-0.00000715,-0.00001227,0.00005877,0.00005975,0.00002365,0.0000
 3304,0.01545754,0.00508405,0.00372211,-0.00002941,-0.00169049,-0.00002
 474,-0.07346461,-0.02664422,-0.06827028,-0.02806880,-0.01012480,-0.006
 44468,0.07689247,0.02594238,0.06946023,0.00038598,0.00000672,-0.000147
 50,-0.00074387,-0.00081364,-0.00051070,-0.00108675,0.00062747,0.000538
 34,0.00032621,0.00041870,-0.00007744,-0.00017143,0.00011829,-0.0002634
 2,0.00003641,-0.00009432,0.00016153,-0.00002512,-0.00001604,-0.0000048
 5,-0.00051287,-0.00060152,-0.00015090,0.00006253,0.00005769,0.00003650
 ,-0.00001094,-0.00000153,0.00002019,0.00432687,-0.00274913,-0.00566928
 ,0.00077156,0.00032265,0.00156586,-0.17368440,0.11992015,0.05378486,0.
 00029757,-0.00167571,-0.00060061,-0.01647968,0.01929804,0.00907910,0.1
 8653921,-0.00029278,-0.00008433,-0.00036970,0.00003826,-0.00026854,0.0
 0014772,-0.00173034,0.00106727,0.00184810,-0.00008201,-0.00009785,0.00
 010293,0.00039127,0.00006790,0.00002575,0.00004176,0.00028503,-0.00015
 617,-0.00003847,0.00000906,0.00004494,-0.00061387,-0.00018574,-0.00067
 920,0.00008720,0.00013361,0.00002998,-0.00001258,-0.00001205,-0.000006
 64,0.02339954,-0.01687832,-0.01058217,-0.00262911,-0.00263566,0.004233
 45,0.12301894,-0.16367391,-0.05136279,0.00061410,-0.00107682,-0.000700
 72,-0.00728233,0.00841539,0.00393154,-0.13475551,0.17491660,-0.0001696
 3,0.00027635,-0.00005467,0.00035236,-0.00036878,0.00046835,0.00073427,
 -0.00093914,-0.00063156,-0.00005458,0.00008032,-0.00000591,-0.00008112
 ,0.00000037,0.00001268,0.00013362,0.00009182,0.00001270,-0.00000303,-0
 .00001139,-0.00000375,-0.00041758,-0.00044471,-0.00038151,-0.00003408,
 -0.00001785,-0.00001039,0.00000410,-0.00001010,-0.00001449,-0.01369593
 ,0.00973284,0.00388716,0.00177846,0.00201845,-0.00387918,0.05240736,-0
 .04867773,-0.05916734,0.02246316,-0.02218633,-0.00795728,-0.00554885,0
 .00703671,0.00197932,-0.05777070,0.05344858,0.06571011,0.02092517,-0.0
 1975326,-0.01421070,-0.02134300,-0.00011181,0.00020429,-0.00340930,-0.
 00399027,0.00123810,-0.00825738,-0.00622261,-0.00199803,0.01477140,0.0
 0110597,0.01008178,-0.00633612,0.02346191,-0.00716876,0.00022994,0.000
 38159,-0.00031111,0.00035264,-0.00045168,0.00024216,-0.00030484,-0.000
 47340,-0.00069291,0.00052316,0.00019836,0.00022426,-0.00415504,-0.0019
 1322,-0.00137291,0.00254949,0.00093151,0.00090660,0.00086945,0.0004837
 1,0.00026483,-0.00010364,-0.00003623,0.00014211,0.00018713,0.00005311,
 0.00004429,-0.00006118,-0.00041679,-0.00008205,0.47656513,-0.02638658,
 0.01284922,0.01168085,0.01194491,0.00703621,0.00340626,-0.00186067,0.0
 0226955,-0.00294142,0.00720986,0.00566119,0.00232013,-0.01397302,-0.00
 294707,-0.00902920,0.01145003,-0.03599417,0.00487664,0.00241196,-0.000
 13771,-0.00387948,-0.00144907,-0.00054784,0.00164915,0.00014251,0.0002
 4389,0.00076104,-0.00017640,-0.00022842,-0.00023884,0.00497985,0.00371
 927,-0.00003100,-0.00271334,-0.00198194,0.00004984,-0.00098745,-0.0002
 3715,0.00015139,-0.00013987,-0.00002207,-0.00010656,-0.00005548,-0.000
 31335,0.00005870,-0.00034913,-0.00007003,-0.00007639,0.08039311,0.5349
 2520,-0.03412357,0.02795426,0.00454303,0.01533611,0.00458582,0.0030486
 3,-0.00017089,0.00111897,-0.00114110,0.01273102,0.01126099,0.00108704,
 -0.02224045,-0.00056179,-0.01240739,0.00579025,-0.02817549,0.01541832,
 0.00867723,-0.00707097,-0.01392888,0.00101585,-0.00003369,0.00001473,-
 0.00023705,0.00081425,0.00081410,-0.00057590,0.00001449,-0.00019938,0.
 00480552,0.00219543,0.00257096,-0.00359459,-0.00094471,-0.00186579,-0.
 00087613,-0.00002968,-0.00036095,0.00011898,-0.00015613,-0.00021721,-0
 .00021381,-0.00010396,-0.00001987,0.00000030,0.00006476,0.00040583,0.1
 1992653,-0.09739405,0.44855719,-0.00168765,0.00111592,0.00348861,0.000
 57094,0.00069505,0.00135517,0.00088971,0.00106578,0.00041794,-0.000699
 89,-0.00075306,0.00053151,0.00032398,-0.00034616,0.00011423,0.00006450
 ,-0.00101985,-0.00011832,-0.00054647,0.00046616,0.00080010,-0.00007017
 ,0.00007727,0.00006539,0.00004695,0.00002899,0.00008971,-0.00002765,0.
 00001994,0.00006291,0.00015443,0.00022180,0.00007397,-0.00017842,-0.00
 016354,-0.00004248,-0.00011716,-0.00005752,-0.00004989,0.00003377,0.00
 004615,-0.00005240,-0.00005267,-0.00002825,0.00001809,0.00002743,0.000
 09146,-0.00003270,-0.10316158,0.00990647,-0.08844804,0.14083025,-0.000
 55895,0.00049371,-0.00299541,0.00043726,-0.00035232,-0.00022931,-0.000
 02813,-0.00003591,-0.00007249,0.00023226,-0.00056713,-0.00024447,0.000
 31663,0.00045712,0.00021092,-0.00034067,0.00198978,-0.00022834,0.00070
 594,-0.00054440,-0.00055295,0.00021958,-0.00003361,-0.00019018,-0.0000
 4193,-0.00005933,-0.00015640,0.00008322,0.00002764,0.00004225,-0.00039
 997,-0.00051238,0.00004485,0.00034127,0.00032088,-0.00000079,0.0001442
 4,0.00003438,-0.00000061,0.00000843,-0.00000303,0.00002897,-0.00001088
 ,0.00003471,-0.00000744,0.00007055,0.00001734,-0.00001339,0.00700281,-
 0.07159424,0.02439542,-0.01860247,0.08032412,-0.01031471,0.00854611,-0
 .00670935,0.00534579,-0.00206883,-0.00029285,-0.00019969,0.00558447,-0
 .00289255,-0.00357112,-0.00650769,0.00101672,0.00698838,0.00003781,0.0
 0368598,-0.00298391,-0.00200041,-0.00070519,0.00208680,-0.00169364,-0.
 00207539,-0.00016104,0.00000062,0.00014317,-0.00006266,-0.00026575,-0.
 00050004,0.00046340,-0.00002008,-0.00003906,-0.00330921,-0.00174983,-0
 .00129673,0.00214978,0.00044106,0.00122466,0.00047359,0.00005960,0.000
 04445,-0.00005037,0.00007931,0.00016368,0.00008637,0.00006387,-0.00001
 621,-0.00000664,0.00002649,-0.00019399,-0.10767069,0.03957537,-0.30727
 760,0.15786025,-0.06648136,0.35021325,0.00114550,0.00230768,-0.0015168
 7,-0.00116730,0.00043237,0.00073312,0.00057532,-0.00052284,0.00079957,
 0.00065074,0.00117429,-0.00026800,-0.00091081,-0.00021442,-0.00050458,
 -0.00027021,0.00220015,0.00121477,-0.00048836,0.00028368,0.00056293,-0
 .00025401,0.00043096,-0.00025016,0.00016988,0.00000574,0.00004396,-0.0
 0009281,-0.00010729,-0.00003468,0.00099511,0.00069113,0.00030474,-0.00
 059607,-0.00028201,-0.00019638,-0.00022874,-0.00009893,-0.00006396,0.0
 0003924,0.00001558,-0.00006116,-0.00012212,-0.00002827,0.00000563,0.00
 005873,0.00008265,0.00003124,-0.06768767,0.02088669,-0.00865954,0.0073
 1079,0.01820904,-0.01047353,0.06611587,-0.00664389,0.00080487,0.011039
 24,0.00392348,-0.00147383,-0.00056039,0.00037690,0.00277347,-0.0014889
 8,-0.00208687,-0.00323416,0.00064904,0.00282044,0.00168618,0.00053003,
 0.00131707,-0.00709694,-0.00320350,0.00004070,-0.00120387,-0.00145625,
 0.00150651,0.00017490,-0.00058940,-0.00025531,0.00004302,-0.00038274,0
 .00002090,0.00025338,0.00010608,-0.00354981,-0.00264211,-0.00038442,0.
 00196894,0.00109540,0.00036524,0.00063517,0.00016123,-0.00004102,0.000
 09609,-0.00000762,0.00010412,-0.00000346,0.00020118,-0.00005133,0.0001
 9203,0.00000906,0.00006267,0.00707677,-0.34729564,0.06123157,0.0183604
 6,-0.02238143,0.03829197,0.01084943,0.42446776,0.00094711,-0.00457618,
 0.00121778,0.00105143,0.00008196,-0.00052563,-0.00025556,0.00035892,-0
 .00071411,-0.00073381,-0.00123625,0.00049329,0.00131423,-0.00011964,0.
 00077241,0.00075217,-0.00051881,-0.00196852,-0.00050640,0.00076526,0.0
 0112515,-0.00017235,-0.00022182,0.00014795,0.00000768,-0.00010426,-0.0
 0003569,0.00007325,0.00002293,0.00006707,-0.00039462,-0.00023885,-0.00
 046742,0.00033388,0.00009155,0.00033651,0.00012441,0.00000874,0.000112
 08,-0.00006120,0.00000468,0.00005333,0.00002272,0.00000683,0.00000325,
 -0.00001973,-0.00002179,-0.00009485,-0.00565171,0.04450354,-0.07446348
 ,-0.01801659,0.05880946,-0.02455446,0.01296275,-0.10916872,0.08725785,
 0.00421994,0.00032214,0.00237763,0.00180569,0.00003989,-0.00175350,-0.
 00014780,0.00020517,0.00025584,0.00108329,0.00270682,-0.00413880,-0.01
 719654,-0.01284077,-0.00312839,-0.29553863,-0.16947570,-0.08690096,-0.
 00005384,0.00149180,0.00079441,0.00044824,0.00011314,-0.00037785,-0.00
 015975,-0.00086364,-0.00038459,0.00050089,0.00095022,0.00163004,-0.000
 82545,-0.00004839,0.00028307,0.00019671,-0.00005422,0.00003527,0.00017
 647,0.00003761,-0.00005645,-0.00001531,-0.00000169,0.00001727,0.000002
 56,0.00001358,0.00001026,-0.00002474,-0.00002890,0.00000067,0.00391113
 ,0.00012188,-0.00106228,-0.00038210,-0.00001646,0.00082688,-0.00074866
 ,0.00071954,0.00017561,0.30541720,-0.02657994,-0.01474414,-0.00936929,
 0.00147061,-0.00373963,0.00380451,0.00052710,-0.00118732,0.00065754,0.
 00268313,0.00063121,0.00394493,0.01288786,0.01460552,0.00048627,-0.168
 74149,-0.17889419,-0.03230962,0.00089217,0.00067216,-0.00011054,-0.001
 24046,-0.00017336,-0.00023572,0.00041871,0.00058188,0.00031118,0.00118
 368,-0.00004396,-0.00073343,-0.00035974,-0.00064329,-0.00016505,0.0002
 7200,0.00034854,0.00000318,0.00001775,0.00006084,0.00006184,0.00000255
 ,-0.00000725,-0.00002675,0.00001140,0.00003623,-0.00001960,0.00000156,
 0.00001487,0.00000006,-0.00204235,-0.00170318,-0.00057949,0.00031587,0
 .00014673,0.00034498,0.00013372,0.00067549,0.00000115,0.17740797,0.182
 55274,0.01446282,0.00372533,0.00454642,-0.00100106,0.00487499,0.002381
 75,0.00011617,0.00040229,-0.00087995,-0.00406840,0.00469771,0.00083009
 ,-0.01594082,-0.01553073,-0.00360611,-0.08674190,-0.02996086,-0.060453
 97,0.00151956,-0.00082680,-0.00083994,0.00035518,0.00057620,0.00056147
 ,-0.00085721,-0.00023213,0.00064930,0.00152981,-0.00088849,-0.00167843
 ,0.00002078,-0.00046957,-0.00082880,0.00003173,-0.00003041,0.00019312,
 0.00001306,0.00009061,0.00013868,-0.00002272,-0.00002955,0.00002728,0.
 00001465,0.00000823,-0.00000445,0.00002718,-0.00002782,-0.00002627,-0.
 00114562,-0.00169508,0.00058255,-0.00001895,0.00019458,-0.00036230,-0.
 00003194,0.00076053,-0.00008651,0.09120659,0.03371375,0.05896290,-0.00
 386102,-0.01144029,-0.00619364,-0.00570400,0.00275195,0.00207365,-0.00
 032813,-0.00458413,0.00311501,0.00474767,0.00522072,0.00011570,-0.0084
 6301,0.00008682,-0.00589434,0.00544583,0.00171855,0.00429975,-0.000739
 47,0.00045721,0.00177898,-0.00010634,-0.00004906,-0.00054205,0.0002452
 7,0.00013743,0.00034236,-0.00031054,-0.00019791,-0.00006018,0.00434339
 ,0.00177796,0.00072229,-0.00224265,-0.00037677,-0.00089182,-0.00048567
 ,-0.00032661,-0.00002482,-0.00001649,0.00001324,-0.00009515,-0.0000851
 8,-0.00006777,0.00002142,-0.00006271,0.00014166,-0.00000751,-0.3060994
 2,-0.10136699,-0.00817488,-0.04332398,-0.00776832,-0.03747936,-0.00448
 770,-0.03736858,0.00804156,-0.00265599,0.00075604,0.00054097,0.3642041
 8,0.00353996,-0.00199690,-0.00265543,-0.00103871,-0.00012904,-0.000558
 33,0.00052957,-0.00047925,0.00103118,0.00080985,0.00052075,-0.00012414
 ,-0.00086532,0.00030485,-0.00057001,0.00061655,0.00283003,-0.00031318,
 0.00004052,-0.00017192,0.00074652,0.00022266,-0.00002342,-0.00020244,-
 0.00005576,0.00003555,-0.00001561,0.00002446,-0.00000392,0.00002997,-0
 .00001331,-0.00035703,0.00024486,-0.00004398,0.00026816,-0.00018334,0.
 00007999,-0.00000884,-0.00002862,-0.00000946,-0.00000220,0.00000839,-0
 .00000936,0.00003785,-0.00001476,0.00003787,0.00003452,-0.00000969,-0.
 08566146,-0.10364793,0.00140564,-0.01143534,0.01223080,-0.01226719,-0.
 05645474,-0.04703840,0.01156324,-0.00078452,0.00081447,0.00064716,0.15
 047833,0.13678518,0.00529191,0.00163571,0.00140879,0.00219012,-0.00141
 404,-0.00109605,0.00020957,0.00165083,-0.00068733,-0.00175161,-0.00212
 339,0.00026502,0.00342252,0.00008250,0.00200301,-0.00162701,0.00077946
 ,-0.00250759,-0.00036823,0.00034729,0.00102286,-0.00003927,0.00002488,
 0.00008658,0.00002477,-0.00009965,-0.00015130,0.00008737,-0.00002130,-
 0.00005964,-0.00129963,-0.00058378,-0.00040404,0.00077527,0.00019356,0
 .00040276,0.00019730,0.00002154,0.00005828,-0.00001891,0.00000169,0.00
 004847,0.00002781,0.00004374,-0.00002306,0.00001783,-0.00000546,-0.000
 04990,0.00705691,0.00636044,-0.06516801,-0.05812446,-0.01255898,-0.009
 59582,0.00543282,0.00420239,0.01131911,0.00018927,0.00020930,-0.000108
 35,0.03829892,0.00125334,0.06323312\\-0.00000911,0.00001319,0.00000898
 ,0.00000513,-0.00000240,-0.00000493,0.00000233,-0.00000130,0.00000213,
 0.00000715,0.00000535,0.00000019,-0.00001518,0.00000007,-0.00001007,0.
 00001207,-0.00001799,0.00000377,0.00000144,-0.00000257,-0.00000180,0.0
 0000025,0.00000146,0.00000126,-0.00000034,0.00000032,0.00000066,0.0000
 0038,0.00000012,0.00000032,0.00000126,0.00000210,-0.00000099,-0.000002
 90,-0.00000002,0.00000022,-0.00000069,-0.00000032,-0.00000042,0.000000
 09,0.00000023,-0.00000004,-0.00000122,-0.00000057,0.00000020,0.0000002
 3,-0.00000003,0.00000011,0.00000506,-0.00001064,-0.00001417,-0.0000026
 2,0.00000464,0.00000454,0.00000137,0.00000378,0.00000513,-0.00000032,-
 0.00000006,0.00000082,-0.00000436,0.00000464,0.00000409\\\@


 I DO NOT KNOW WHAT I MAY APPEAR TO THE WORLD; BUT TO MYSELF
 I SEEM TO HAVE BEEN ONLY LIKE A BOY PLAYING ON THE SEASHORE,
 AND DIVERTING MYSELF IN NOW AND THEN FINDING A SMOOTHER PEBBLE
 OR A PRETTIER SHELL THAN ORDINARY, WHILST THE GREAT OCEAN OF
 TRUTH LAY ALL UNDISCOVERED BEFORE ME.
                                          -- NEWTON (1642-1726)
 Job cpu time:       0 days  0 hours  0 minutes  0.6 seconds.
 Elapsed time:       0 days  0 hours  0 minutes 17.5 seconds.
 File lengths (MBytes):  RWF=      6 Int=      0 D2E=      0 Chk=      2 Scr=      1
 Normal termination of Gaussian 16 at Mon Dec  1 22:41:47 2025.
