%nproc=1
#p opt=(calcall,ts,noeigen,nomicro,maxstep=5,notrust,loose) external='python ../GauUMA_client.py'

t 

1 2 
C	-1.669836 	-0.575679 	1.118064 
C	-0.398085 	0.014804 	1.079739 
C	0.579793 	-0.583605 	0.244073 
C	0.199908 	-1.564951 	-0.663257 
C	-1.107886 	-2.011987 	-0.676292 
N	-1.978833 	-1.515166 	0.228872 
H	-2.446844 	-0.280550 	1.809862 
H	-0.087403 	0.640611 	1.906395 
H	0.905564 	-2.005825 	-1.355046 
H	-1.486979 	-2.767800 	-1.348362 
C	1.984021 	-0.043744 	0.324504 
O	2.194901 	0.896279 	1.058220 
C	3.046343 	-0.680224 	-0.518492 
H	2.809098 	-0.536540 	-1.576731 
H	4.006737 	-0.220532 	-0.295090 
H	3.091583 	-1.755650 	-0.329857 
C	-0.847796 	1.836974 	-0.075363 
F	-2.032097 	1.619102 	-0.630752 
F	0.090071 	1.852076 	-1.007128 
H	-0.816564 	2.672112 	0.620043 
H	-2.923106 	-1.900027 	0.243991 


