%nproc=1
#p opt=(calcall,ts,noeigen,nomicro) external='python ../GauUMA_client.py'

t 

1 2 	
C	0.809731 	0.459067 	1.192781 
C	-0.387113 	-0.242927 	0.979822 
C	-1.359882 	0.305567 	0.161637 
C	-1.157197 	1.570775 	-0.407328 
C	-0.011332 	2.272175 	-0.101726 
N	0.905509 	1.725552 	0.711566 
H	1.525831 	0.180406 	1.957062 
H	-0.494767 	-1.219508 	1.434175 
H	-1.901224 	2.009076 	-1.058620 
H	0.196594 	3.270115 	-0.463119 
C	-2.661662 	-0.420409 	-0.140107 
O	-3.462475 	0.117488 	-0.864521 
C	-2.880462 	-1.766844 	0.475971 
H	-2.831703 	-1.693114 	1.565863 
H	-3.853610 	-2.147025 	0.173188 
H	-2.095008 	-2.456336 	0.153800 
C	2.079597 	-0.645608 	-0.265246 
F	1.441047 	-0.707849 	-1.409817 
F	2.319432 	-1.842201 	0.214408 
H	1.730669 	2.273576 	0.951689 
F	3.183341 	0.058192 	-0.377219 



