%nproc=1
#p opt=(calcall,ts,noeigen,nomicro) external='python ../GauUMA_client.py'

t 

1 2  	
C	2.998186 	-1.812045 	-0.330755 
C	2.239591 	-0.772442 	-1.199343 
C	2.194681 	0.783459 	0.582382 
C	2.952138 	-0.194255 	1.519162 
H	4.059023 	-1.744775 	-0.592513 
H	4.007213 	0.098214 	1.519830 
C	2.783273 	0.623696 	-0.834190 
H	2.394874 	1.389045 	-1.510227 
H	3.874769 	0.659490 	-0.840480 
H	2.314934 	-1.033667 	-2.255060 
H	2.233583 	1.798086 	0.979351 
C	0.817387 	-0.664442 	-0.705572 
C	-0.303247 	-1.349384 	-1.106940 
C	-1.500472 	-1.077265 	-0.416260 
C	-1.572564 	-0.126684 	0.645865 
C	-0.392083 	0.622745 	0.988494 
C	0.790978 	0.276184 	0.360548 
H	-0.293187 	-2.075051 	-1.912803 
H	-0.416494 	1.221200 	1.893229 
C	-3.808556 	-0.546504 	0.949317 
C	-3.802772 	-1.487648 	-0.081499 
H	-4.726681 	-0.342070 	1.485117 
H	-4.675981 	-2.042660 	-0.395586 
N	2.847688 	-1.597493 	1.110158 
H	1.947928 	-1.962903 	1.406081 
H	2.579173 	-0.111132 	2.541771 
H	2.658075 	-2.823722 	-0.560366 
N	-2.663081 	-1.714828 	-0.719959 
N	-2.718306 	0.117977 	1.293649 
C	-0.922051 	2.518406 	-0.151827 
F	0.202997 	3.225247 	-0.129907 
F	-1.163895 	2.104012 	-1.393853 
H	-1.768470 	3.003440 	0.330375 
H	-2.651697 	-2.399341 	-1.478116 


