%nproc=1
#p opt=(calcall,ts,noeigen,nomicro) external='python ../GauUMA_client.py'

t 

1 2 	
C	-3.627406 	-1.069566 	-1.032788 
C	-2.663272 	-1.491529 	0.108572 
C	-2.903656 	0.608406 	1.175966 
C	-3.878040 	1.108270 	0.077766 
H	-4.611324 	-1.491667 	-0.803815 
H	-4.897326 	0.989037 	0.459306 
C	-3.202669 	-0.884749 	1.419924 
H	-2.653661 	-1.261777 	2.285591 
H	-4.267958 	-1.079300 	1.560328 
H	-2.541288 	-2.574677 	0.120481 
H	-2.974904 	1.238709 	2.062445 
C	-1.365105 	-0.737503 	-0.042372 
C	-0.209811 	-1.088345 	-0.687065 
C	0.844080 	-0.153956 	-0.672108 
C	0.718725 	1.116453 	-0.046696 
C	-0.498515 	1.451685 	0.592545 
C	-1.509395 	0.531268 	0.600538 
H	-0.078008 	-2.046049 	-1.179730 
H	-0.582947 	2.423783 	1.065162 
C	2.869057 	1.685769 	-0.623219 
C	3.086760 	0.402292 	-1.199975 
H	3.684455 	2.400707 	-0.623948 
H	3.965156 	0.157434 	-1.783409 
N	-3.756083 	0.381054 	-1.188571 
H	-2.949770 	0.732895 	-1.695560 
H	-3.715119 	2.168739 	-0.123912 
H	-3.295968 	-1.484821 	-1.986504 
N	2.042369 	-0.424654 	-1.272382 
N	1.741757 	2.019023 	-0.063037 
C	4.129554 	-0.473713 	0.688183 
F	3.158917 	-0.353209 	1.573971 
F	4.260815 	-1.731754 	0.313857 
H	5.051837 	0.053162 	0.918315 
H	2.151103 	-1.318159 	-1.752892 


