%nproc=1
#p opt=(calcall,ts,noeigen,nomicro) external='python ../GauUMA_client.py'

t 

1 2  	
C	-3.974623 	-1.112276 	-0.927639 
C	-3.003659 	-1.482465 	0.227391 
C	-3.213832 	0.673978 	1.182512 
C	-4.194568 	1.122840 	0.066249 
H	-4.959864 	-1.511367 	-0.665885 
H	-5.210463 	1.031583 	0.463934 
C	-3.524191 	-0.800775 	1.509079 
H	-2.971630 	-1.136782 	2.389129 
H	-4.590027 	-0.976287 	1.668247 
H	-2.891434 	-2.564528 	0.294703 
H	-3.271518 	1.353397 	2.032796 
C	-1.702144 	-0.750911 	0.020234 
C	-0.564142 	-1.143133 	-0.626709 
C	0.493657 	-0.212761 	-0.688344 
C	0.390067 	1.091697 	-0.120231 
C	-0.812573 	1.465917 	0.527692 
C	-1.827828 	0.555018 	0.597990 
H	-0.447035 	-2.124783 	-1.073591 
H	-0.882401 	2.461932 	0.949896 
C	2.517968 	1.624615 	-0.799432 
C	2.708755 	0.320027 	-1.332568 
H	3.335238 	2.335162 	-0.856946 
H	3.553279 	0.055879 	-1.957532 
N	-4.090464 	0.328439 	-1.159914 
H	-3.287490 	0.646221 	-1.694090 
H	-4.025318 	2.169770 	-0.192213 
H	-3.656073 	-1.582786 	-1.859760 
N	1.662200 	-0.511034 	-1.319262 
N	1.410396 	1.985159 	-0.211244 
C	3.928243 	-0.457607 	0.463292 
F	5.195190 	-0.184303 	0.276939 
F	3.474943 	0.077069 	1.570106 
F	3.702514 	-1.750182 	0.431414 
H	1.749202 	-1.423601 	-1.768958 


