 Entering Gaussian System, Link 0=g16
 Input=TSb-CF3-C2-H.gjf
 Output=TSb-CF3-C2-H.log
 Initial command:
 /home/zhouoh/g16/l1.exe "/home/zhouoh/scratch/Gau-2679018.inp" -scrdir="/home/zhouoh/scratch/"
 Entering Link 1 = /home/zhouoh/g16/l1.exe PID=   2679020.
  
 Copyright (c) 1988,1990,1992,1993,1995,1998,2003,2009,2016,
            Gaussian, Inc.  All Rights Reserved.
  
 This is part of the Gaussian(R) 16 program.  It is based on
 the Gaussian(R) 09 system (copyright 2009, Gaussian, Inc.),
 the Gaussian(R) 03 system (copyright 2003, Gaussian, Inc.),
 the Gaussian(R) 98 system (copyright 1998, Gaussian, Inc.),
 the Gaussian(R) 94 system (copyright 1995, Gaussian, Inc.),
 the Gaussian 92(TM) system (copyright 1992, Gaussian, Inc.),
 the Gaussian 90(TM) system (copyright 1990, Gaussian, Inc.),
 the Gaussian 88(TM) system (copyright 1988, Gaussian, Inc.),
 the Gaussian 86(TM) system (copyright 1986, Carnegie Mellon
 University), and the Gaussian 82(TM) system (copyright 1983,
 Carnegie Mellon University). Gaussian is a federally registered
 trademark of Gaussian, Inc.
  
 This software contains proprietary and confidential information,
 including trade secrets, belonging to Gaussian, Inc.
  
 This software is provided under written license and may be
 used, copied, transmitted, or stored only in accord with that
 written license.
  
 The following legend is applicable only to US Government
 contracts under FAR:
  
                    RESTRICTED RIGHTS LEGEND
  
 Use, reproduction and disclosure by the US Government is
 subject to restrictions as set forth in subparagraphs (a)
 and (c) of the Commercial Computer Software - Restricted
 Rights clause in FAR 52.227-19.
  
 Gaussian, Inc.
 340 Quinnipiac St., Bldg. 40, Wallingford CT 06492
  
  
 ---------------------------------------------------------------
 Warning -- This program may not be used in any manner that
 competes with the business of Gaussian, Inc. or will provide
 assistance to any competitor of Gaussian, Inc.  The licensee
 of this program is prohibited from giving any competitor of
 Gaussian, Inc. access to this program.  By using this program,
 the user acknowledges that Gaussian, Inc. is engaged in the
 business of creating and licensing software in the field of
 computational chemistry and represents and warrants to the
 licensee that it is not a competitor of Gaussian, Inc. and that
 it will not use this program in any manner prohibited above.
 ---------------------------------------------------------------
  

 Cite this work as:
 Gaussian 16, Revision A.03,
 M. J. Frisch, G. W. Trucks, H. B. Schlegel, G. E. Scuseria, 
 M. A. Robb, J. R. Cheeseman, G. Scalmani, V. Barone, 
 G. A. Petersson, H. Nakatsuji, X. Li, M. Caricato, A. V. Marenich, 
 J. Bloino, B. G. Janesko, R. Gomperts, B. Mennucci, H. P. Hratchian, 
 J. V. Ortiz, A. F. Izmaylov, J. L. Sonnenberg, D. Williams-Young, 
 F. Ding, F. Lipparini, F. Egidi, J. Goings, B. Peng, A. Petrone, 
 T. Henderson, D. Ranasinghe, V. G. Zakrzewski, J. Gao, N. Rega, 
 G. Zheng, W. Liang, M. Hada, M. Ehara, K. Toyota, R. Fukuda, 
 J. Hasegawa, M. Ishida, T. Nakajima, Y. Honda, O. Kitao, H. Nakai, 
 T. Vreven, K. Throssell, J. A. Montgomery, Jr., J. E. Peralta, 
 F. Ogliaro, M. J. Bearpark, J. J. Heyd, E. N. Brothers, K. N. Kudin, 
 V. N. Staroverov, T. A. Keith, R. Kobayashi, J. Normand, 
 K. Raghavachari, A. P. Rendell, J. C. Burant, S. S. Iyengar, 
 J. Tomasi, M. Cossi, J. M. Millam, M. Klene, C. Adamo, R. Cammi, 
 J. W. Ochterski, R. L. Martin, K. Morokuma, O. Farkas, 
 J. B. Foresman, and D. J. Fox, Gaussian, Inc., Wallingford CT, 2016.
 
 ******************************************
 Gaussian 16:  ES64L-G16RevA.03 25-Dec-2016
                30-Nov-2025 
 ******************************************
 %nproc=1
 Will use up to    1 processors via shared memory.
 ----------------------------------------------------------------------
 #p opt=(calcall,ts,noeigen,nomicro) external='python ../GauUMA_client.
 py'
 ----------------------------------------------------------------------
 1/5=1,10=4,11=1,18=20,26=1,38=1/1,3;
 2/9=110,12=2,17=6,18=5,40=1/2;
 3/11=9,25=1,30=1,41=9900000,43=2,71=2,140=1/1;
 4/20=17,22=2,24=3,113=1,114=1/2;
 6/7=2,8=2,9=2,10=2,18=1/1;
 7/25=1,44=-1/16;
 1/5=1,10=4,11=1,18=20,26=1/3(3);
 2/9=110/2;
 7/8=1,9=1,25=1,44=-1/16;
 99//99;
 2/9=110/2;
 3/11=9,25=1,30=1,41=9900000,43=2,71=2,140=1/1;
 4/16=2,20=17,22=2,24=3,113=1,114=1/2;
 7/25=1,44=-1/16;
 1/5=1,10=4,11=1,18=20,26=1/3(-4);
 2/9=110/2;
 6/7=2,8=2,9=2,10=2,18=1/1;
 7/8=1,9=1,25=1,44=-1/16;
 99//99;
 Leave Link    1 at Sun Nov 30 19:55:32 2025, MaxMem=           0 cpu:               0.0 elap:               0.0
 (Enter /home/zhouoh/g16/l101.exe)
 -
 t
 -
 Symbolic Z-matrix:
 Charge =  1 Multiplicity = 2
 C                    -3.97462  -1.11228  -0.92764 
 C                    -3.00366  -1.48247   0.22739 
 C                    -3.21383   0.67398   1.18251 
 C                    -4.19457   1.12284   0.06625 
 H                    -4.95986  -1.51137  -0.66589 
 H                    -5.21046   1.03158   0.46393 
 C                    -3.52419  -0.80078   1.50908 
 H                    -2.97163  -1.13678   2.38913 
 H                    -4.59003  -0.97629   1.66825 
 H                    -2.89143  -2.56453   0.2947 
 H                    -3.27152   1.3534    2.0328 
 C                    -1.70214  -0.75091   0.02023 
 C                    -0.56414  -1.14313  -0.62671 
 C                     0.49366  -0.21276  -0.68834 
 C                     0.39007   1.0917   -0.12023 
 C                    -0.81257   1.46592   0.52769 
 C                    -1.82783   0.55502   0.59799 
 H                    -0.44704  -2.12478  -1.07359 
 H                    -0.8824    2.46193   0.9499 
 C                     2.51797   1.62462  -0.79943 
 C                     2.70876   0.32003  -1.33257 
 H                     3.33524   2.33516  -0.85695 
 H                     3.55328   0.05588  -1.95753 
 N                    -4.09046   0.32844  -1.15991 
 H                    -3.28749   0.64622  -1.69409 
 H                    -4.02532   2.16977  -0.19221 
 H                    -3.65607  -1.58279  -1.85976 
 N                     1.6622   -0.51103  -1.31926 
 N                     1.4104    1.98516  -0.21124 
 C                     3.92824  -0.45761   0.46329 
 F                     5.19519  -0.1843    0.27694 
 F                     3.47494   0.07707   1.57011 
 F                     3.70251  -1.75018   0.43141 
 H                     1.7492   -1.4236   -1.76896 
 
 Add virtual bond connecting atoms C30        and C21        Dist= 4.36D+00.
 ITRead=  0  0  0  0  0  0  0  0  0  0  0  0  0  0  0  0  0  0  0  0
 ITRead=  0  0  0  0  0  0  0  0  0  0  0  0  0  0
 MicOpt= -1 -1 -1 -1 -1 -1 -1 -1 -1 -1 -1 -1 -1 -1 -1 -1 -1 -1 -1 -1
 MicOpt= -1 -1 -1 -1 -1 -1 -1 -1 -1 -1 -1 -1 -1 -1
 NAtoms=     34 NQM=       34 NQMF=       0 NMMI=      0 NMMIF=      0
                NMic=       0 NMicF=      0.
                    Isotopes and Nuclear Properties:
 (Nuclear quadrupole moments (NQMom) in fm**2, nuclear magnetic moments (NMagM)
  in nuclear magnetons)

  Atom         1           2           3           4           5           6           7           8           9          10
 IAtWgt=          12          12          12          12           1           1          12           1           1           1
 AtmWgt=  12.0000000  12.0000000  12.0000000  12.0000000   1.0078250   1.0078250  12.0000000   1.0078250   1.0078250   1.0078250
 NucSpn=           0           0           0           0           1           1           0           1           1           1
 AtZEff=  -0.0000000  -0.0000000  -0.0000000  -0.0000000  -0.0000000  -0.0000000  -0.0000000  -0.0000000  -0.0000000  -0.0000000
 NQMom=    0.0000000   0.0000000   0.0000000   0.0000000   0.0000000   0.0000000   0.0000000   0.0000000   0.0000000   0.0000000
 NMagM=    0.0000000   0.0000000   0.0000000   0.0000000   2.7928460   2.7928460   0.0000000   2.7928460   2.7928460   2.7928460
 AtZNuc=   6.0000000   6.0000000   6.0000000   6.0000000   1.0000000   1.0000000   6.0000000   1.0000000   1.0000000   1.0000000

  Atom        11          12          13          14          15          16          17          18          19          20
 IAtWgt=           1          12          12          12          12          12          12           1           1          12
 AtmWgt=   1.0078250  12.0000000  12.0000000  12.0000000  12.0000000  12.0000000  12.0000000   1.0078250   1.0078250  12.0000000
 NucSpn=           1           0           0           0           0           0           0           1           1           0
 AtZEff=  -0.0000000  -0.0000000  -0.0000000  -0.0000000  -0.0000000  -0.0000000  -0.0000000  -0.0000000  -0.0000000  -0.0000000
 NQMom=    0.0000000   0.0000000   0.0000000   0.0000000   0.0000000   0.0000000   0.0000000   0.0000000   0.0000000   0.0000000
 NMagM=    2.7928460   0.0000000   0.0000000   0.0000000   0.0000000   0.0000000   0.0000000   2.7928460   2.7928460   0.0000000
 AtZNuc=   1.0000000   6.0000000   6.0000000   6.0000000   6.0000000   6.0000000   6.0000000   1.0000000   1.0000000   6.0000000

  Atom        21          22          23          24          25          26          27          28          29          30
 IAtWgt=          12           1           1          14           1           1           1          14          14          12
 AtmWgt=  12.0000000   1.0078250   1.0078250  14.0030740   1.0078250   1.0078250   1.0078250  14.0030740  14.0030740  12.0000000
 NucSpn=           0           1           1           2           1           1           1           2           2           0
 AtZEff=  -0.0000000  -0.0000000  -0.0000000  -0.0000000  -0.0000000  -0.0000000  -0.0000000  -0.0000000  -0.0000000  -0.0000000
 NQMom=    0.0000000   0.0000000   0.0000000   2.0440000   0.0000000   0.0000000   0.0000000   2.0440000   2.0440000   0.0000000
 NMagM=    0.0000000   2.7928460   2.7928460   0.4037610   2.7928460   2.7928460   2.7928460   0.4037610   0.4037610   0.0000000
 AtZNuc=   6.0000000   1.0000000   1.0000000   7.0000000   1.0000000   1.0000000   1.0000000   7.0000000   7.0000000   6.0000000

  Atom        31          32          33          34
 IAtWgt=          19          19          19           1
 AtmWgt=  18.9984032  18.9984032  18.9984032   1.0078250
 NucSpn=           1           1           1           1
 AtZEff=  -0.0000000  -0.0000000  -0.0000000  -0.0000000
 NQMom=    0.0000000   0.0000000   0.0000000   0.0000000
 NMagM=    2.6288670   2.6288670   2.6288670   2.7928460
 AtZNuc=   9.0000000   9.0000000   9.0000000   1.0000000
 Leave Link  101 at Sun Nov 30 19:55:32 2025, MaxMem=   104857600 cpu:               0.1 elap:               0.1
 (Enter /home/zhouoh/g16/l103.exe)

 GradGradGradGradGradGradGradGradGradGradGradGradGradGradGradGradGradGrad
 Berny optimization.
 Initialization pass.
                           ----------------------------
                           !    Initial Parameters    !
                           ! (Angstroms and Degrees)  !
 --------------------------                            --------------------------
 ! Name  Definition              Value          Derivative Info.                !
 --------------------------------------------------------------------------------
 ! R1    R(1,2)                  1.5537         calculate D2E/DX2 analytically  !
 ! R2    R(1,5)                  1.0948         calculate D2E/DX2 analytically  !
 ! R3    R(1,24)                 1.4639         calculate D2E/DX2 analytically  !
 ! R4    R(1,27)                 1.0917         calculate D2E/DX2 analytically  !
 ! R5    R(2,7)                  1.5422         calculate D2E/DX2 analytically  !
 ! R6    R(2,10)                 1.0899         calculate D2E/DX2 analytically  !
 ! R7    R(2,12)                 1.5073         calculate D2E/DX2 analytically  !
 ! R8    R(3,4)                  1.5522         calculate D2E/DX2 analytically  !
 ! R9    R(3,7)                  1.542          calculate D2E/DX2 analytically  !
 ! R10   R(3,11)                 1.0899         calculate D2E/DX2 analytically  !
 ! R11   R(3,17)                 1.5089         calculate D2E/DX2 analytically  !
 ! R12   R(4,6)                  1.0948         calculate D2E/DX2 analytically  !
 ! R13   R(4,24)                 1.4647         calculate D2E/DX2 analytically  !
 ! R14   R(4,26)                 1.0916         calculate D2E/DX2 analytically  !
 ! R15   R(7,8)                  1.0921         calculate D2E/DX2 analytically  !
 ! R16   R(7,9)                  1.0919         calculate D2E/DX2 analytically  !
 ! R17   R(12,13)                1.3665         calculate D2E/DX2 analytically  !
 ! R18   R(12,17)                1.4335         calculate D2E/DX2 analytically  !
 ! R19   R(13,14)                1.4101         calculate D2E/DX2 analytically  !
 ! R20   R(13,18)                1.0849         calculate D2E/DX2 analytically  !
 ! R21   R(14,15)                1.4266         calculate D2E/DX2 analytically  !
 ! R22   R(14,28)                1.3611         calculate D2E/DX2 analytically  !
 ! R23   R(15,16)                1.4164         calculate D2E/DX2 analytically  !
 ! R24   R(15,29)                1.3593         calculate D2E/DX2 analytically  !
 ! R25   R(16,17)                1.3658         calculate D2E/DX2 analytically  !
 ! R26   R(16,19)                1.0841         calculate D2E/DX2 analytically  !
 ! R27   R(20,21)                1.4222         calculate D2E/DX2 analytically  !
 ! R28   R(20,22)                1.0845         calculate D2E/DX2 analytically  !
 ! R29   R(20,29)                1.3049         calculate D2E/DX2 analytically  !
 ! R30   R(21,23)                1.0833         calculate D2E/DX2 analytically  !
 ! R31   R(21,28)                1.3365         calculate D2E/DX2 analytically  !
 ! R32   R(21,30)                2.3059         calculate D2E/DX2 analytically  !
 ! R33   R(24,25)                1.0154         calculate D2E/DX2 analytically  !
 ! R34   R(28,34)                1.0211         calculate D2E/DX2 analytically  !
 ! R35   R(30,31)                1.3094         calculate D2E/DX2 analytically  !
 ! R36   R(30,32)                1.3101         calculate D2E/DX2 analytically  !
 ! R37   R(30,33)                1.3125         calculate D2E/DX2 analytically  !
 ! A1    A(2,1,5)              107.3267         calculate D2E/DX2 analytically  !
 ! A2    A(2,1,24)             113.6971         calculate D2E/DX2 analytically  !
 ! A3    A(2,1,27)             110.4702         calculate D2E/DX2 analytically  !
 ! A4    A(5,1,24)             108.9955         calculate D2E/DX2 analytically  !
 ! A5    A(5,1,27)             108.0381         calculate D2E/DX2 analytically  !
 ! A6    A(24,1,27)            108.1671         calculate D2E/DX2 analytically  !
 ! A7    A(1,2,7)              107.5527         calculate D2E/DX2 analytically  !
 ! A8    A(1,2,10)             110.2918         calculate D2E/DX2 analytically  !
 ! A9    A(1,2,12)             108.7723         calculate D2E/DX2 analytically  !
 ! A10   A(7,2,10)             114.977          calculate D2E/DX2 analytically  !
 ! A11   A(7,2,12)             101.0187         calculate D2E/DX2 analytically  !
 ! A12   A(10,2,12)            113.666          calculate D2E/DX2 analytically  !
 ! A13   A(4,3,7)              107.5592         calculate D2E/DX2 analytically  !
 ! A14   A(4,3,11)             110.3238         calculate D2E/DX2 analytically  !
 ! A15   A(4,3,17)             108.9402         calculate D2E/DX2 analytically  !
 ! A16   A(7,3,11)             114.8537         calculate D2E/DX2 analytically  !
 ! A17   A(7,3,17)             101.041          calculate D2E/DX2 analytically  !
 ! A18   A(11,3,17)            113.5762         calculate D2E/DX2 analytically  !
 ! A19   A(3,4,6)              107.5158         calculate D2E/DX2 analytically  !
 ! A20   A(3,4,24)             113.5954         calculate D2E/DX2 analytically  !
 ! A21   A(3,4,26)             110.4668         calculate D2E/DX2 analytically  !
 ! A22   A(6,4,24)             108.9559         calculate D2E/DX2 analytically  !
 ! A23   A(6,4,26)             108.0498         calculate D2E/DX2 analytically  !
 ! A24   A(24,4,26)            108.1161         calculate D2E/DX2 analytically  !
 ! A25   A(2,7,3)              100.3001         calculate D2E/DX2 analytically  !
 ! A26   A(2,7,8)              111.2804         calculate D2E/DX2 analytically  !
 ! A27   A(2,7,9)              112.3078         calculate D2E/DX2 analytically  !
 ! A28   A(3,7,8)              111.2886         calculate D2E/DX2 analytically  !
 ! A29   A(3,7,9)              112.4003         calculate D2E/DX2 analytically  !
 ! A30   A(8,7,9)              109.0851         calculate D2E/DX2 analytically  !
 ! A31   A(2,12,13)            130.1524         calculate D2E/DX2 analytically  !
 ! A32   A(2,12,17)            108.1217         calculate D2E/DX2 analytically  !
 ! A33   A(13,12,17)           121.6871         calculate D2E/DX2 analytically  !
 ! A34   A(12,13,14)           117.1313         calculate D2E/DX2 analytically  !
 ! A35   A(12,13,18)           122.9966         calculate D2E/DX2 analytically  !
 ! A36   A(14,13,18)           119.8689         calculate D2E/DX2 analytically  !
 ! A37   A(13,14,15)           122.103          calculate D2E/DX2 analytically  !
 ! A38   A(13,14,28)           121.3137         calculate D2E/DX2 analytically  !
 ! A39   A(15,14,28)           116.5726         calculate D2E/DX2 analytically  !
 ! A40   A(14,15,16)           119.0398         calculate D2E/DX2 analytically  !
 ! A41   A(14,15,29)           121.3237         calculate D2E/DX2 analytically  !
 ! A42   A(16,15,29)           119.625          calculate D2E/DX2 analytically  !
 ! A43   A(15,16,17)           118.5871         calculate D2E/DX2 analytically  !
 ! A44   A(15,16,19)           118.3984         calculate D2E/DX2 analytically  !
 ! A45   A(17,16,19)           123.0138         calculate D2E/DX2 analytically  !
 ! A46   A(3,17,12)            107.9674         calculate D2E/DX2 analytically  !
 ! A47   A(3,17,16)            130.5527         calculate D2E/DX2 analytically  !
 ! A48   A(12,17,16)           121.4428         calculate D2E/DX2 analytically  !
 ! A49   A(21,20,22)           118.6881         calculate D2E/DX2 analytically  !
 ! A50   A(21,20,29)           122.4328         calculate D2E/DX2 analytically  !
 ! A51   A(22,20,29)           118.8507         calculate D2E/DX2 analytically  !
 ! A52   A(20,21,23)           122.9917         calculate D2E/DX2 analytically  !
 ! A53   A(20,21,28)           117.493          calculate D2E/DX2 analytically  !
 ! A54   A(20,21,30)            95.0685         calculate D2E/DX2 analytically  !
 ! A55   A(23,21,28)           117.6836         calculate D2E/DX2 analytically  !
 ! A56   A(23,21,30)            87.4084         calculate D2E/DX2 analytically  !
 ! A57   A(28,21,30)           101.3429         calculate D2E/DX2 analytically  !
 ! A58   A(1,24,4)             113.9892         calculate D2E/DX2 analytically  !
 ! A59   A(1,24,25)            109.2013         calculate D2E/DX2 analytically  !
 ! A60   A(4,24,25)            109.0779         calculate D2E/DX2 analytically  !
 ! A61   A(14,28,21)           122.7281         calculate D2E/DX2 analytically  !
 ! A62   A(14,28,34)           118.2401         calculate D2E/DX2 analytically  !
 ! A63   A(21,28,34)           118.9898         calculate D2E/DX2 analytically  !
 ! A64   A(15,29,20)           119.0589         calculate D2E/DX2 analytically  !
 ! A65   A(21,30,31)           109.298          calculate D2E/DX2 analytically  !
 ! A66   A(21,30,32)           109.7154         calculate D2E/DX2 analytically  !
 ! A67   A(21,30,33)           102.841          calculate D2E/DX2 analytically  !
 ! A68   A(31,30,32)           111.705          calculate D2E/DX2 analytically  !
 ! A69   A(31,30,33)           111.6228         calculate D2E/DX2 analytically  !
 ! A70   A(32,30,33)           111.2799         calculate D2E/DX2 analytically  !
 ! D1    D(5,1,2,7)            -61.7253         calculate D2E/DX2 analytically  !
 ! D2    D(5,1,2,10)            64.3703         calculate D2E/DX2 analytically  !
 ! D3    D(5,1,2,12)          -170.342          calculate D2E/DX2 analytically  !
 ! D4    D(24,1,2,7)            58.8914         calculate D2E/DX2 analytically  !
 ! D5    D(24,1,2,10)         -175.013          calculate D2E/DX2 analytically  !
 ! D6    D(24,1,2,12)          -49.7253         calculate D2E/DX2 analytically  !
 ! D7    D(27,1,2,7)          -179.2861         calculate D2E/DX2 analytically  !
 ! D8    D(27,1,2,10)          -53.1905         calculate D2E/DX2 analytically  !
 ! D9    D(27,1,2,12)           72.0972         calculate D2E/DX2 analytically  !
 ! D10   D(2,1,24,4)           -42.9745         calculate D2E/DX2 analytically  !
 ! D11   D(2,1,24,25)           79.2886         calculate D2E/DX2 analytically  !
 ! D12   D(5,1,24,4)            76.6995         calculate D2E/DX2 analytically  !
 ! D13   D(5,1,24,25)         -161.0374         calculate D2E/DX2 analytically  !
 ! D14   D(27,1,24,4)         -166.0666         calculate D2E/DX2 analytically  !
 ! D15   D(27,1,24,25)         -43.8035         calculate D2E/DX2 analytically  !
 ! D16   D(1,2,7,3)            -70.4794         calculate D2E/DX2 analytically  !
 ! D17   D(1,2,7,8)            171.694          calculate D2E/DX2 analytically  !
 ! D18   D(1,2,7,9)             49.0725         calculate D2E/DX2 analytically  !
 ! D19   D(10,2,7,3)           166.249          calculate D2E/DX2 analytically  !
 ! D20   D(10,2,7,8)            48.4224         calculate D2E/DX2 analytically  !
 ! D21   D(10,2,7,9)           -74.1991         calculate D2E/DX2 analytically  !
 ! D22   D(12,2,7,3)            43.4401         calculate D2E/DX2 analytically  !
 ! D23   D(12,2,7,8)           -74.3865         calculate D2E/DX2 analytically  !
 ! D24   D(12,2,7,9)           162.992          calculate D2E/DX2 analytically  !
 ! D25   D(1,2,12,13)          -92.3255         calculate D2E/DX2 analytically  !
 ! D26   D(1,2,12,17)           85.3899         calculate D2E/DX2 analytically  !
 ! D27   D(7,2,12,13)          154.677          calculate D2E/DX2 analytically  !
 ! D28   D(7,2,12,17)          -27.6076         calculate D2E/DX2 analytically  !
 ! D29   D(10,2,12,13)          30.9646         calculate D2E/DX2 analytically  !
 ! D30   D(10,2,12,17)        -151.32           calculate D2E/DX2 analytically  !
 ! D31   D(7,3,4,6)             61.4726         calculate D2E/DX2 analytically  !
 ! D32   D(7,3,4,24)           -59.1622         calculate D2E/DX2 analytically  !
 ! D33   D(7,3,4,26)           179.1563         calculate D2E/DX2 analytically  !
 ! D34   D(11,3,4,6)           -64.4939         calculate D2E/DX2 analytically  !
 ! D35   D(11,3,4,24)          174.8713         calculate D2E/DX2 analytically  !
 ! D36   D(11,3,4,26)           53.1898         calculate D2E/DX2 analytically  !
 ! D37   D(17,3,4,6)           170.1934         calculate D2E/DX2 analytically  !
 ! D38   D(17,3,4,24)           49.5585         calculate D2E/DX2 analytically  !
 ! D39   D(17,3,4,26)          -72.1229         calculate D2E/DX2 analytically  !
 ! D40   D(4,3,7,2)             70.6683         calculate D2E/DX2 analytically  !
 ! D41   D(4,3,7,8)           -171.5111         calculate D2E/DX2 analytically  !
 ! D42   D(4,3,7,9)            -48.8163         calculate D2E/DX2 analytically  !
 ! D43   D(11,3,7,2)          -166.0978         calculate D2E/DX2 analytically  !
 ! D44   D(11,3,7,8)           -48.2773         calculate D2E/DX2 analytically  !
 ! D45   D(11,3,7,9)            74.4175         calculate D2E/DX2 analytically  !
 ! D46   D(17,3,7,2)           -43.4491         calculate D2E/DX2 analytically  !
 ! D47   D(17,3,7,8)            74.3715         calculate D2E/DX2 analytically  !
 ! D48   D(17,3,7,9)          -162.9338         calculate D2E/DX2 analytically  !
 ! D49   D(4,3,17,12)          -85.4656         calculate D2E/DX2 analytically  !
 ! D50   D(4,3,17,16)           92.2938         calculate D2E/DX2 analytically  !
 ! D51   D(7,3,17,12)           27.6093         calculate D2E/DX2 analytically  !
 ! D52   D(7,3,17,16)         -154.6314         calculate D2E/DX2 analytically  !
 ! D53   D(11,3,17,12)         151.1397         calculate D2E/DX2 analytically  !
 ! D54   D(11,3,17,16)         -31.1009         calculate D2E/DX2 analytically  !
 ! D55   D(3,4,24,1)            43.0886         calculate D2E/DX2 analytically  !
 ! D56   D(3,4,24,25)          -79.2423         calculate D2E/DX2 analytically  !
 ! D57   D(6,4,24,1)           -76.7319         calculate D2E/DX2 analytically  !
 ! D58   D(6,4,24,25)          160.9372         calculate D2E/DX2 analytically  !
 ! D59   D(26,4,24,1)          166.0701         calculate D2E/DX2 analytically  !
 ! D60   D(26,4,24,25)          43.7392         calculate D2E/DX2 analytically  !
 ! D61   D(2,12,13,14)         178.2526         calculate D2E/DX2 analytically  !
 ! D62   D(2,12,13,18)          -2.397          calculate D2E/DX2 analytically  !
 ! D63   D(17,12,13,14)          0.8044         calculate D2E/DX2 analytically  !
 ! D64   D(17,12,13,18)       -179.8452         calculate D2E/DX2 analytically  !
 ! D65   D(2,12,17,3)            0.0024         calculate D2E/DX2 analytically  !
 ! D66   D(2,12,17,16)        -178.0022         calculate D2E/DX2 analytically  !
 ! D67   D(13,12,17,3)         177.9504         calculate D2E/DX2 analytically  !
 ! D68   D(13,12,17,16)         -0.0542         calculate D2E/DX2 analytically  !
 ! D69   D(12,13,14,15)         -0.7975         calculate D2E/DX2 analytically  !
 ! D70   D(12,13,14,28)       -179.57           calculate D2E/DX2 analytically  !
 ! D71   D(18,13,14,15)        179.8308         calculate D2E/DX2 analytically  !
 ! D72   D(18,13,14,28)          1.0583         calculate D2E/DX2 analytically  !
 ! D73   D(13,14,15,16)          0.0443         calculate D2E/DX2 analytically  !
 ! D74   D(13,14,15,29)       -178.7188         calculate D2E/DX2 analytically  !
 ! D75   D(28,14,15,16)        178.8717         calculate D2E/DX2 analytically  !
 ! D76   D(28,14,15,29)          0.1087         calculate D2E/DX2 analytically  !
 ! D77   D(13,14,28,21)       -176.2642         calculate D2E/DX2 analytically  !
 ! D78   D(13,14,28,34)          1.3524         calculate D2E/DX2 analytically  !
 ! D79   D(15,14,28,21)          4.8984         calculate D2E/DX2 analytically  !
 ! D80   D(15,14,28,34)       -177.485          calculate D2E/DX2 analytically  !
 ! D81   D(14,15,16,17)          0.7177         calculate D2E/DX2 analytically  !
 ! D82   D(14,15,16,19)       -179.5969         calculate D2E/DX2 analytically  !
 ! D83   D(29,15,16,17)        179.5022         calculate D2E/DX2 analytically  !
 ! D84   D(29,15,16,19)         -0.8125         calculate D2E/DX2 analytically  !
 ! D85   D(14,15,29,20)         -1.8797         calculate D2E/DX2 analytically  !
 ! D86   D(16,15,29,20)        179.3643         calculate D2E/DX2 analytically  !
 ! D87   D(15,16,17,3)        -178.227          calculate D2E/DX2 analytically  !
 ! D88   D(15,16,17,12)         -0.7254         calculate D2E/DX2 analytically  !
 ! D89   D(19,16,17,3)           2.1031         calculate D2E/DX2 analytically  !
 ! D90   D(19,16,17,12)        179.6047         calculate D2E/DX2 analytically  !
 ! D91   D(22,20,21,23)        -11.9987         calculate D2E/DX2 analytically  !
 ! D92   D(22,20,21,28)       -176.2109         calculate D2E/DX2 analytically  !
 ! D93   D(22,20,21,30)         78.1994         calculate D2E/DX2 analytically  !
 ! D94   D(29,20,21,23)        169.9647         calculate D2E/DX2 analytically  !
 ! D95   D(29,20,21,28)          5.7525         calculate D2E/DX2 analytically  !
 ! D96   D(29,20,21,30)        -99.8372         calculate D2E/DX2 analytically  !
 ! D97   D(21,20,29,15)         -1.0547         calculate D2E/DX2 analytically  !
 ! D98   D(22,20,29,15)       -179.0882         calculate D2E/DX2 analytically  !
 ! D99   D(20,21,28,14)         -7.6727         calculate D2E/DX2 analytically  !
 ! D100  D(20,21,28,34)        174.7278         calculate D2E/DX2 analytically  !
 ! D101  D(23,21,28,14)       -172.7388         calculate D2E/DX2 analytically  !
 ! D102  D(23,21,28,34)          9.6617         calculate D2E/DX2 analytically  !
 ! D103  D(30,21,28,14)         94.2137         calculate D2E/DX2 analytically  !
 ! D104  D(30,21,28,34)        -83.3858         calculate D2E/DX2 analytically  !
 ! D105  D(20,21,30,31)        -87.7134         calculate D2E/DX2 analytically  !
 ! D106  D(20,21,30,32)         35.0878         calculate D2E/DX2 analytically  !
 ! D107  D(20,21,30,33)        153.584          calculate D2E/DX2 analytically  !
 ! D108  D(23,21,30,31)         35.1884         calculate D2E/DX2 analytically  !
 ! D109  D(23,21,30,32)        157.9896         calculate D2E/DX2 analytically  !
 ! D110  D(23,21,30,33)        -83.5143         calculate D2E/DX2 analytically  !
 ! D111  D(28,21,30,31)        152.9147         calculate D2E/DX2 analytically  !
 ! D112  D(28,21,30,32)        -84.2841         calculate D2E/DX2 analytically  !
 ! D113  D(28,21,30,33)         34.212          calculate D2E/DX2 analytically  !
 --------------------------------------------------------------------------------
 Trust Radius=3.00D-01 FncErr=1.00D-07 GrdErr=1.00D-07 EigMax=2.50D+02 EigMin=1.00D-04
 Number of steps in this run=    204 maximum allowed number of steps=    204.
 Search for a saddle point of order  1.
 GradGradGradGradGradGradGradGradGradGradGradGradGradGradGradGradGradGrad

 Leave Link  103 at Sun Nov 30 19:55:32 2025, MaxMem=   104857600 cpu:               0.0 elap:               0.0
 (Enter /home/zhouoh/g16/l202.exe)
                          Input orientation:                          
 ---------------------------------------------------------------------
 Center     Atomic      Atomic             Coordinates (Angstroms)
 Number     Number       Type             X           Y           Z
 ---------------------------------------------------------------------
      1          6           0       -3.974623   -1.112276   -0.927639
      2          6           0       -3.003659   -1.482465    0.227391
      3          6           0       -3.213832    0.673978    1.182512
      4          6           0       -4.194568    1.122840    0.066249
      5          1           0       -4.959864   -1.511367   -0.665885
      6          1           0       -5.210463    1.031583    0.463934
      7          6           0       -3.524191   -0.800775    1.509079
      8          1           0       -2.971630   -1.136782    2.389129
      9          1           0       -4.590027   -0.976287    1.668247
     10          1           0       -2.891434   -2.564528    0.294703
     11          1           0       -3.271518    1.353397    2.032796
     12          6           0       -1.702144   -0.750911    0.020234
     13          6           0       -0.564142   -1.143133   -0.626709
     14          6           0        0.493657   -0.212761   -0.688344
     15          6           0        0.390067    1.091697   -0.120231
     16          6           0       -0.812573    1.465917    0.527692
     17          6           0       -1.827828    0.555018    0.597990
     18          1           0       -0.447035   -2.124783   -1.073591
     19          1           0       -0.882401    2.461932    0.949896
     20          6           0        2.517968    1.624615   -0.799432
     21          6           0        2.708755    0.320027   -1.332568
     22          1           0        3.335238    2.335162   -0.856946
     23          1           0        3.553279    0.055879   -1.957532
     24          7           0       -4.090464    0.328439   -1.159914
     25          1           0       -3.287490    0.646221   -1.694090
     26          1           0       -4.025318    2.169770   -0.192213
     27          1           0       -3.656073   -1.582786   -1.859760
     28          7           0        1.662200   -0.511034   -1.319262
     29          7           0        1.410396    1.985159   -0.211244
     30          6           0        3.928243   -0.457607    0.463292
     31          9           0        5.195190   -0.184303    0.276939
     32          9           0        3.474943    0.077069    1.570106
     33          9           0        3.702514   -1.750182    0.431414
     34          1           0        1.749202   -1.423601   -1.768958
 ---------------------------------------------------------------------
                    Distance matrix (angstroms):
                    1          2          3          4          5
     1  C    0.000000
     2  C    1.553675   0.000000
     3  C    2.867445   2.367842   0.000000
     4  C    2.455999   2.869119   1.552212   0.000000
     5  H    1.094755   2.150701   3.352750   2.839145   0.000000
     6  H    2.838998   3.353561   2.151923   1.094771   2.793901
     7  C    2.497502   1.542199   1.542033   2.496289   2.701216
     8  H    3.465191   2.189437   2.189392   3.463703   3.664219
     9  H    2.671299   2.202009   2.203004   2.670041   2.423069
    10  H    2.185510   1.089948   3.373435   3.917529   2.512027
    11  H    3.916385   3.372440   1.089918   2.184602   4.282553
    12  C    2.488616   1.507324   2.380420   3.118531   3.414937
    13  C    3.423871   2.606890   3.687279   4.335299   4.411293
    14  C    4.564199   3.831702   4.246396   4.932818   5.606048
    15  C    4.955797   4.273702   3.854830   4.588532   5.974566
    16  C    4.331700   3.685647   2.611896   3.430528   5.242983
    17  C    3.117073   2.381441   1.508915   2.491311   3.959416
    18  H    3.672921   2.939635   4.536323   5.088251   4.572541
    19  H    5.085463   4.536520   2.947280   3.680278   5.918070
    20  C    7.047038   6.418464   6.138839   6.786702   8.109882
    21  C    6.847116   6.189840   6.444218   7.089222   7.912407
    22  H    8.082320   7.478748   7.057566   7.682447   9.145546
    23  H    7.687300   7.080524   7.485701   8.078566   8.752041
    24  N    1.463909   2.526882   2.524845   1.464714   2.093993
    25  H    2.037624   2.881658   2.877679   2.036848   2.917058
    26  H    3.363814   3.815583   2.187641   1.091563   3.827337
    27  H    1.091652   2.189043   3.813657   3.364506   1.769268
    28  N    5.682309   5.010594   5.607033   6.236258   6.728989
    29  N    6.253459   5.630337   5.004522   5.677695   7.280976
    30  C    8.050998   7.011223   7.266842   8.284655   9.021302
    31  F    9.295032   8.301133   8.501080   9.482646  10.284704
    32  F    7.946654   6.797596   6.726533   7.885215   8.869541
    33  F    7.822556   6.714615   7.367261   8.411391   8.734866
    34  H    5.793696   5.155440   6.143510   6.721663   6.799709
                    6          7          8          9         10
     6  H    0.000000
     7  C    2.700625   0.000000
     8  H    3.663408   1.092114   0.000000
     9  H    2.422159   1.091854   1.778943   0.000000
    10  H    4.282353   2.232916   2.536042   2.700806   0.000000
    11  H    2.514836   2.231273   2.533357   2.701627   4.302972
    12  C    3.960108   2.353508   2.715171   3.332658   2.186081
    13  C    5.244730   3.666155   3.858927   4.637069   2.878481
    14  C    5.950893   4.617091   4.725766   5.655116   4.237456
    15  C    5.631234   4.643007   4.750159   5.681245   4.930355
    16  C    4.419745   3.667954   3.860119   4.640516   4.540973
    17  C    3.418670   2.354975   2.716367   3.334680   3.309805
    18  H    5.917506   4.229902   4.397744   5.099128   2.835611
    19  H    4.584122   4.235209   4.403068   5.107237   5.452595
    20  C    7.853434   6.907925   6.922999   7.961013   6.928757
    21  C    8.151549   6.941237   6.945509   7.997346   6.506211
    22  H    8.744887   7.904678   7.897340   8.952772   8.006541
    23  H    9.144324   7.927284   7.930343   8.973576   7.312552
    24  N    2.094204   2.952848   3.999296   3.154420   3.452947
    25  H    2.916058   3.522800   4.466715   3.954042   3.797508
    26  H    1.769341   3.459720   4.325144   3.698362   4.892480
    27  H    3.827611   3.460926   4.326712   3.699587   2.488011
    28  N    7.265876   5.914568   5.967923   6.944927   5.249505
    29  N    6.723165   5.922085   5.975835   6.950376   6.281829
    30  C    9.259246   7.533273   7.195719   8.618693   7.139715
    31  F   10.478118   8.827560   8.489141   9.915314   8.429666
    32  F    8.807440   7.054234   6.610789   8.134060   7.009668
    33  F    9.337046   7.368039   6.982342   8.419911   6.645450
    34  H    7.710426   6.240362   6.297476   7.224977   5.205374
                   11         12         13         14         15
    11  H    0.000000
    12  C    3.307787   0.000000
    13  C    4.542633   1.366536   0.000000
    14  C    4.902448   2.369226   1.410081   0.000000
    15  C    4.255728   2.791466   2.482237   1.426567   0.000000
    16  C    2.885205   2.441962   2.863826   2.450090   1.416400
    17  C    2.186394   1.433544   2.445507   2.762867   2.392263
    18  H    5.452071   2.158536   1.084921   2.165443   3.457655
    19  H    2.847701   3.443633   3.947590   3.425106   2.154505
    20  C    6.450831   4.911652   4.146042   2.736079   2.296362
    21  C    6.939538   4.736350   3.653892   2.367604   2.727920
    22  H    7.277616   5.972312   5.230364   3.820330   3.280699
    23  H    8.011500   5.672913   4.490198   3.323295   3.801908
    24  N    3.451754   2.874338   3.858080   4.639983   4.662474
    25  H    3.793420   2.721067   3.428952   4.005802   4.024911
    26  H    2.487035   3.738001   4.810806   5.132615   4.545662
    27  H    4.890915   2.836236   3.357640   4.524317   5.152676
    28  N    6.249317   3.629132   2.415735   1.361072   2.371654
    29  N    5.230216   4.150610   3.722583   2.428762   1.359275
    30  C    7.588125   5.655403   4.673283   3.630784   3.906345
    31  F    8.782522   6.925327   5.908116   4.799687   4.987497
    32  F    6.881703   5.467164   4.757005   3.751355   3.661034
    33  F    7.799599   5.511619   4.437622   3.730186   4.399192
    34  H    6.882781   3.945315   2.595179   2.051890   3.300344
                   16         17         18         19         20
    16  C    0.000000
    17  C    1.365804   0.000000
    18  H    3.948525   3.447043   0.000000
    19  H    1.084056   2.157311   5.032097   0.000000
    20  C    3.588725   4.688579   4.787942   3.914557   0.000000
    21  C    4.144078   4.935875   4.000397   4.763801   1.422176
    22  H    4.458379   5.651814   5.851806   4.590123   1.084488
    23  H    5.217778   5.977972   4.641029   5.823872   2.207713
    24  N    3.858295   2.874211   4.393213   4.392580   6.743989
    25  H    3.425410   2.718927   4.016425   4.008980   5.954915
    26  H    3.366809   2.839156   5.658986   3.356739   6.593975
    27  H    4.804166   3.735401   3.348096   5.652182   7.037791
    28  N    3.666616   4.122210   2.667098   4.523560   2.358720
    29  N    2.399423   3.631289   4.591875   2.613901   1.304865
    30  C    5.116584   5.846016   4.927935   5.648255   2.814071
    31  F    6.235328   7.069120   6.117524   6.662773   3.405624
    32  F    4.625832   5.412285   5.217202   5.005864   2.987542
    33  F    5.544238   5.993862   4.429912   6.247573   3.782511
    34  H    4.492951   4.723613   2.408038   5.423548   3.289772
                   21         22         23         24         25
    21  C    0.000000
    22  H    2.163207   0.000000
    23  H    1.083317   2.540465   0.000000
    24  N    6.801416   7.698037   7.690077   0.000000
    25  H    6.015983   6.885772   6.871246   1.015429   0.000000
    26  H    7.075994   7.392362   8.063499   2.081151   2.263013
    27  H    6.664058   8.076780   7.393885   2.081168   2.265342
    28  N    1.336457   3.333710   2.074839   5.815776   5.096976
    29  N    2.390767   2.060206   3.370993   5.822728   5.105068
    30  C    2.305857   3.145511   2.502929   8.219022   7.611802
    31  F    3.004533   3.330589   2.783239   9.410145   8.748176
    32  F    3.011908   3.317994   3.528571   8.046837   7.530565
    33  F    2.895679   4.299395   2.998531   8.220918   7.688997
    34  H    2.037503   4.180380   2.340751   6.127175   5.445919
                   26         27         28         29         30
    26  H    0.000000
    27  H    4.122952   0.000000
    28  N    6.387864   5.452047   0.000000
    29  N    5.438881   6.412250   2.742643   0.000000
    30  C    8.401900   8.011520   2.883627   3.572346   0.000000
    31  F    9.527829   9.212280   3.890582   4.389710   1.309419
    32  F    7.983676   8.085202   3.461264   3.328118   1.310113
    33  F    8.687596   7.708846   2.960276   4.429400   1.312524
    34  H    6.981656   5.408381   1.021065   3.763098   3.265625
                   31         32         33         34
    31  F    0.000000
    32  F    2.167913   0.000000
    33  F    2.168853   2.165007   0.000000
    34  H    4.194805   4.047165   2.960358   0.000000
 Stoichiometry    C14H14F3N3(1+,2)
 Framework group  C1[X(C14H14F3N3)]
 Deg. of freedom    96
 Full point group                 C1      NOp   1
 Largest Abelian subgroup         C1      NOp   1
 Largest concise Abelian subgroup C1      NOp   1
                         Standard orientation:                         
 ---------------------------------------------------------------------
 Center     Atomic      Atomic             Coordinates (Angstroms)
 Number     Number       Type             X           Y           Z
 ---------------------------------------------------------------------
      1          6           0       -3.974623   -1.112276   -0.927639
      2          6           0       -3.003659   -1.482465    0.227391
      3          6           0       -3.213832    0.673978    1.182512
      4          6           0       -4.194568    1.122840    0.066249
      5          1           0       -4.959864   -1.511367   -0.665885
      6          1           0       -5.210463    1.031583    0.463934
      7          6           0       -3.524191   -0.800775    1.509079
      8          1           0       -2.971630   -1.136782    2.389129
      9          1           0       -4.590027   -0.976287    1.668247
     10          1           0       -2.891434   -2.564528    0.294703
     11          1           0       -3.271518    1.353397    2.032796
     12          6           0       -1.702144   -0.750911    0.020234
     13          6           0       -0.564142   -1.143133   -0.626709
     14          6           0        0.493657   -0.212761   -0.688344
     15          6           0        0.390067    1.091697   -0.120231
     16          6           0       -0.812573    1.465917    0.527692
     17          6           0       -1.827828    0.555018    0.597990
     18          1           0       -0.447035   -2.124783   -1.073591
     19          1           0       -0.882401    2.461932    0.949896
     20          6           0        2.517968    1.624615   -0.799432
     21          6           0        2.708755    0.320027   -1.332568
     22          1           0        3.335238    2.335162   -0.856946
     23          1           0        3.553279    0.055879   -1.957532
     24          7           0       -4.090464    0.328439   -1.159914
     25          1           0       -3.287490    0.646221   -1.694090
     26          1           0       -4.025318    2.169770   -0.192213
     27          1           0       -3.656073   -1.582786   -1.859760
     28          7           0        1.662200   -0.511034   -1.319262
     29          7           0        1.410396    1.985159   -0.211244
     30          6           0        3.928243   -0.457607    0.463292
     31          9           0        5.195190   -0.184303    0.276939
     32          9           0        3.474943    0.077069    1.570106
     33          9           0        3.702514   -1.750182    0.431414
     34          1           0        1.749202   -1.423601   -1.768958
 ---------------------------------------------------------------------
 Rotational constants (GHZ):           0.9013924           0.1730370           0.1672138
 Leave Link  202 at Sun Nov 30 19:55:32 2025, MaxMem=   104857600 cpu:               0.0 elap:               0.0
 (Enter /home/zhouoh/g16/l301.exe)
 Standard basis: STO-3G (5D, 7F)
 Ernie: Thresh=  0.10000D-02 Tol=  0.10000D-05 Strict=F.
 There are   114 symmetry adapted cartesian basis functions of A   symmetry.
 There are   114 symmetry adapted basis functions of A   symmetry.
   114 basis functions,   342 primitive gaussians,   114 cartesian basis functions
    73 alpha electrons       72 beta electrons
       nuclear repulsion energy      1596.2263443442 Hartrees.
 IExCor=    0 DFT=F Ex=HF Corr=None ExCW=0 ScaHFX=  1.000000
 ScaDFX=  1.000000  1.000000  1.000000  1.000000 ScalE2=  1.000000  1.000000
 IRadAn=      5 IRanWt=     -1 IRanGd=            0 ICorTp=0 IEmpDi=  4
 NAtoms=   34 NActive=   34 NUniq=   34 SFac= 1.00D+00 NAtFMM=   60 NAOKFM=F Big=F
 Integral buffers will be    131072 words long.
 Raffenetti 2 integral format.
 Two-electron integral symmetry is turned on.
 Leave Link  301 at Sun Nov 30 19:55:32 2025, MaxMem=   104857600 cpu:               0.0 elap:               0.0
 (Enter /home/zhouoh/g16/l402.exe)
 External calculation of energy, first and second derivatives.
 Running external command "python ../GauUMA_client.py R"
         input file       "/home/zhouoh/scratch/Gau-2679020.EIn"
         output file      "/home/zhouoh/scratch/Gau-2679020.EOu"
         message file     "/home/zhouoh/scratch/Gau-2679020.EMs"
         fchk file        "/home/zhouoh/scratch/Gau-2679020.EFC"
         mat. el file     "/home/zhouoh/scratch/Gau-2679020.EUF"
Sent job to server.
Received result from server:
SCF Done:  E(UMA) =  -1005.4606078088606     A.U.
 Recovered energy= -1005.46060781     dipole=      0.000000000000      0.000000000000      0.000000000000
 Energy=    -1005.46061     NIter=   0.
 Dipole moment=       0.000000       0.000000       0.000000
 Leave Link  402 at Sun Nov 30 19:55:39 2025, MaxMem=   104857600 cpu:               0.0 elap:               7.0
 (Enter /home/zhouoh/g16/l601.exe)
 Leave Link  601 at Sun Nov 30 19:55:39 2025, MaxMem=   104857600 cpu:               0.0 elap:               0.0
 (Enter /home/zhouoh/g16/l716.exe)
 Dipole        = 0.00000000D+00 0.00000000D+00 0.00000000D+00
 ***** Axes restored to original set *****
 -------------------------------------------------------------------
 Center     Atomic                   Forces (Hartrees/Bohr)
 Number     Number              X              Y              Z
 -------------------------------------------------------------------
      1        6          -0.001488519    0.003030600   -0.000717605
      2        6           0.001723188    0.002045127    0.000447810
      3        6           0.001286230   -0.001507464   -0.001677379
      4        6          -0.000996502   -0.001066264   -0.001821472
      5        1           0.001148500    0.000107698   -0.000909312
      6        1           0.001052494    0.000838702   -0.000820498
      7        6           0.001032354    0.000772696   -0.000658245
      8        1          -0.000934477    0.000201509   -0.000527545
      9        1           0.001235883   -0.000060828    0.000369504
     10        1          -0.000301126    0.000631034    0.000302228
     11        1          -0.000028907   -0.000889353   -0.000318493
     12        6          -0.002622586    0.001039761    0.001777552
     13        6           0.004583522    0.003898570   -0.000379148
     14        6          -0.007786562    0.002425730    0.003835905
     15        6           0.001261948   -0.001151262   -0.000778341
     16        6          -0.001330382   -0.002456385   -0.000506030
     17        6           0.000780791   -0.001310378   -0.000935708
     18        1          -0.001286729    0.000147131    0.000763933
     19        1           0.000852172   -0.001346539   -0.000512031
     20        6           0.000602857   -0.003171292   -0.002429076
     21        6           0.003473525    0.002538669    0.002913166
     22        1          -0.001178258   -0.000169698   -0.000087369
     23        1          -0.001283247    0.000955796    0.000255117
     24        7           0.006321463   -0.002152817    0.005027803
     25        1          -0.003039809    0.000058760   -0.000734097
     26        1          -0.000907815   -0.001046440    0.000247311
     27        1          -0.001033412    0.000363589    0.000707326
     28        7           0.003223012   -0.006457857   -0.006944631
     29        7          -0.001400799   -0.001278037    0.000581434
     30        6           0.002649826    0.000200470    0.007528274
     31        9          -0.000020505    0.002212864   -0.003551699
     32        9          -0.002757287    0.001728801   -0.001089895
     33        9          -0.002167005   -0.004133377   -0.002637004
     34        1          -0.000663838    0.005000480    0.003278212
 -------------------------------------------------------------------
 Cartesian Forces:  Max     0.007786562 RMS     0.002392774
 FormGI is forming the generalized inverse of G from B-inverse, IUseBI=4.
 Leave Link  716 at Sun Nov 30 19:55:39 2025, MaxMem=   104857600 cpu:               0.0 elap:               0.0
 (Enter /home/zhouoh/g16/l103.exe)

 GradGradGradGradGradGradGradGradGradGradGradGradGradGradGradGradGradGrad
 Berny optimization.
 Red2BG is reusing G-inverse.
 Internal  Forces:  Max     0.005969478 RMS     0.001370595
 Search for a saddle point.
 Step number   1 out of a maximum of  204
 All quantities printed in internal units (Hartrees-Bohrs-Radians)
 Swapping is turned off.
 Second derivative matrix not updated -- analytic derivatives used.
 ITU=  0
     Eigenvalues ---   -0.02436   0.00006   0.00412   0.00809   0.00850
     Eigenvalues ---    0.00909   0.01104   0.01165   0.01206   0.01529
     Eigenvalues ---    0.01556   0.01721   0.01744   0.02015   0.02101
     Eigenvalues ---    0.02241   0.02276   0.02477   0.02629   0.02831
     Eigenvalues ---    0.03053   0.03214   0.03315   0.03456   0.03585
     Eigenvalues ---    0.03638   0.03997   0.04078   0.04316   0.04342
     Eigenvalues ---    0.05098   0.05108   0.05514   0.05780   0.06074
     Eigenvalues ---    0.06497   0.06732   0.07812   0.07969   0.08282
     Eigenvalues ---    0.08677   0.09247   0.09318   0.10411   0.10551
     Eigenvalues ---    0.11295   0.12225   0.12594   0.13068   0.14222
     Eigenvalues ---    0.14399   0.15002   0.15738   0.18039   0.18178
     Eigenvalues ---    0.19327   0.19700   0.20227   0.20661   0.21999
     Eigenvalues ---    0.22923   0.23144   0.23702   0.24005   0.24443
     Eigenvalues ---    0.25486   0.28270   0.29118   0.30152   0.30809
     Eigenvalues ---    0.33116   0.33126   0.33466   0.34015   0.34105
     Eigenvalues ---    0.34204   0.34237   0.34367   0.35186   0.35525
     Eigenvalues ---    0.35883   0.36180   0.36313   0.36518   0.39186
     Eigenvalues ---    0.39409   0.40004   0.41164   0.42443   0.43743
     Eigenvalues ---    0.44438   0.49127   0.51539   0.52507   0.58107
     Eigenvalues ---    0.59165
 Eigenvectors required to have negative eigenvalues:
                          R32       D91      D102       D94      D101
   1                    0.93275   0.13336  -0.13091   0.11081  -0.10541
                          D95       D99       A57       D92      D100
   1                   -0.09599   0.09244  -0.07847  -0.07344   0.06694
 RFO step:  Lambda0=4.633544243D-05 Lambda=-2.91373104D-03.
 Linear search not attempted -- option 19 set.
 Iteration  1 RMS(Cart)=  0.09779395 RMS(Int)=  0.00382278
 Iteration  2 RMS(Cart)=  0.00698695 RMS(Int)=  0.00023467
 Iteration  3 RMS(Cart)=  0.00003646 RMS(Int)=  0.00023388
 Iteration  4 RMS(Cart)=  0.00000002 RMS(Int)=  0.00023388
 ITry= 1 IFail=0 DXMaxC= 7.92D-01 DCOld= 1.00D+10 DXMaxT= 3.00D-01 DXLimC= 3.00D+00 Rises=F
 Variable       Old X    -DE/DX   Delta X   Delta X   Delta X     New X
                                 (Linear)    (Quad)   (Total)
    R1        2.93602  -0.00047   0.00000   0.00185   0.00185   2.93787
    R2        2.06879  -0.00129   0.00000  -0.00271  -0.00271   2.06608
    R3        2.76639  -0.00385   0.00000  -0.01995  -0.01986   2.74653
    R4        2.06292  -0.00106   0.00000  -0.00290  -0.00290   2.06002
    R5        2.91433  -0.00187   0.00000  -0.00453  -0.00462   2.90971
    R6        2.05970  -0.00064   0.00000  -0.00170  -0.00170   2.05800
    R7        2.84843  -0.00284   0.00000  -0.01042  -0.01041   2.83802
    R8        2.93326  -0.00086   0.00000  -0.00253  -0.00253   2.93073
    R9        2.91402  -0.00223   0.00000  -0.00589  -0.00600   2.90801
   R10        2.05965  -0.00080   0.00000  -0.00202  -0.00202   2.05763
   R11        2.85144  -0.00262   0.00000  -0.00719  -0.00719   2.84425
   R12        2.06882  -0.00134   0.00000  -0.00295  -0.00295   2.06587
   R13        2.76791  -0.00335   0.00000  -0.01712  -0.01702   2.75088
   R14        2.06276  -0.00120   0.00000  -0.00331  -0.00331   2.05945
   R15        2.06380  -0.00096   0.00000  -0.00250  -0.00250   2.06130
   R16        2.06331  -0.00114   0.00000  -0.00288  -0.00288   2.06043
   R17        2.58238  -0.00088   0.00000   0.00168   0.00168   2.58406
   R18        2.70901  -0.00414   0.00000  -0.01104  -0.01104   2.69797
   R19        2.66467  -0.00448   0.00000  -0.01426  -0.01423   2.65044
   R20        2.05020  -0.00059   0.00000  -0.00142  -0.00142   2.04878
   R21        2.69582  -0.00416   0.00000  -0.00970  -0.00984   2.68598
   R22        2.57205   0.00402   0.00000   0.01234   0.01242   2.58447
   R23        2.67661  -0.00279   0.00000  -0.00558  -0.00559   2.67102
   R24        2.56866  -0.00285   0.00000  -0.00802  -0.00825   2.56041
   R25        2.58100  -0.00377   0.00000  -0.00717  -0.00720   2.57380
   R26        2.04857  -0.00149   0.00000  -0.00380  -0.00380   2.04477
   R27        2.68752  -0.00389   0.00000  -0.01328  -0.01313   2.67440
   R28        2.04939  -0.00099   0.00000  -0.00297  -0.00297   2.04641
   R29        2.46584  -0.00083   0.00000   0.00140   0.00133   2.46717
   R30        2.04717  -0.00138   0.00000  -0.00380  -0.00380   2.04337
   R31        2.52554   0.00053   0.00000  -0.00167  -0.00144   2.52410
   R32        4.35744  -0.00102   0.00000   0.05373   0.05373   4.41117
   R33        1.91888  -0.00200   0.00000  -0.00815  -0.00815   1.91073
   R34        1.92953  -0.00597   0.00000  -0.01443  -0.01443   1.91510
   R35        2.47444   0.00095   0.00000  -0.00237  -0.00237   2.47208
   R36        2.47576   0.00074   0.00000  -0.00189  -0.00189   2.47387
   R37        2.48031   0.00451   0.00000   0.00698   0.00698   2.48730
    A1        1.87320   0.00028   0.00000  -0.00096  -0.00099   1.87221
    A2        1.98439  -0.00059   0.00000  -0.00503  -0.00491   1.97948
    A3        1.92807   0.00058   0.00000   0.00427   0.00426   1.93233
    A4        1.90233   0.00030   0.00000   0.00551   0.00553   1.90786
    A5        1.88562  -0.00052   0.00000  -0.00854  -0.00853   1.87709
    A6        1.88787  -0.00007   0.00000   0.00438   0.00429   1.89217
    A7        1.87715   0.00021   0.00000  -0.00162  -0.00165   1.87550
    A8        1.92495   0.00019   0.00000   0.00216   0.00219   1.92714
    A9        1.89843  -0.00028   0.00000  -0.00220  -0.00221   1.89622
   A10        2.00673  -0.00035   0.00000  -0.00291  -0.00294   2.00378
   A11        1.76311   0.00001   0.00000  -0.00084  -0.00081   1.76230
   A12        1.98385   0.00019   0.00000   0.00483   0.00483   1.98868
   A13        1.87726   0.00046   0.00000   0.00171   0.00168   1.87894
   A14        1.92551   0.00007   0.00000   0.00356   0.00359   1.92910
   A15        1.90137  -0.00022   0.00000  -0.00052  -0.00054   1.90082
   A16        2.00457  -0.00046   0.00000  -0.00577  -0.00580   1.99878
   A17        1.76350  -0.00006   0.00000  -0.00152  -0.00148   1.76202
   A18        1.98228   0.00021   0.00000   0.00223   0.00223   1.98451
   A19        1.87651   0.00044   0.00000   0.00308   0.00304   1.87954
   A20        1.98261  -0.00074   0.00000  -0.00810  -0.00797   1.97465
   A21        1.92801   0.00060   0.00000   0.00466   0.00465   1.93266
   A22        1.90164   0.00024   0.00000   0.00425   0.00428   1.90592
   A23        1.88582  -0.00057   0.00000  -0.00867  -0.00866   1.87717
   A24        1.88698   0.00002   0.00000   0.00452   0.00443   1.89142
   A25        1.75057  -0.00070   0.00000  -0.00036  -0.00038   1.75019
   A26        1.94221   0.00030   0.00000   0.00190   0.00192   1.94413
   A27        1.96014   0.00030   0.00000   0.00237   0.00235   1.96249
   A28        1.94235   0.00036   0.00000   0.00116   0.00118   1.94354
   A29        1.96176   0.00021   0.00000   0.00314   0.00313   1.96488
   A30        1.90389  -0.00044   0.00000  -0.00733  -0.00733   1.89657
   A31        2.27159   0.00046   0.00000   0.00189   0.00192   2.27350
   A32        1.88708   0.00020   0.00000   0.00153   0.00149   1.88857
   A33        2.12384  -0.00065   0.00000  -0.00327  -0.00327   2.12057
   A34        2.04433   0.00035   0.00000   0.00239   0.00238   2.04671
   A35        2.14670  -0.00159   0.00000  -0.01465  -0.01470   2.13199
   A36        2.09211   0.00123   0.00000   0.01210   0.01204   2.10414
   A37        2.13110   0.00008   0.00000   0.00119   0.00109   2.13219
   A38        2.11732   0.00024   0.00000   0.00062   0.00046   2.11778
   A39        2.03458  -0.00031   0.00000  -0.00129  -0.00139   2.03319
   A40        2.07764  -0.00028   0.00000  -0.00271  -0.00259   2.07505
   A41        2.11750   0.00101   0.00000   0.00553   0.00527   2.12276
   A42        2.08785  -0.00073   0.00000  -0.00263  -0.00253   2.08532
   A43        2.06973   0.00065   0.00000   0.00328   0.00321   2.07295
   A44        2.06644  -0.00103   0.00000  -0.00832  -0.00833   2.05811
   A45        2.14700   0.00038   0.00000   0.00498   0.00497   2.15196
   A46        1.88439   0.00031   0.00000   0.00135   0.00133   1.88571
   A47        2.27857  -0.00016   0.00000  -0.00018  -0.00014   2.27844
   A48        2.11958  -0.00015   0.00000  -0.00107  -0.00109   2.11848
   A49        2.07150   0.00019   0.00000   0.00457   0.00447   2.07597
   A50        2.13686   0.00067   0.00000  -0.00104  -0.00088   2.13598
   A51        2.07434  -0.00088   0.00000  -0.00384  -0.00395   2.07039
   A52        2.14661  -0.00048   0.00000  -0.00691  -0.00684   2.13977
   A53        2.05064   0.00018   0.00000   0.00578   0.00471   2.05535
   A54        1.65926  -0.00006   0.00000  -0.02593  -0.02622   1.63304
   A55        2.05397   0.00024   0.00000   0.00328   0.00423   2.05820
   A56        1.52556   0.00147   0.00000   0.06912   0.06937   1.59494
   A57        1.76877  -0.00125   0.00000  -0.05345  -0.05339   1.71537
   A58        1.98949   0.00104   0.00000   0.01152   0.01124   2.00073
   A59        1.90592   0.00031   0.00000   0.02927   0.02813   1.93405
   A60        1.90377   0.00036   0.00000   0.02873   0.02758   1.93135
   A61        2.14201  -0.00180   0.00000  -0.01188  -0.01212   2.12989
   A62        2.06368   0.00049   0.00000   0.00145   0.00054   2.06421
   A63        2.07676   0.00127   0.00000   0.00796   0.00701   2.08378
   A64        2.07797   0.00015   0.00000  -0.00361  -0.00387   2.07410
   A65        1.90761  -0.00590   0.00000  -0.02858  -0.02876   1.87885
   A66        1.91489  -0.00423   0.00000  -0.01216  -0.01230   1.90259
   A67        1.79491  -0.00364   0.00000  -0.00154  -0.00159   1.79332
   A68        1.94962   0.00496   0.00000   0.01652   0.01624   1.96586
   A69        1.94819   0.00399   0.00000   0.01307   0.01297   1.96116
   A70        1.94220   0.00367   0.00000   0.00949   0.00947   1.95167
    D1       -1.07731  -0.00002   0.00000  -0.00471  -0.00467  -1.08198
    D2        1.12347  -0.00018   0.00000  -0.00804  -0.00805   1.11542
    D3       -2.97303  -0.00001   0.00000  -0.00200  -0.00199  -2.97502
    D4        1.02785   0.00019   0.00000  -0.00157  -0.00146   1.02639
    D5       -3.05455   0.00003   0.00000  -0.00491  -0.00485  -3.05940
    D6       -0.86787   0.00020   0.00000   0.00113   0.00121  -0.86666
    D7       -3.12913   0.00012   0.00000   0.00376   0.00382  -3.12532
    D8       -0.92835  -0.00004   0.00000   0.00043   0.00044  -0.92791
    D9        1.25833   0.00013   0.00000   0.00646   0.00650   1.26483
   D10       -0.75005  -0.00065   0.00000  -0.00745  -0.00760  -0.75765
   D11        1.38385   0.00077   0.00000   0.05959   0.05976   1.44360
   D12        1.33866  -0.00046   0.00000  -0.00805  -0.00817   1.33049
   D13       -2.81063   0.00095   0.00000   0.05899   0.05918  -2.75145
   D14       -2.89841  -0.00095   0.00000  -0.01277  -0.01291  -2.91131
   D15       -0.76451   0.00047   0.00000   0.05427   0.05445  -0.71006
   D16       -1.23010   0.00029   0.00000   0.00321   0.00324  -1.22686
   D17        2.99662   0.00013   0.00000   0.00129   0.00129   2.99792
   D18        0.85648   0.00026   0.00000   0.00771   0.00771   0.86419
   D19        2.90159   0.00011   0.00000   0.00363   0.00366   2.90525
   D20        0.84513  -0.00005   0.00000   0.00171   0.00172   0.84685
   D21       -1.29502   0.00009   0.00000   0.00813   0.00814  -1.28688
   D22        0.75817   0.00006   0.00000  -0.00016  -0.00014   0.75804
   D23       -1.29829  -0.00010   0.00000  -0.00208  -0.00208  -1.30037
   D24        2.84475   0.00003   0.00000   0.00434   0.00434   2.84909
   D25       -1.61138  -0.00012   0.00000  -0.00762  -0.00765  -1.61903
   D26        1.49034  -0.00010   0.00000  -0.00340  -0.00344   1.48690
   D27        2.69962  -0.00026   0.00000  -0.00466  -0.00467   2.69495
   D28       -0.48184  -0.00025   0.00000  -0.00043  -0.00046  -0.48230
   D29        0.54043   0.00005   0.00000  -0.00312  -0.00311   0.53733
   D30       -2.64103   0.00007   0.00000   0.00111   0.00110  -2.63993
   D31        1.07290  -0.00008   0.00000   0.00226   0.00223   1.07513
   D32       -1.03258  -0.00023   0.00000  -0.00016  -0.00027  -1.03284
   D33        3.12687  -0.00017   0.00000  -0.00378  -0.00382   3.12304
   D34       -1.12563   0.00013   0.00000   0.00598   0.00598  -1.11965
   D35        3.05208  -0.00001   0.00000   0.00356   0.00348   3.05556
   D36        0.92834   0.00004   0.00000  -0.00006  -0.00007   0.92827
   D37        2.97044  -0.00003   0.00000   0.00108   0.00106   2.97150
   D38        0.86496  -0.00018   0.00000  -0.00134  -0.00143   0.86353
   D39       -1.25878  -0.00012   0.00000  -0.00495  -0.00499  -1.26377
   D40        1.23340  -0.00010   0.00000   0.00040   0.00036   1.23376
   D41       -2.99343   0.00001   0.00000   0.00286   0.00285  -2.99058
   D42       -0.85201  -0.00014   0.00000  -0.00354  -0.00355  -0.85556
   D43       -2.89895   0.00003   0.00000   0.00238   0.00233  -2.89662
   D44       -0.84260   0.00015   0.00000   0.00484   0.00482  -0.83778
   D45        1.29883  -0.00001   0.00000  -0.00157  -0.00158   1.29725
   D46       -0.75833   0.00000   0.00000   0.00103   0.00102  -0.75731
   D47        1.29803   0.00012   0.00000   0.00349   0.00351   1.30153
   D48       -2.84373  -0.00004   0.00000  -0.00291  -0.00290  -2.84663
   D49       -1.49166  -0.00010   0.00000  -0.00140  -0.00137  -1.49303
   D50        1.61083  -0.00004   0.00000   0.00168   0.00169   1.61252
   D51        0.48187   0.00031   0.00000  -0.00037  -0.00037   0.48150
   D52       -2.69883   0.00037   0.00000   0.00271   0.00269  -2.69613
   D53        2.63789  -0.00018   0.00000  -0.00718  -0.00719   2.63070
   D54       -0.54281  -0.00012   0.00000  -0.00410  -0.00413  -0.54694
   D55        0.75204   0.00057   0.00000   0.00694   0.00709   0.75913
   D56       -1.38304  -0.00081   0.00000  -0.06033  -0.06048  -1.44352
   D57       -1.33922   0.00032   0.00000   0.00529   0.00541  -1.33381
   D58        2.80888  -0.00106   0.00000  -0.06198  -0.06216   2.74672
   D59        2.89847   0.00086   0.00000   0.01078   0.01091   2.90938
   D60        0.76339  -0.00053   0.00000  -0.05649  -0.05666   0.70673
   D61        3.11109   0.00020   0.00000   0.01302   0.01300   3.12409
   D62       -0.04184  -0.00017   0.00000  -0.00367  -0.00356  -0.04540
   D63        0.01404   0.00016   0.00000   0.00819   0.00819   0.02223
   D64       -3.13889  -0.00021   0.00000  -0.00850  -0.00837   3.13593
   D65        0.00004  -0.00001   0.00000   0.00062   0.00064   0.00068
   D66       -3.10672  -0.00005   0.00000  -0.00214  -0.00211  -3.10883
   D67        3.10582   0.00004   0.00000   0.00454   0.00454   3.11036
   D68       -0.00095  -0.00001   0.00000   0.00178   0.00179   0.00084
   D69       -0.01392  -0.00016   0.00000  -0.01130  -0.01132  -0.02524
   D70       -3.13409  -0.00075   0.00000  -0.04099  -0.04099   3.10811
   D71        3.13864   0.00021   0.00000   0.00503   0.00514  -3.13941
   D72        0.01847  -0.00037   0.00000  -0.02467  -0.02453  -0.00606
   D73        0.00077   0.00003   0.00000   0.00454   0.00456   0.00533
   D74       -3.11923  -0.00029   0.00000  -0.00572  -0.00574  -3.12497
   D75        3.12190   0.00059   0.00000   0.03292   0.03289  -3.12839
   D76        0.00190   0.00027   0.00000   0.02267   0.02259   0.02449
   D77       -3.07639   0.00087   0.00000   0.05503   0.05489  -3.02150
   D78        0.02360  -0.00007   0.00000  -0.01483  -0.01472   0.00889
   D79        0.08549   0.00031   0.00000   0.02688   0.02680   0.11230
   D80       -3.09770  -0.00062   0.00000  -0.04299  -0.04280  -3.14050
   D81        0.01253   0.00013   0.00000   0.00565   0.00565   0.01818
   D82       -3.13456  -0.00023   0.00000  -0.00802  -0.00796   3.14067
   D83        3.13290   0.00047   0.00000   0.01583   0.01582  -3.13446
   D84       -0.01418   0.00010   0.00000   0.00216   0.00221  -0.01197
   D85       -0.03281  -0.00056   0.00000  -0.03583  -0.03591  -0.06872
   D86        3.13050  -0.00089   0.00000  -0.04615  -0.04627   3.08423
   D87       -3.11065  -0.00020   0.00000  -0.01226  -0.01225  -3.12290
   D88       -0.01266  -0.00013   0.00000  -0.00878  -0.00879  -0.02145
   D89        0.03671   0.00018   0.00000   0.00212   0.00218   0.03889
   D90        3.13469   0.00025   0.00000   0.00560   0.00565   3.14034
   D91       -0.20942  -0.00017   0.00000   0.04640   0.04647  -0.16295
   D92       -3.07546   0.00007   0.00000   0.03673   0.03675  -3.03871
   D93        1.36484   0.00150   0.00000   0.11158   0.11163   1.47646
   D94        2.96644   0.00036   0.00000   0.05706   0.05722   3.02367
   D95        0.10040   0.00060   0.00000   0.04739   0.04750   0.14790
   D96       -1.74249   0.00203   0.00000   0.12224   0.12238  -1.62011
   D97       -0.01841   0.00010   0.00000   0.00076   0.00084  -0.01757
   D98       -3.12568   0.00062   0.00000   0.01128   0.01141  -3.11427
   D99       -0.13391  -0.00069   0.00000  -0.06030  -0.06022  -0.19414
   D100       3.04958   0.00027   0.00000   0.01022   0.01030   3.05987
   D101      -3.01486  -0.00035   0.00000  -0.06777  -0.06768  -3.08254
   D102       0.16863   0.00061   0.00000   0.00275   0.00284   0.17147
   D103       1.64434  -0.00142   0.00000  -0.11951  -0.11946   1.52487
   D104      -1.45536  -0.00046   0.00000  -0.04899  -0.04895  -1.50430
   D105      -1.53089   0.00050   0.00000   0.08085   0.08142  -1.44947
   D106       0.61240   0.00008   0.00000   0.07489   0.07558   0.68798
   D107       2.68055   0.00047   0.00000   0.07952   0.08011   2.76066
   D108       0.61415   0.00013   0.00000   0.07910   0.07936   0.69352
   D109       2.75744  -0.00029   0.00000   0.07314   0.07352   2.83096
   D110      -1.45760   0.00010   0.00000   0.07777   0.07805  -1.37955
   D111       2.66887   0.00060   0.00000   0.09357   0.09260   2.76146
   D112      -1.47104   0.00018   0.00000   0.08761   0.08676  -1.38428
   D113       0.59711   0.00057   0.00000   0.09224   0.09129   0.68840
         Item               Value     Threshold  Converged?
 Maximum Force            0.005969     0.000450     NO 
 RMS     Force            0.001371     0.000300     NO 
 Maximum Displacement     0.791598     0.001800     NO 
 RMS     Displacement     0.100758     0.001200     NO 
 Predicted change in Energy=-1.688579D-03
 GradGradGradGradGradGradGradGradGradGradGradGradGradGradGradGradGradGrad

 Leave Link  103 at Sun Nov 30 19:55:39 2025, MaxMem=   104857600 cpu:               0.0 elap:               0.0
 (Enter /home/zhouoh/g16/l202.exe)
                          Input orientation:                          
 ---------------------------------------------------------------------
 Center     Atomic      Atomic             Coordinates (Angstroms)
 Number     Number       Type             X           Y           Z
 ---------------------------------------------------------------------
      1          6           0       -3.963179   -1.103271   -0.899050
      2          6           0       -2.951427   -1.483287    0.218486
      3          6           0       -3.141022    0.658824    1.198230
      4          6           0       -4.160651    1.113515    0.121742
      5          1           0       -4.934957   -1.512425   -0.609921
      6          1           0       -5.161637    1.016843    0.550449
      7          6           0       -3.430786   -0.817528    1.521491
      8          1           0       -2.849379   -1.157847    2.379382
      9          1           0       -4.486731   -1.003232    1.719772
     10          1           0       -2.834997   -2.564674    0.273873
     11          1           0       -3.172408    1.324559    2.059278
     12          6           0       -1.667185   -0.743683   -0.024738
     13          6           0       -0.545567   -1.121901   -0.709416
     14          6           0        0.504083   -0.194749   -0.785427
     15          6           0        0.412588    1.100845   -0.208081
     16          6           0       -0.773041    1.464005    0.470309
     17          6           0       -1.779445    0.551286    0.565847
     18          1           0       -0.446931   -2.104160   -1.157590
     19          1           0       -0.825441    2.453695    0.904585
     20          6           0        2.539818    1.624851   -0.876666
     21          6           0        2.734511    0.317207   -1.381677
     22          1           0        3.356694    2.333854   -0.928915
     23          1           0        3.610901    0.036458   -1.949427
     24          7           0       -4.086750    0.330411   -1.103152
     25          1           0       -3.347330    0.673156   -1.701600
     26          1           0       -4.011680    2.162864   -0.131965
     27          1           0       -3.681732   -1.562972   -1.846579
     28          7           0        1.678623   -0.500106   -1.416030
     29          7           0        1.426172    1.994796   -0.304436
     30          6           0        3.697738   -0.460750    0.597185
     31          9           0        4.963080   -0.129244    0.579486
     32          9           0        3.056047    0.054688    1.615192
     33          9           0        3.519770   -1.762278    0.514795
     34          1           0        1.772627   -1.416631   -1.838147
 ---------------------------------------------------------------------
                    Distance matrix (angstroms):
                    1          2          3          4          5
     1  C    0.000000
     2  C    1.554651   0.000000
     3  C    2.859983   2.363151   0.000000
     4  C    2.448500   2.866176   1.550875   0.000000
     5  H    1.093322   2.149767   3.346928   2.833803   0.000000
     6  H    2.834119   3.353488   2.151903   1.093209   2.791959
     7  C    2.494816   1.539754   1.538855   2.494178   2.699690
     8  H    3.462895   2.187647   2.186428   3.460557   3.662143
     9  H    2.672515   2.200335   2.201220   2.672199   2.426448
    10  H    2.187291   1.089045   3.367346   3.912745   2.509612
    11  H    3.907861   3.364722   1.088850   2.185225   4.275474
    12  C    2.483005   1.501815   2.373788   3.112558   3.407600
    13  C    3.422920   2.603797   3.680554   4.330906   4.407851
    14  C    4.560126   3.822135   4.236775   4.928920   5.599127
    15  C    4.948020   4.263367   3.847237   4.585135   5.965475
    16  C    4.317758   3.673597   2.604903   3.423485   5.229491
    17  C    3.106795   2.373540   1.505112   2.486659   3.949505
    18  H    3.665055   2.924306   4.521293   5.077583   4.559876
    19  H    5.074496   4.526630   2.944436   3.678662   5.908634
    20  C    7.052100   6.404189   6.124568   6.793715   8.110851
    21  C    6.863654   6.175127   6.426080   7.101947   7.922367
    22  H    8.086734   7.461869   7.039232   7.687886   9.145878
    23  H    7.731040   7.076272   7.475530   8.114606   8.787776
    24  N    1.453400   2.514992   2.509704   1.455706   2.087768
    25  H    2.044273   2.914398   2.907195   2.044501   2.913604
    26  H    3.355355   3.813315   2.188516   1.089813   3.819506
    27  H    1.090115   2.191846   3.807835   3.356671   1.761378
    28  N    5.697457   5.007559   5.604146   6.250252   6.738994
    29  N    6.244734   5.615504   4.990199   5.671939   7.270343
    30  C    7.832063   6.737981   6.955813   8.028614   8.779895
    31  F    9.100159   8.037609   8.165804   9.219352  10.064741
    32  F    7.545318   6.356564   6.240393   7.445284   8.441749
    33  F    7.643806   6.483982   7.120039   8.210575   8.532867
    34  H    5.820617   5.152753   6.137674   6.741410   6.819780
                    6          7          8          9         10
     6  H    0.000000
     7  C    2.702533   0.000000
     8  H    3.663442   1.090792   0.000000
     9  H    2.429716   1.090331   1.771980   0.000000
    10  H    4.279838   2.228011   2.532298   2.693872   0.000000
    11  H    2.515609   2.223626   2.523719   2.694684   4.292744
    12  C    3.954932   2.346607   2.710887   3.325736   2.183795
    13  C    5.241144   3.659792   3.853507   4.631178   2.879226
    14  C    5.945830   4.603576   4.710550   5.642507   4.229434
    15  C    5.626225   4.630669   4.736780   5.669840   4.920886
    16  C    4.412046   3.657046   3.850954   4.630325   4.529956
    17  C    3.414118   2.348156   2.711974   3.328283   3.302824
    18  H    5.906481   4.211447   4.379205   5.080476   2.822060
    19  H    4.581763   4.227209   4.394836   5.100973   5.442438
    20  C    7.856127   6.882185   6.883945   7.938557   6.911186
    21  C    8.159152   6.908466   6.892110   7.969246   6.485793
    22  H    8.745570   7.874363   7.851888   8.925862   7.986195
    23  H    9.174310   7.896957   7.867667   8.950734   7.297847
    24  N    2.088292   2.938843   3.984223   3.147616   3.441598
    25  H    2.912311   3.552101   4.500549   3.976720   3.827339
    26  H    1.761095   3.457469   4.322606   3.698482   4.888650
    27  H    3.819857   3.458693   4.326163   3.698674   2.493328
    28  N    7.277179   5.902190   5.944795   6.935271   5.243185
    29  N    6.714645   5.901968   5.951671   6.931668   6.267438
    30  C    8.981870   7.197047   6.821064   8.278891   6.870783
    31  F   10.189419   8.474556   8.082832   9.558401   8.175250
    32  F    8.342048   6.545881   6.076865   7.617325   6.585180
    33  F    9.115460   7.086340   6.663939   8.132169   6.409754
    34  H    7.727303   6.222669   6.262385   7.211744   5.197003
                   11         12         13         14         15
    11  H    0.000000
    12  C    3.299461   0.000000
    13  C    4.533335   1.367428   0.000000
    14  C    4.890524   2.365244   1.402553   0.000000
    15  C    4.247724   2.785921   2.471841   1.421360   0.000000
    16  C    2.881185   2.432787   2.851387   2.441184   1.413440
    17  C    2.183720   1.427704   2.438915   2.756267   2.388721
    18  H    5.434389   2.150179   1.084168   2.165359   3.451434
    19  H    2.848950   3.434443   3.932965   3.411455   2.144981
    20  C    6.429577   4.902510   4.134273   2.731938   2.290566
    21  C    6.909893   4.726701   3.644432   2.364831   2.717121
    22  H    7.251010   5.960548   5.217094   3.814684   3.272258
    23  H    7.983872   5.671970   4.489505   3.325760   3.793997
    24  N    3.438795   2.858487   3.847624   4.631683   4.651748
    25  H    3.820881   2.764451   3.472252   4.052902   4.068231
    26  H    2.491722   3.735795   4.810100   5.135899   4.550584
    27  H    4.883950   2.837030   3.364998   4.529804   5.152092
    28  N    6.240166   3.631729   2.415151   1.367644   2.371715
    29  N    5.213761   4.140816   3.710198   2.423986   1.354912
    30  C    7.247341   5.408257   4.488871   3.490245   3.725486
    31  F    8.395802   6.686033   5.743851   4.663682   4.779159
    32  F    6.372083   5.063170   4.445199   3.512508   3.377373
    33  F    7.529889   5.313485   4.293686   3.638968   4.286560
    34  H    6.867126   3.946343   2.595174   2.051931   3.293100
                   16         17         18         19         20
    16  C    0.000000
    17  C    1.361996   0.000000
    18  H    3.935505   3.434708   0.000000
    19  H    1.082047   2.155000   5.016958   0.000000
    20  C    3.579839   4.678612   4.785927   3.896768   0.000000
    21  C    4.128913   4.921732   4.004348   4.739708   1.415229
    22  H    4.446254   5.638421   5.849429   4.567969   1.082914
    23  H    5.206915   5.970552   4.655669   5.802547   2.195684
    24  N    3.839464   2.856221   4.379313   4.378981   6.755610
    25  H    3.459711   2.759426   4.052376   4.040105   6.020361
    26  H    3.367480   2.840245   5.653922   3.363203   6.615599
    27  H    4.794898   3.729421   3.351348   5.644547   7.057664
    28  N    3.664241   4.122075   2.675399   4.514480   2.355421
    29  N    2.391341   3.621754   4.586701   2.596552   1.305569
    30  C    4.869152   5.569985   4.791483   5.389585   2.804058
    31  F    5.954279   6.776795   6.015475   6.346986   3.327075
    32  F    4.237788   4.972899   4.961834   4.618024   2.990194
    33  F    5.370205   5.782462   4.318387   6.066895   3.790660
    34  H    4.484135   4.719015   2.421217   5.408508   3.280798
                   21         22         23         24         25
    21  C    0.000000
    22  H    2.158465   0.000000
    23  H    1.081305   2.526676   0.000000
    24  N    6.826958   7.710318   7.749608   0.000000
    25  H    6.100643   6.949741   6.991694   1.011117   0.000000
    26  H    7.104880   7.413319   8.119637   2.075264   2.263701
    27  H    6.702192   8.097333   7.466676   2.074035   2.265637
    28  N    1.335695   3.329344   2.075117   5.833282   5.168975
    29  N    2.384639   2.057145   3.363647   5.813815   5.146370
    30  C    2.334291   3.202359   2.596149   8.007205   7.496876
    31  F    3.001999   3.304936   2.872499   9.216397   8.655063
    32  F    3.025479   3.428917   3.607590   7.647547   7.237877
    33  F    2.921899   4.346169   3.052237   8.053337   7.615826
    34  H    2.034645   4.171583   2.345869   6.158302   5.531710
                   26         27         28         29         30
    26  H    0.000000
    27  H    4.114683   0.000000
    28  N    6.412470   5.481648   0.000000
    29  N    5.443182   6.413003   2.742974   0.000000
    30  C    8.176193   7.851335   2.851563   3.464482   0.000000
    31  F    9.290114   9.092532   3.860995   4.219310   1.308166
    32  F    7.579560   7.745861   3.375412   3.178913   1.309115
    33  F    8.517497   7.581387   2.951438   4.378344   1.316220
    34  H    7.012991   5.456329   1.013429   3.756346   3.248169
                   31         32         33         34
    31  F    0.000000
    32  F    2.177910   0.000000
    33  F    2.180396   2.174230   0.000000
    34  H    4.204914   3.967052   2.950985   0.000000
 Stoichiometry    C14H14F3N3(1+,2)
 Framework group  C1[X(C14H14F3N3)]
 Deg. of freedom    96
 Full point group                 C1      NOp   1
 RotChk:  IX=0 Diff= 1.47D-01
 Largest Abelian subgroup         C1      NOp   1
 Largest concise Abelian subgroup C1      NOp   1
                         Standard orientation:                         
 ---------------------------------------------------------------------
 Center     Atomic      Atomic             Coordinates (Angstroms)
 Number     Number       Type             X           Y           Z
 ---------------------------------------------------------------------
      1          6           0       -3.937826   -0.986621   -0.996332
      2          6           0       -2.922975   -1.485147    0.070669
      3          6           0       -3.096391    0.545059    1.267612
      4          6           0       -4.118522    1.113653    0.249200
      5          1           0       -4.910458   -1.418697   -0.746030
      6          1           0       -5.118018    0.978088    0.670790
      7          6           0       -3.392662   -0.955364    1.437990
      8          1           0       -2.809136   -1.385436    2.253075
      9          1           0       -4.448668   -1.155382    1.621472
     10          1           0       -2.812162   -2.567022    0.013347
     11          1           0       -3.120167    1.118323    2.193030
     12          6           0       -1.635880   -0.730681   -0.101426
     13          6           0       -0.519522   -1.041574   -0.827337
     14          6           0        0.534781   -0.116707   -0.812512
     15          6           0        0.453001    1.112665   -0.103838
     16          6           0       -0.727478    1.409546    0.614594
     17          6           0       -1.738368    0.496803    0.620459
     18          1           0       -0.428299   -1.972689   -1.375174
     19          1           0       -0.772489    2.349262    1.149136
     20          6           0        2.579918    1.692534   -0.725664
     21          6           0        2.765165    0.443189   -1.364173
     22          1           0        3.400380    2.399113   -0.708556
     23          1           0        3.637374    0.218355   -1.962438
     24          7           0       -4.054558    0.461072   -1.050463
     25          1           0       -3.316074    0.860229   -1.614087
     26          1           0       -3.965035    2.182868    0.104581
     27          1           0       -3.663278   -1.347243   -1.987758
     28          7           0        1.704708   -0.360984   -1.477381
     29          7           0        1.470965    2.006791   -0.112494
     30          6           0        3.733328   -0.539978    0.518633
     31          9           0        5.000355   -0.214648    0.528754
     32          9           0        3.099176   -0.129436    1.587786
     33          9           0        3.547917   -1.825115    0.303037
     34          1           0        1.791776   -1.229391   -1.992479
 ---------------------------------------------------------------------
 Rotational constants (GHZ):           0.8718159           0.1822199           0.1766654
 Leave Link  202 at Sun Nov 30 19:55:39 2025, MaxMem=   104857600 cpu:               0.0 elap:               0.0
 (Enter /home/zhouoh/g16/l301.exe)
 Standard basis: STO-3G (5D, 7F)
 Ernie: Thresh=  0.10000D-02 Tol=  0.10000D-05 Strict=F.
 There are   114 symmetry adapted cartesian basis functions of A   symmetry.
 There are   114 symmetry adapted basis functions of A   symmetry.
   114 basis functions,   342 primitive gaussians,   114 cartesian basis functions
    73 alpha electrons       72 beta electrons
       nuclear repulsion energy      1610.0591605790 Hartrees.
 IExCor=    0 DFT=F Ex=HF Corr=None ExCW=0 ScaHFX=  1.000000
 ScaDFX=  1.000000  1.000000  1.000000  1.000000 ScalE2=  1.000000  1.000000
 IRadAn=      5 IRanWt=     -1 IRanGd=            0 ICorTp=0 IEmpDi=  4
 NAtoms=   34 NActive=   34 NUniq=   34 SFac= 1.00D+00 NAtFMM=   60 NAOKFM=F Big=F
 Integral buffers will be    131072 words long.
 Raffenetti 2 integral format.
 Two-electron integral symmetry is turned on.
 Leave Link  301 at Sun Nov 30 19:55:40 2025, MaxMem=   104857600 cpu:               0.0 elap:               0.0
 (Enter /home/zhouoh/g16/l402.exe)
 External calculation of energy, first and second derivatives.
 Running external command "python ../GauUMA_client.py R"
         input file       "/home/zhouoh/scratch/Gau-2679020.EIn"
         output file      "/home/zhouoh/scratch/Gau-2679020.EOu"
         message file     "/home/zhouoh/scratch/Gau-2679020.EMs"
         fchk file        "/home/zhouoh/scratch/Gau-2679020.EFC"
         mat. el file     "/home/zhouoh/scratch/Gau-2679020.EUF"
Sent job to server.
Received result from server:
SCF Done:  E(UMA) =  -1005.4620816880664     A.U.
 Recovered energy= -1005.46208169     dipole=      0.000000000000      0.000000000000      0.000000000000
 Energy=    -1005.46208     NIter=   0.
 Dipole moment=       0.000000       0.000000       0.000000
 Leave Link  402 at Sun Nov 30 19:55:46 2025, MaxMem=   104857600 cpu:               0.0 elap:               6.6
 (Enter /home/zhouoh/g16/l716.exe)
 Dipole        = 0.00000000D+00 0.00000000D+00 0.00000000D+00
 ***** Axes restored to original set *****
 -------------------------------------------------------------------
 Center     Atomic                   Forces (Hartrees/Bohr)
 Number     Number              X              Y              Z
 -------------------------------------------------------------------
      1        6          -0.000283071   -0.000094629   -0.000089297
      2        6           0.000039934   -0.000049102    0.000019613
      3        6          -0.000032237   -0.000012378   -0.000001781
      4        6          -0.000295033    0.000091003    0.000059574
      5        1          -0.000011916   -0.000081107   -0.000087350
      6        1          -0.000032173    0.000124266   -0.000010891
      7        6          -0.000006840    0.000019513   -0.000024202
      8        1          -0.000030803   -0.000004596    0.000019437
      9        1           0.000012847   -0.000027921    0.000042490
     10        1          -0.000052951    0.000000038   -0.000009108
     11        1           0.000002160   -0.000008764    0.000019400
     12        6           0.000005542   -0.000148966   -0.000073199
     13        6          -0.000051263   -0.000144426    0.000046649
     14        6           0.000033755   -0.000061120   -0.000000024
     15        6          -0.000177779    0.000099809    0.000046766
     16        6          -0.000020212    0.000030596   -0.000006384
     17        6          -0.000561441    0.000153321    0.000063867
     18        1          -0.000044672   -0.000005641    0.000006576
     19        1          -0.000027346    0.000015931    0.000005665
     20        6           0.000374829    0.000275911    0.000015738
     21        6           0.000333646   -0.000157574    0.000401397
     22        1          -0.000113123    0.000113804   -0.000251755
     23        1          -0.000208420   -0.000304908   -0.000138443
     24        7           0.001132904   -0.000182253    0.000639251
     25        1          -0.000471367    0.000243274   -0.000599919
     26        1           0.000042360    0.000004795    0.000027995
     27        1           0.000040872   -0.000017833    0.000026730
     28        7          -0.000276668    0.000287240   -0.000516448
     29        7           0.000160796    0.000113762    0.000021920
     30        6           0.000063477   -0.000022079   -0.000064855
     31        9           0.000049480    0.000260288    0.000140388
     32        9           0.000099357   -0.000245153    0.000340577
     33        9           0.000303725   -0.000124738   -0.000050040
     34        1           0.000001631   -0.000140362   -0.000020336
 -------------------------------------------------------------------
 Cartesian Forces:  Max     0.001132904 RMS     0.000214680
 FormGI is forming the generalized inverse of G from B-inverse, IUseBI=4.
 Leave Link  716 at Sun Nov 30 19:55:46 2025, MaxMem=   104857600 cpu:               0.0 elap:               0.0
 (Enter /home/zhouoh/g16/l103.exe)

 GradGradGradGradGradGradGradGradGradGradGradGradGradGradGradGradGradGrad
 Berny optimization.
 Red2BG is reusing G-inverse.
 Internal  Forces:  Max     0.000736257 RMS     0.000154635
 Search for a saddle point.
 Step number   2 out of a maximum of  204
 All quantities printed in internal units (Hartrees-Bohrs-Radians)
 Swapping is turned off.
 Second derivative matrix not updated -- analytic derivatives used.
 ITU=  0  0
     Eigenvalues ---   -0.01763   0.00049   0.00396   0.00814   0.00934
     Eigenvalues ---    0.01102   0.01165   0.01214   0.01281   0.01489
     Eigenvalues ---    0.01561   0.01668   0.01760   0.02027   0.02111
     Eigenvalues ---    0.02327   0.02369   0.02606   0.02672   0.02851
     Eigenvalues ---    0.03065   0.03175   0.03269   0.03465   0.03654
     Eigenvalues ---    0.03803   0.04103   0.04333   0.04370   0.04781
     Eigenvalues ---    0.05134   0.05150   0.05619   0.05809   0.06553
     Eigenvalues ---    0.06760   0.06839   0.07866   0.08042   0.08323
     Eigenvalues ---    0.08774   0.09235   0.09444   0.10505   0.10651
     Eigenvalues ---    0.11353   0.12154   0.12618   0.13205   0.13996
     Eigenvalues ---    0.14296   0.14551   0.15879   0.18188   0.18330
     Eigenvalues ---    0.19543   0.19778   0.20504   0.20889   0.22129
     Eigenvalues ---    0.23143   0.23403   0.24275   0.24623   0.24692
     Eigenvalues ---    0.25863   0.29049   0.29969   0.31313   0.31603
     Eigenvalues ---    0.33444   0.33475   0.33714   0.34333   0.34415
     Eigenvalues ---    0.34494   0.34509   0.34871   0.35577   0.36200
     Eigenvalues ---    0.36330   0.36659   0.36811   0.37134   0.38515
     Eigenvalues ---    0.40104   0.40358   0.41943   0.43884   0.45077
     Eigenvalues ---    0.45090   0.49628   0.52157   0.53240   0.57924
     Eigenvalues ---    0.58616
 Eigenvectors required to have negative eigenvalues:
                          R32      D102       D91       A57       D94
   1                   -0.92243   0.13376  -0.13083   0.11657  -0.10747
                          D95       D99      D101       D92       D93
   1                    0.10670  -0.10658   0.09942   0.08334  -0.07705
 RFO step:  Lambda0=8.101505888D-07 Lambda=-4.08295032D-04.
 Linear search not attempted -- option 19 set.
 Iteration  1 RMS(Cart)=  0.05358502 RMS(Int)=  0.00461145
 Iteration  2 RMS(Cart)=  0.00485314 RMS(Int)=  0.00002972
 Iteration  3 RMS(Cart)=  0.00002939 RMS(Int)=  0.00002328
 Iteration  4 RMS(Cart)=  0.00000000 RMS(Int)=  0.00002328
 ITry= 1 IFail=0 DXMaxC= 4.78D-01 DCOld= 1.00D+10 DXMaxT= 3.00D-01 DXLimC= 3.00D+00 Rises=F
 Variable       Old X    -DE/DX   Delta X   Delta X   Delta X     New X
                                 (Linear)    (Quad)   (Total)
    R1        2.93787   0.00001   0.00000   0.00015   0.00015   2.93802
    R2        2.06608   0.00002   0.00000   0.00029   0.00029   2.06637
    R3        2.74653   0.00014   0.00000  -0.00169  -0.00167   2.74485
    R4        2.06002  -0.00001   0.00000  -0.00004  -0.00004   2.05998
    R5        2.90971   0.00009   0.00000   0.00007   0.00005   2.90976
    R6        2.05800  -0.00001   0.00000  -0.00002  -0.00002   2.05798
    R7        2.83802   0.00001   0.00000  -0.00046  -0.00046   2.83756
    R8        2.93073  -0.00004   0.00000  -0.00057  -0.00057   2.93016
    R9        2.90801   0.00008   0.00000   0.00021   0.00018   2.90820
   R10        2.05763   0.00001   0.00000   0.00003   0.00003   2.05766
   R11        2.84425  -0.00005   0.00000  -0.00026  -0.00026   2.84399
   R12        2.06587   0.00001   0.00000   0.00026   0.00026   2.06612
   R13        2.75088   0.00012   0.00000  -0.00154  -0.00152   2.74936
   R14        2.05945   0.00000   0.00000  -0.00001  -0.00001   2.05944
   R15        2.06130   0.00000   0.00000  -0.00000  -0.00000   2.06130
   R16        2.06043   0.00000   0.00000   0.00006   0.00006   2.06049
   R17        2.58406   0.00015   0.00000   0.00043   0.00043   2.58449
   R18        2.69797   0.00020   0.00000   0.00041   0.00042   2.69839
   R19        2.65044   0.00027   0.00000  -0.00028  -0.00028   2.65016
   R20        2.04878  -0.00000   0.00000   0.00002   0.00002   2.04880
   R21        2.68598   0.00022   0.00000   0.00043   0.00043   2.68641
   R22        2.58447   0.00036   0.00000   0.00116   0.00116   2.58563
   R23        2.67102   0.00033   0.00000   0.00069   0.00069   2.67170
   R24        2.56041   0.00039   0.00000  -0.00047  -0.00047   2.55994
   R25        2.57380   0.00027   0.00000   0.00030   0.00030   2.57410
   R26        2.04477   0.00002   0.00000   0.00006   0.00006   2.04483
   R27        2.67440   0.00031   0.00000  -0.00090  -0.00090   2.67350
   R28        2.04641   0.00000   0.00000  -0.00015  -0.00015   2.04626
   R29        2.46717   0.00025   0.00000   0.00144   0.00144   2.46861
   R30        2.04337  -0.00002   0.00000  -0.00011  -0.00011   2.04326
   R31        2.52410   0.00040   0.00000  -0.00120  -0.00120   2.52290
   R32        4.41117   0.00057   0.00000   0.02842   0.02842   4.43959
   R33        1.91073   0.00009   0.00000  -0.00127  -0.00127   1.90946
   R34        1.91510   0.00014   0.00000   0.00058   0.00058   1.91569
   R35        2.47208   0.00011   0.00000  -0.00104  -0.00104   2.47103
   R36        2.47387   0.00012   0.00000   0.00288   0.00288   2.47674
   R37        2.48730   0.00009   0.00000   0.00038   0.00038   2.48768
    A1        1.87221   0.00001   0.00000  -0.00036  -0.00037   1.87184
    A2        1.97948  -0.00009   0.00000  -0.00084  -0.00084   1.97864
    A3        1.93233   0.00002   0.00000  -0.00058  -0.00057   1.93176
    A4        1.90786   0.00006   0.00000   0.00201   0.00202   1.90988
    A5        1.87709  -0.00004   0.00000  -0.00061  -0.00061   1.87648
    A6        1.89217   0.00004   0.00000   0.00042   0.00040   1.89257
    A7        1.87550   0.00001   0.00000  -0.00009  -0.00010   1.87540
    A8        1.92714  -0.00001   0.00000  -0.00027  -0.00026   1.92688
    A9        1.89622  -0.00003   0.00000  -0.00084  -0.00084   1.89538
   A10        2.00378  -0.00000   0.00000  -0.00002  -0.00003   2.00375
   A11        1.76230   0.00001   0.00000   0.00042   0.00042   1.76272
   A12        1.98868   0.00002   0.00000   0.00077   0.00077   1.98945
   A13        1.87894   0.00005   0.00000   0.00034   0.00034   1.87927
   A14        1.92910  -0.00002   0.00000   0.00044   0.00045   1.92955
   A15        1.90082  -0.00004   0.00000  -0.00087  -0.00087   1.89995
   A16        1.99878  -0.00000   0.00000  -0.00046  -0.00046   1.99831
   A17        1.76202  -0.00002   0.00000   0.00041   0.00041   1.76243
   A18        1.98451   0.00003   0.00000   0.00009   0.00009   1.98461
   A19        1.87954   0.00002   0.00000   0.00049   0.00049   1.88003
   A20        1.97465  -0.00010   0.00000  -0.00171  -0.00170   1.97295
   A21        1.93266   0.00003   0.00000  -0.00053  -0.00052   1.93214
   A22        1.90592   0.00007   0.00000   0.00205   0.00206   1.90798
   A23        1.87717  -0.00004   0.00000  -0.00057  -0.00057   1.87660
   A24        1.89142   0.00003   0.00000   0.00034   0.00032   1.89174
   A25        1.75019   0.00003   0.00000   0.00066   0.00066   1.75085
   A26        1.94413  -0.00001   0.00000  -0.00011  -0.00011   1.94402
   A27        1.96249   0.00001   0.00000   0.00010   0.00009   1.96258
   A28        1.94354   0.00001   0.00000  -0.00011  -0.00011   1.94343
   A29        1.96488  -0.00001   0.00000   0.00016   0.00015   1.96504
   A30        1.89657  -0.00002   0.00000  -0.00060  -0.00060   1.89597
   A31        2.27350  -0.00002   0.00000  -0.00062  -0.00061   2.27289
   A32        1.88857  -0.00006   0.00000  -0.00007  -0.00008   1.88849
   A33        2.12057   0.00007   0.00000   0.00066   0.00066   2.12123
   A34        2.04671   0.00009   0.00000  -0.00015  -0.00015   2.04656
   A35        2.13199  -0.00009   0.00000  -0.00060  -0.00060   2.13139
   A36        2.10414  -0.00000   0.00000   0.00082   0.00082   2.10497
   A37        2.13219  -0.00010   0.00000   0.00006   0.00006   2.13225
   A38        2.11778   0.00008   0.00000   0.00048   0.00048   2.11826
   A39        2.03319   0.00002   0.00000  -0.00051  -0.00052   2.03266
   A40        2.07505  -0.00003   0.00000  -0.00009  -0.00009   2.07496
   A41        2.12276  -0.00015   0.00000  -0.00097  -0.00098   2.12179
   A42        2.08532   0.00018   0.00000   0.00105   0.00105   2.08637
   A43        2.07295   0.00011   0.00000   0.00037   0.00036   2.07331
   A44        2.05811  -0.00003   0.00000  -0.00004  -0.00004   2.05807
   A45        2.15196  -0.00008   0.00000  -0.00030  -0.00030   2.15167
   A46        1.88571   0.00006   0.00000   0.00053   0.00053   1.88624
   A47        2.27844   0.00010   0.00000   0.00025   0.00025   2.27869
   A48        2.11848  -0.00015   0.00000  -0.00076  -0.00076   2.11772
   A49        2.07597   0.00004   0.00000   0.00111   0.00111   2.07707
   A50        2.13598  -0.00002   0.00000  -0.00072  -0.00073   2.13524
   A51        2.07039  -0.00001   0.00000  -0.00007  -0.00008   2.07031
   A52        2.13977   0.00010   0.00000   0.00323   0.00320   2.14297
   A53        2.05535  -0.00015   0.00000   0.00038   0.00037   2.05571
   A54        1.63304   0.00015   0.00000  -0.00069  -0.00069   1.63235
   A55        2.05820  -0.00004   0.00000  -0.00179  -0.00178   2.05642
   A56        1.59494  -0.00040   0.00000  -0.01145  -0.01144   1.58349
   A57        1.71537   0.00063   0.00000   0.00563   0.00563   1.72100
   A58        2.00073   0.00007   0.00000   0.00626   0.00622   2.00694
   A59        1.93405   0.00013   0.00000   0.01000   0.00980   1.94386
   A60        1.93135   0.00013   0.00000   0.00989   0.00969   1.94104
   A61        2.12989   0.00011   0.00000   0.00217   0.00214   2.13203
   A62        2.06421  -0.00006   0.00000  -0.00032  -0.00034   2.06388
   A63        2.08378  -0.00004   0.00000  -0.00077  -0.00078   2.08299
   A64        2.07410   0.00018   0.00000   0.00189   0.00188   2.07599
   A65        1.87885  -0.00015   0.00000   0.01836   0.01837   1.89723
   A66        1.90259   0.00074   0.00000  -0.01212  -0.01213   1.89046
   A67        1.79332   0.00013   0.00000  -0.00421  -0.00426   1.78906
   A68        1.96586  -0.00032   0.00000  -0.00179  -0.00174   1.96413
   A69        1.96116  -0.00010   0.00000   0.00172   0.00169   1.96285
   A70        1.95167  -0.00021   0.00000  -0.00179  -0.00187   1.94980
    D1       -1.08198  -0.00002   0.00000  -0.00690  -0.00688  -1.08886
    D2        1.11542  -0.00002   0.00000  -0.00716  -0.00716   1.10826
    D3       -2.97502  -0.00003   0.00000  -0.00696  -0.00695  -2.98197
    D4        1.02639   0.00000   0.00000  -0.00515  -0.00513   1.02126
    D5       -3.05940   0.00000   0.00000  -0.00542  -0.00540  -3.06480
    D6       -0.86666   0.00000   0.00000  -0.00522  -0.00520  -0.87185
    D7       -3.12532   0.00000   0.00000  -0.00564  -0.00563  -3.13094
    D8       -0.92791   0.00001   0.00000  -0.00591  -0.00590  -0.93382
    D9        1.26483   0.00000   0.00000  -0.00571  -0.00570   1.25913
   D10       -0.75765  -0.00012   0.00000   0.00639   0.00638  -0.75127
   D11        1.44360   0.00024   0.00000   0.03337   0.03340   1.47700
   D12        1.33049  -0.00012   0.00000   0.00678   0.00677   1.33726
   D13       -2.75145   0.00023   0.00000   0.03376   0.03379  -2.71766
   D14       -2.91131  -0.00011   0.00000   0.00740   0.00739  -2.90393
   D15       -0.71006   0.00024   0.00000   0.03438   0.03441  -0.67565
   D16       -1.22686   0.00003   0.00000  -0.00053  -0.00053  -1.22739
   D17        2.99792   0.00001   0.00000  -0.00072  -0.00071   2.99720
   D18        0.86419   0.00004   0.00000   0.00008   0.00008   0.86427
   D19        2.90525   0.00003   0.00000  -0.00010  -0.00009   2.90516
   D20        0.84685   0.00001   0.00000  -0.00028  -0.00028   0.84657
   D21       -1.28688   0.00004   0.00000   0.00051   0.00051  -1.28637
   D22        0.75804  -0.00000   0.00000  -0.00131  -0.00131   0.75673
   D23       -1.30037  -0.00002   0.00000  -0.00149  -0.00150  -1.30187
   D24        2.84909   0.00001   0.00000  -0.00070  -0.00070   2.84838
   D25       -1.61903   0.00002   0.00000   0.00081   0.00081  -1.61823
   D26        1.48690   0.00001   0.00000  -0.00030  -0.00031   1.48659
   D27        2.69495   0.00002   0.00000   0.00102   0.00102   2.69598
   D28       -0.48230   0.00000   0.00000  -0.00009  -0.00009  -0.48239
   D29        0.53733   0.00000   0.00000   0.00037   0.00037   0.53769
   D30       -2.63993  -0.00001   0.00000  -0.00075  -0.00074  -2.64067
   D31        1.07513   0.00003   0.00000   0.00580   0.00579   1.08091
   D32       -1.03284  -0.00001   0.00000   0.00396   0.00393  -1.02891
   D33        3.12304   0.00000   0.00000   0.00512   0.00511   3.12815
   D34       -1.11965   0.00001   0.00000   0.00584   0.00584  -1.11381
   D35        3.05556  -0.00003   0.00000   0.00400   0.00399   3.05955
   D36        0.92827  -0.00001   0.00000   0.00516   0.00516   0.93342
   D37        2.97150   0.00001   0.00000   0.00604   0.00603   2.97753
   D38        0.86353  -0.00002   0.00000   0.00420   0.00417   0.86770
   D39       -1.26377  -0.00001   0.00000   0.00535   0.00534  -1.25842
   D40        1.23376  -0.00000   0.00000   0.00168   0.00167   1.23543
   D41       -2.99058   0.00000   0.00000   0.00186   0.00186  -2.98872
   D42       -0.85556  -0.00002   0.00000   0.00112   0.00111  -0.85444
   D43       -2.89662   0.00001   0.00000   0.00220   0.00219  -2.89443
   D44       -0.83778   0.00001   0.00000   0.00238   0.00238  -0.83540
   D45        1.29725  -0.00001   0.00000   0.00163   0.00163   1.29888
   D46       -0.75731   0.00003   0.00000   0.00234   0.00234  -0.75497
   D47        1.30153   0.00004   0.00000   0.00253   0.00253   1.30406
   D48       -2.84663   0.00001   0.00000   0.00178   0.00178  -2.84485
   D49       -1.49303  -0.00007   0.00000  -0.00269  -0.00269  -1.49572
   D50        1.61252  -0.00005   0.00000  -0.00220  -0.00219   1.61033
   D51        0.48150  -0.00004   0.00000  -0.00244  -0.00244   0.47906
   D52       -2.69613  -0.00002   0.00000  -0.00194  -0.00194  -2.69808
   D53        2.63070  -0.00004   0.00000  -0.00268  -0.00268   2.62802
   D54       -0.54694  -0.00002   0.00000  -0.00218  -0.00218  -0.54912
   D55        0.75913   0.00010   0.00000  -0.00606  -0.00604   0.75308
   D56       -1.44352  -0.00024   0.00000  -0.03306  -0.03309  -1.47661
   D57       -1.33381   0.00010   0.00000  -0.00700  -0.00699  -1.34080
   D58        2.74672  -0.00025   0.00000  -0.03400  -0.03403   2.71269
   D59        2.90938   0.00010   0.00000  -0.00764  -0.00763   2.90176
   D60        0.70673  -0.00025   0.00000  -0.03464  -0.03467   0.67207
   D61        3.12409  -0.00005   0.00000  -0.00350  -0.00350   3.12059
   D62       -0.04540   0.00003   0.00000  -0.00046  -0.00047  -0.04586
   D63        0.02223  -0.00004   0.00000  -0.00224  -0.00224   0.01999
   D64        3.13593   0.00004   0.00000   0.00079   0.00079   3.13672
   D65        0.00068   0.00002   0.00000   0.00158   0.00158   0.00226
   D66       -3.10883  -0.00000   0.00000   0.00111   0.00111  -3.10772
   D67        3.11036   0.00001   0.00000   0.00055   0.00055   3.11091
   D68        0.00084  -0.00001   0.00000   0.00009   0.00009   0.00093
   D69       -0.02524   0.00005   0.00000   0.00237   0.00237  -0.02287
   D70        3.10811   0.00015   0.00000   0.00607   0.00608   3.11419
   D71       -3.13941  -0.00002   0.00000  -0.00058  -0.00059  -3.13999
   D72       -0.00606   0.00007   0.00000   0.00312   0.00312  -0.00294
   D73        0.00533  -0.00002   0.00000  -0.00035  -0.00035   0.00498
   D74       -3.12497   0.00010   0.00000   0.00112   0.00112  -3.12385
   D75       -3.12839  -0.00011   0.00000  -0.00389  -0.00389  -3.13228
   D76        0.02449   0.00001   0.00000  -0.00241  -0.00242   0.02207
   D77       -3.02150  -0.00005   0.00000  -0.01212  -0.01213  -3.03363
   D78        0.00889   0.00003   0.00000  -0.00095  -0.00094   0.00794
   D79        0.11230   0.00004   0.00000  -0.00862  -0.00862   0.10368
   D80       -3.14050   0.00012   0.00000   0.00255   0.00256  -3.13794
   D81        0.01818  -0.00003   0.00000  -0.00184  -0.00184   0.01634
   D82        3.14067   0.00003   0.00000  -0.00037  -0.00037   3.14030
   D83       -3.13446  -0.00016   0.00000  -0.00329  -0.00329  -3.13775
   D84       -0.01197  -0.00009   0.00000  -0.00182  -0.00182  -0.01379
   D85       -0.06872   0.00006   0.00000   0.00729   0.00729  -0.06143
   D86        3.08423   0.00018   0.00000   0.00878   0.00878   3.09301
   D87       -3.12290   0.00003   0.00000   0.00142   0.00142  -3.12148
   D88       -0.02145   0.00005   0.00000   0.00200   0.00200  -0.01945
   D89        0.03889  -0.00005   0.00000  -0.00013  -0.00013   0.03876
   D90        3.14034  -0.00002   0.00000   0.00045   0.00044   3.14079
   D91       -0.16295   0.00003   0.00000   0.00699   0.00701  -0.15594
   D92       -3.03871   0.00044   0.00000  -0.00064  -0.00064  -3.03935
   D93        1.47646  -0.00034   0.00000  -0.00676  -0.00676   1.46970
   D94        3.02367  -0.00020   0.00000  -0.00152  -0.00151   3.02216
   D95        0.14790   0.00021   0.00000  -0.00915  -0.00915   0.13875
   D96       -1.62011  -0.00057   0.00000  -0.01527  -0.01527  -1.63538
   D97       -0.01757  -0.00018   0.00000  -0.00149  -0.00149  -0.01905
   D98       -3.11427  -0.00041   0.00000  -0.01001  -0.01000  -3.12427
   D99       -0.19414  -0.00014   0.00000   0.01407   0.01407  -0.18007
   D100       3.05987  -0.00022   0.00000   0.00274   0.00274   3.06261
   D101      -3.08254   0.00022   0.00000   0.00604   0.00605  -3.07649
   D102       0.17147   0.00015   0.00000  -0.00529  -0.00528   0.16619
   D103       1.52487   0.00034   0.00000   0.01648   0.01649   1.54136
   D104      -1.50430   0.00027   0.00000   0.00515   0.00516  -1.49915
   D105      -1.44947   0.00012   0.00000   0.19182   0.19183  -1.25763
   D106       0.68798   0.00009   0.00000   0.19364   0.19359   0.88157
   D107       2.76066   0.00024   0.00000   0.18398   0.18399   2.94464
   D108       0.69352   0.00020   0.00000   0.19399   0.19402   0.88754
   D109       2.83096   0.00017   0.00000   0.19581   0.19578   3.02674
   D110      -1.37955   0.00032   0.00000   0.18615   0.18618  -1.19337
   D111       2.76146   0.00016   0.00000   0.19072   0.19074   2.95220
   D112      -1.38428   0.00012   0.00000   0.19254   0.19250  -1.19178
   D113       0.68840   0.00027   0.00000   0.18288   0.18289   0.87129
         Item               Value     Threshold  Converged?
 Maximum Force            0.000736     0.000450     NO 
 RMS     Force            0.000155     0.000300     YES
 Maximum Displacement     0.477951     0.001800     NO 
 RMS     Displacement     0.053703     0.001200     NO 
 Predicted change in Energy=-2.724920D-04
 GradGradGradGradGradGradGradGradGradGradGradGradGradGradGradGradGradGrad

 Leave Link  103 at Sun Nov 30 19:55:46 2025, MaxMem=   104857600 cpu:               0.0 elap:               0.0
 (Enter /home/zhouoh/g16/l202.exe)
                          Input orientation:                          
 ---------------------------------------------------------------------
 Center     Atomic      Atomic             Coordinates (Angstroms)
 Number     Number       Type             X           Y           Z
 ---------------------------------------------------------------------
      1          6           0       -3.966284   -1.099188   -0.898073
      2          6           0       -2.961045   -1.478906    0.225536
      3          6           0       -3.147747    0.667432    1.198355
      4          6           0       -4.161437    1.123999    0.117493
      5          1           0       -4.939212   -1.510420   -0.615252
      6          1           0       -5.164306    1.038185    0.544451
      7          6           0       -3.444407   -0.807128    1.523994
      8          1           0       -2.868675   -1.147093    2.385842
      9          1           0       -4.501916   -0.988643    1.717958
     10          1           0       -2.848937   -2.560522    0.285028
     11          1           0       -3.179148    1.334799    2.058161
     12          6           0       -1.673849   -0.744106   -0.015117
     13          6           0       -0.551080   -1.128603   -0.694847
     14          6           0        0.500254   -0.203827   -0.773768
     15          6           0        0.410699    1.094586   -0.201917
     16          6           0       -0.775371    1.463022    0.473608
     17          6           0       -1.784936    0.553662    0.570060
     18          1           0       -0.454877   -2.112949   -1.138981
     19          1           0       -0.826185    2.454536    0.903968
     20          6           0        2.537277    1.614958   -0.881188
     21          6           0        2.727715    0.307480   -1.386918
     22          1           0        3.351307    2.326203   -0.944543
     23          1           0        3.598827    0.022812   -1.960700
     24          7           0       -4.088207    0.333776   -1.101899
     25          1           0       -3.367621    0.680525   -1.719570
     26          1           0       -4.003447    2.170803   -0.141207
     27          1           0       -3.678271   -1.558639   -1.843725
     28          7           0        1.673971   -0.512061   -1.405834
     29          7           0        1.426100    1.985585   -0.302897
     30          6           0        3.738824   -0.465447    0.587821
     31          9           0        4.933869    0.057368    0.679410
     32          9           0        2.969880   -0.141208    1.598445
     33          9           0        3.772690   -1.767935    0.399805
     34          1           0        1.765921   -1.429934   -1.826216
 ---------------------------------------------------------------------
                    Distance matrix (angstroms):
                    1          2          3          4          5
     1  C    0.000000
     2  C    1.554731   0.000000
     3  C    2.861112   2.363895   0.000000
     4  C    2.451942   2.868402   1.550576   0.000000
     5  H    1.093475   2.149666   3.352843   2.842888   0.000000
     6  H    2.843325   3.360329   2.152106   1.093345   2.809087
     7  C    2.494808   1.539779   1.538952   2.494320   2.702858
     8  H    3.462823   2.187591   2.186437   3.460420   3.664110
     9  H    2.672590   2.200447   2.201441   2.672203   2.430504
    10  H    2.187165   1.089037   3.367958   3.914898   2.506486
    11  H    3.909373   3.364969   1.088866   2.185297   4.282550
    12  C    2.482127   1.501572   2.374306   3.113760   3.407345
    13  C    3.421371   2.603411   3.681390   4.332296   4.405431
    14  C    4.557092   3.821652   4.237485   4.928371   5.596437
    15  C    4.945226   4.263125   3.847826   4.583374   5.964767
    16  C    4.316057   3.673370   2.605070   3.421578   5.231113
    17  C    3.105737   2.373449   1.504976   2.485530   3.951563
    18  H    3.662748   2.923148   4.521638   5.078893   4.554842
    19  H    5.073118   4.526573   2.944496   3.675973   5.911505
    20  C    7.047211   6.405339   6.127137   6.790521   8.107811
    21  C    6.857646   6.176825   6.429172   7.098618   7.917196
    22  H    8.079765   7.462823   7.041394   7.682092   9.141160
    23  H    7.721332   7.075783   7.477394   8.108835   8.778333
    24  N    1.452514   2.513641   2.507381   1.454899   2.088562
    25  H    2.049545   2.934601   2.926227   2.049783   2.913701
    26  H    3.356646   3.813329   2.187870   1.089809   3.827764
    27  H    1.090093   2.191486   3.806717   3.358031   1.761091
    28  N    5.693419   5.007947   5.605530   6.248937   6.734681
    29  N    6.240822   5.615067   4.991129   5.669183   7.268894
    30  C    7.872623   6.785764   7.005785   8.072278   8.823132
    31  F    9.112562   8.055793   8.121206   9.174859  10.080269
    32  F    7.433754   6.232991   6.183795   7.392540   8.326399
    33  F    7.875495   6.742188   7.379779   8.449459   8.774616
    34  H    5.816272   5.153280   6.139309   6.740487   6.814083
                    6          7          8          9         10
     6  H    0.000000
     7  C    2.706056   0.000000
     8  H    3.665527   1.090791   0.000000
     9  H    2.433908   1.090365   1.771625   0.000000
    10  H    4.287065   2.228007   2.532112   2.693777   0.000000
    11  H    2.513991   2.223408   2.522609   2.695150   4.292617
    12  C    3.958910   2.346851   2.711939   3.325855   2.184098
    13  C    5.245254   3.660320   3.855157   4.631449   2.879356
    14  C    5.947062   4.604784   4.714082   5.643256   4.229910
    15  C    5.625027   4.632184   4.740877   5.670939   4.921601
    16  C    4.410018   3.657956   3.853733   4.631004   4.530357
    17  C    3.414024   2.348527   2.713691   3.328416   3.303253
    18  H    5.911202   4.211163   4.379917   5.079831   2.821283
    19  H    4.577619   4.228235   4.397664   5.101868   5.442923
    20  C    7.853630   6.887085   6.893963   7.942577   6.914187
    21  C    8.157703   6.914539   6.904280   7.974193   6.489983
    22  H    8.740238   7.879921   7.864059   8.930298   7.989677
    23  H    9.170566   7.901838   7.879701   8.954195   7.300038
    24  N    2.089175   2.934528   3.980524   3.141900   3.440395
    25  H    2.912351   3.569274   4.521454   3.986144   3.846015
    26  H    1.760836   3.457383   4.322282   3.699603   4.888763
    27  H    3.828209   3.458467   4.325974   3.699847   2.494625
    28  N    7.277975   5.904977   5.951110   6.937348   5.245179
    29  N    6.711857   5.904119   5.957188   6.933344   6.268068
    30  C    9.029315   7.252032   6.881610   8.334311   6.919509
    31  F   10.146593   8.464997   8.077272   9.550223   8.220763
    32  F    8.286546   6.449191   5.976664   7.520649   6.437140
    33  F    9.368305   7.367051   6.959707   8.415102   6.669881
    34  H    7.729148   6.225698   6.269044   7.213993   5.199278
                   11         12         13         14         15
    11  H    0.000000
    12  C    3.299431   0.000000
    13  C    4.533667   1.367655   0.000000
    14  C    4.891338   2.365201   1.402406   0.000000
    15  C    4.248842   2.785861   2.471956   1.421587   0.000000
    16  C    2.881907   2.432596   2.851686   2.441629   1.413804
    17  C    2.183677   1.427926   2.439755   2.757129   2.389427
    18  H    5.434182   2.150045   1.084181   2.165734   3.451897
    19  H    2.849983   3.434321   3.933291   3.411911   2.145304
    20  C    6.433955   4.903962   4.135190   2.732943   2.292276
    21  C    6.914838   4.728788   3.645791   2.366214   2.718883
    22  H    7.255753   5.961780   5.217917   3.815589   3.273461
    23  H    7.988335   5.672263   4.488861   3.325857   3.795547
    24  N    3.437210   2.858680   3.849092   4.631486   4.650694
    25  H    3.838599   2.793492   3.500843   4.078858   4.092728
    26  H    2.493109   3.733580   4.807436   5.130529   4.543855
    27  H    4.883218   2.832840   3.359192   4.521106   5.143424
    28  N    6.242028   3.632607   2.415881   1.368257   2.372043
    29  N    5.215978   4.140496   3.709587   2.423311   1.354665
    30  C    7.298022   5.453275   4.526399   3.522883   3.759495
    31  F    8.327894   6.692283   5.777523   4.672995   4.723518
    32  F    6.340384   4.952906   4.316398   3.424962   3.364208
    33  F    7.791351   5.557443   4.505774   3.812157   4.456352
    34  H    6.869195   3.947462   2.596015   2.052534   3.293656
                   16         17         18         19         20
    16  C    0.000000
    17  C    1.362153   0.000000
    18  H    3.935826   3.435214   0.000000
    19  H    1.082078   2.154999   5.017313   0.000000
    20  C    3.582206   4.681239   4.787143   3.899302   0.000000
    21  C    4.131398   4.924875   4.006101   4.742174   1.414753
    22  H    4.448113   5.640649   5.850720   4.570000   1.082833
    23  H    5.208999   5.972559   4.655021   5.805199   2.197081
    24  N    3.838267   2.854619   4.380516   4.377432   6.751828
    25  H    3.484550   2.786286   4.077335   4.060661   6.036876
    26  H    3.361462   2.835990   5.651410   3.356768   6.605877
    27  H    4.788245   3.724633   3.345772   5.638243   7.044944
    28  N    3.665042   4.123586   2.676948   4.515160   2.354732
    29  N    2.392177   3.622598   4.586404   2.597928   1.306330
    30  C    4.910193   5.617012   4.825271   5.428219   2.815987
    31  F    5.883335   6.737997   6.087315   6.243001   3.256563
    32  F    4.226785   4.914132   4.807310   4.650837   3.069176
    33  F    5.579372   6.025446   4.512120   6.263632   3.822453
    34  H    4.485148   4.720739   2.422963   5.409439   3.280157
                   21         22         23         24         25
    21  C    0.000000
    22  H    2.158658   0.000000
    23  H    1.081248   2.529714   0.000000
    24  N    6.821929   7.703304   7.741106   0.000000
    25  H    6.115794   6.960813   7.001581   1.010444   0.000000
    26  H    7.094527   7.400129   8.106725   2.074797   2.261953
    27  H    6.687879   8.081800   7.447874   2.073545   2.264017
    28  N    1.335059   3.328962   2.073412   5.831853   5.190216
    29  N    2.384395   2.057705   3.364748   5.811580   5.166227
    30  C    2.349330   3.208055   2.598645   8.047131   7.559026
    31  F    3.033048   3.207700   2.958667   9.200397   8.663611
    32  F    3.028590   3.563760   3.618009   7.571925   7.200582
    33  F    2.931160   4.329757   2.967993   8.274418   7.840328
    34  H    2.033872   4.171254   2.342669   6.156795   5.551456
                   26         27         28         29         30
    26  H    0.000000
    27  H    4.112547   0.000000
    28  N    6.405476   5.471158   0.000000
    29  N    5.435111   6.402365   2.741559   0.000000
    30  C    8.211216   7.881674   2.870619   3.485632   0.000000
    31  F    9.220392   9.118478   3.911448   4.121576   1.307615
    32  F    7.549773   7.619419   3.292811   3.243702   1.310637
    33  F    8.733537   7.784218   3.040094   4.482096   1.316423
    34  H    7.006438   5.445742   1.013738   3.755229   3.263457
                   31         32         33         34
    31  F    0.000000
    32  F    2.177455   0.000000
    33  F    2.181340   2.174278   0.000000
    34  H    4.304198   3.852095   3.016046   0.000000
 Stoichiometry    C14H14F3N3(1+,2)
 Framework group  C1[X(C14H14F3N3)]
 Deg. of freedom    96
 Full point group                 C1      NOp   1
 RotChk:  IX=0 Diff= 9.16D-03
 Largest Abelian subgroup         C1      NOp   1
 Largest concise Abelian subgroup C1      NOp   1
                         Standard orientation:                         
 ---------------------------------------------------------------------
 Center     Atomic      Atomic             Coordinates (Angstroms)
 Number     Number       Type             X           Y           Z
 ---------------------------------------------------------------------
      1          6           0       -3.943821   -0.997194   -0.991961
      2          6           0       -2.934946   -1.487027    0.084804
      3          6           0       -3.111836    0.554551    1.263222
      4          6           0       -4.128778    1.116715    0.236535
      5          1           0       -4.916667   -1.431853   -0.746340
      6          1           0       -5.130091    0.991921    0.657488
      7          6           0       -3.411102   -0.944071    1.444729
      8          1           0       -2.832709   -1.367823    2.266752
      9          1           0       -4.468280   -1.141248    1.624703
     10          1           0       -2.825499   -2.569538    0.037980
     11          1           0       -3.137870    1.134898    2.184173
     12          6           0       -1.646791   -0.735173   -0.088659
     13          6           0       -0.527894   -1.054050   -0.807594
     14          6           0        0.525585   -0.128374   -0.800526
     15          6           0        0.441897    1.108237   -0.104323
     16          6           0       -0.740362    1.411683    0.609138
     17          6           0       -1.751958    0.499544    0.620837
     18          1           0       -0.436183   -1.990573   -1.346075
     19          1           0       -0.786723    2.356581    1.134410
     20          6           0        2.567025    1.687585   -0.738922
     21          6           0        2.751845    0.435271   -1.370648
     22          1           0        3.382693    2.399770   -0.736154
     23          1           0        3.619798    0.205979   -1.973294
     24          7           0       -4.062738    0.449094   -1.054454
     25          1           0       -3.343796    0.852828   -1.638506
     26          1           0       -3.969051    2.183407    0.080519
     27          1           0       -3.660975   -1.362822   -1.979188
     28          7           0        1.695833   -0.376119   -1.464807
     29          7           0        1.459260    2.002532   -0.122346
     30          6           0        3.769070   -0.528965    0.514784
     31          9           0        4.965885   -0.020296    0.651694
     32          9           0        3.005205   -0.303151    1.555595
     33          9           0        3.798654   -1.806962    0.200428
     34          1           0        1.783569   -1.248794   -1.973144
 ---------------------------------------------------------------------
 Rotational constants (GHZ):           0.8738969           0.1805958           0.1751115
 Leave Link  202 at Sun Nov 30 19:55:46 2025, MaxMem=   104857600 cpu:               0.0 elap:               0.0
 (Enter /home/zhouoh/g16/l301.exe)
 Standard basis: STO-3G (5D, 7F)
 Ernie: Thresh=  0.10000D-02 Tol=  0.10000D-05 Strict=F.
 There are   114 symmetry adapted cartesian basis functions of A   symmetry.
 There are   114 symmetry adapted basis functions of A   symmetry.
   114 basis functions,   342 primitive gaussians,   114 cartesian basis functions
    73 alpha electrons       72 beta electrons
       nuclear repulsion energy      1607.3307318755 Hartrees.
 IExCor=    0 DFT=F Ex=HF Corr=None ExCW=0 ScaHFX=  1.000000
 ScaDFX=  1.000000  1.000000  1.000000  1.000000 ScalE2=  1.000000  1.000000
 IRadAn=      5 IRanWt=     -1 IRanGd=            0 ICorTp=0 IEmpDi=  4
 NAtoms=   34 NActive=   34 NUniq=   34 SFac= 1.00D+00 NAtFMM=   60 NAOKFM=F Big=F
 Integral buffers will be    131072 words long.
 Raffenetti 2 integral format.
 Two-electron integral symmetry is turned on.
 Leave Link  301 at Sun Nov 30 19:55:46 2025, MaxMem=   104857600 cpu:               0.0 elap:               0.0
 (Enter /home/zhouoh/g16/l402.exe)
 External calculation of energy, first and second derivatives.
 Running external command "python ../GauUMA_client.py R"
         input file       "/home/zhouoh/scratch/Gau-2679020.EIn"
         output file      "/home/zhouoh/scratch/Gau-2679020.EOu"
         message file     "/home/zhouoh/scratch/Gau-2679020.EMs"
         fchk file        "/home/zhouoh/scratch/Gau-2679020.EFC"
         mat. el file     "/home/zhouoh/scratch/Gau-2679020.EUF"
Sent job to server.
Received result from server:
SCF Done:  E(UMA) =  -1005.4623742244116     A.U.
 Recovered energy= -1005.46237422     dipole=      0.000000000000      0.000000000000      0.000000000000
 Energy=    -1005.46237     NIter=   0.
 Dipole moment=       0.000000       0.000000       0.000000
 Leave Link  402 at Sun Nov 30 19:55:53 2025, MaxMem=   104857600 cpu:               0.0 elap:               7.1
 (Enter /home/zhouoh/g16/l716.exe)
 Dipole        = 0.00000000D+00 0.00000000D+00 0.00000000D+00
 ***** Axes restored to original set *****
 -------------------------------------------------------------------
 Center     Atomic                   Forces (Hartrees/Bohr)
 Number     Number              X              Y              Z
 -------------------------------------------------------------------
      1        6          -0.000028748   -0.000022513   -0.000002588
      2        6          -0.000014952    0.000008930   -0.000010078
      3        6          -0.000008680   -0.000010056   -0.000001191
      4        6          -0.000029709    0.000013436   -0.000001789
      5        1          -0.000002793   -0.000011312   -0.000012164
      6        1          -0.000003647    0.000014098    0.000003383
      7        6          -0.000001347   -0.000007374    0.000003690
      8        1           0.000007542    0.000001749    0.000002815
      9        1           0.000000567   -0.000001143    0.000000698
     10        1          -0.000007181    0.000001091   -0.000002429
     11        1           0.000000904    0.000000053    0.000002398
     12        6           0.000000025   -0.000019767   -0.000008805
     13        6          -0.000035476    0.000005102    0.000014559
     14        6           0.000052652   -0.000005996   -0.000039056
     15        6          -0.000020819   -0.000034584    0.000002993
     16        6          -0.000015997    0.000012571    0.000000409
     17        6          -0.000084137    0.000060911   -0.000000296
     18        1          -0.000003844    0.000000982    0.000003047
     19        1          -0.000001866    0.000003278   -0.000001081
     20        6          -0.000006286    0.000077614   -0.000064899
     21        6           0.000009645    0.000077616   -0.000037123
     22        1          -0.000014755   -0.000003892    0.000007591
     23        1          -0.000065011   -0.000097037   -0.000005831
     24        7           0.000116588   -0.000023883    0.000074707
     25        1          -0.000056898    0.000022812   -0.000065660
     26        1           0.000013154    0.000000391    0.000001345
     27        1           0.000012955    0.000002131    0.000003008
     28        7          -0.000127266    0.000062628   -0.000005402
     29        7           0.000071008    0.000003913   -0.000006049
     30        6           0.000013309   -0.000205898    0.000034016
     31        9           0.000021126    0.000062048    0.000063543
     32        9          -0.000038456   -0.000039485    0.000016330
     33        9           0.000264699    0.000039983    0.000035707
     34        1          -0.000016298    0.000011610   -0.000005797
 -------------------------------------------------------------------
 Cartesian Forces:  Max     0.000264699 RMS     0.000048180
 FormGI is forming the generalized inverse of G from B-inverse, IUseBI=4.
 Leave Link  716 at Sun Nov 30 19:55:53 2025, MaxMem=   104857600 cpu:               0.0 elap:               0.0
 (Enter /home/zhouoh/g16/l103.exe)

 GradGradGradGradGradGradGradGradGradGradGradGradGradGradGradGradGradGrad
 Berny optimization.
 Red2BG is reusing G-inverse.
 Internal  Forces:  Max     0.000285097 RMS     0.000048891
 Search for a saddle point.
 Step number   3 out of a maximum of  204
 All quantities printed in internal units (Hartrees-Bohrs-Radians)
 Swapping is turned off.
 Second derivative matrix not updated -- analytic derivatives used.
 ITU=  0  0  0
     Eigenvalues ---   -0.01674   0.00037   0.00371   0.00814   0.00875
     Eigenvalues ---    0.01107   0.01124   0.01207   0.01239   0.01387
     Eigenvalues ---    0.01518   0.01565   0.01758   0.02020   0.02092
     Eigenvalues ---    0.02193   0.02294   0.02516   0.02595   0.02815
     Eigenvalues ---    0.02986   0.03081   0.03248   0.03331   0.03462
     Eigenvalues ---    0.03645   0.04074   0.04155   0.04334   0.04375
     Eigenvalues ---    0.05106   0.05158   0.05427   0.05819   0.06380
     Eigenvalues ---    0.06539   0.06762   0.07868   0.08066   0.08329
     Eigenvalues ---    0.08776   0.09226   0.09461   0.10530   0.10648
     Eigenvalues ---    0.11349   0.12160   0.12611   0.13197   0.13892
     Eigenvalues ---    0.14255   0.14420   0.15873   0.18160   0.18320
     Eigenvalues ---    0.19515   0.19752   0.20505   0.20889   0.22102
     Eigenvalues ---    0.23118   0.23422   0.24241   0.24518   0.24672
     Eigenvalues ---    0.25841   0.29017   0.29960   0.31382   0.31618
     Eigenvalues ---    0.33434   0.33475   0.33708   0.34334   0.34417
     Eigenvalues ---    0.34490   0.34506   0.34894   0.35569   0.36198
     Eigenvalues ---    0.36335   0.36661   0.36801   0.37117   0.38413
     Eigenvalues ---    0.39980   0.40304   0.41959   0.43781   0.45017
     Eigenvalues ---    0.45291   0.49578   0.52225   0.53149   0.57738
     Eigenvalues ---    0.58461
 Eigenvectors required to have negative eigenvalues:
                          R32      D102       D91       A57       D94
   1                   -0.92997   0.13018  -0.13002   0.11237  -0.10799
                         D101       D95       D99       D92       D93
   1                    0.10153   0.09955  -0.09712   0.07752  -0.07425
 RFO step:  Lambda0=1.431317487D-06 Lambda=-1.51232504D-04.
 Linear search not attempted -- option 19 set.
 Iteration  1 RMS(Cart)=  0.04709403 RMS(Int)=  0.00381578
 Iteration  2 RMS(Cart)=  0.00395923 RMS(Int)=  0.00002696
 Iteration  3 RMS(Cart)=  0.00001795 RMS(Int)=  0.00002422
 Iteration  4 RMS(Cart)=  0.00000000 RMS(Int)=  0.00002422
 ITry= 1 IFail=0 DXMaxC= 3.78D-01 DCOld= 1.00D+10 DXMaxT= 3.00D-01 DXLimC= 3.00D+00 Rises=F
 Variable       Old X    -DE/DX   Delta X   Delta X   Delta X     New X
                                 (Linear)    (Quad)   (Total)
    R1        2.93802  -0.00001   0.00000  -0.00037  -0.00037   2.93765
    R2        2.06637   0.00000   0.00000   0.00006   0.00006   2.06643
    R3        2.74485   0.00001   0.00000  -0.00025  -0.00025   2.74461
    R4        2.05998  -0.00000   0.00000   0.00000   0.00000   2.05998
    R5        2.90976   0.00001   0.00000   0.00005   0.00005   2.90981
    R6        2.05798  -0.00000   0.00000   0.00002   0.00002   2.05801
    R7        2.83756   0.00001   0.00000  -0.00010  -0.00010   2.83746
    R8        2.93016  -0.00000   0.00000  -0.00029  -0.00029   2.92988
    R9        2.90820   0.00001   0.00000   0.00008   0.00008   2.90828
   R10        2.05766   0.00000   0.00000   0.00003   0.00003   2.05769
   R11        2.84399  -0.00001   0.00000  -0.00012  -0.00012   2.84387
   R12        2.06612   0.00000   0.00000   0.00006   0.00006   2.06618
   R13        2.74936   0.00002   0.00000  -0.00022  -0.00022   2.74914
   R14        2.05944   0.00000   0.00000   0.00000   0.00000   2.05944
   R15        2.06130   0.00001   0.00000   0.00016   0.00016   2.06146
   R16        2.06049  -0.00000   0.00000  -0.00001  -0.00001   2.06048
   R17        2.58449   0.00003   0.00000   0.00004   0.00004   2.58454
   R18        2.69839   0.00003   0.00000   0.00013   0.00014   2.69852
   R19        2.65016   0.00005   0.00000  -0.00013  -0.00013   2.65003
   R20        2.04880  -0.00000   0.00000   0.00002   0.00002   2.04882
   R21        2.68641   0.00001   0.00000  -0.00018  -0.00018   2.68623
   R22        2.58563   0.00006   0.00000   0.00019   0.00019   2.58582
   R23        2.67170   0.00006   0.00000  -0.00004  -0.00004   2.67167
   R24        2.55994   0.00003   0.00000  -0.00023  -0.00023   2.55972
   R25        2.57410   0.00002   0.00000  -0.00006  -0.00006   2.57404
   R26        2.04483   0.00000   0.00000  -0.00001  -0.00001   2.04482
   R27        2.67350   0.00004   0.00000  -0.00011  -0.00011   2.67339
   R28        2.04626  -0.00001   0.00000  -0.00015  -0.00015   2.04611
   R29        2.46861  -0.00004   0.00000   0.00016   0.00016   2.46876
   R30        2.04326  -0.00002   0.00000  -0.00017  -0.00017   2.04309
   R31        2.52290   0.00012   0.00000   0.00013   0.00012   2.52302
   R32        4.43959   0.00029   0.00000   0.00616   0.00616   4.44576
   R33        1.90946   0.00001   0.00000  -0.00016  -0.00016   1.90930
   R34        1.91569  -0.00001   0.00000   0.00011   0.00011   1.91580
   R35        2.47103   0.00005   0.00000  -0.00126  -0.00126   2.46977
   R36        2.47674   0.00003   0.00000   0.00311   0.00311   2.47985
   R37        2.48768  -0.00004   0.00000  -0.00098  -0.00098   2.48670
    A1        1.87184   0.00000   0.00000   0.00009   0.00009   1.87193
    A2        1.97864  -0.00001   0.00000  -0.00010  -0.00010   1.97855
    A3        1.93176   0.00000   0.00000  -0.00018  -0.00018   1.93158
    A4        1.90988   0.00001   0.00000   0.00028   0.00028   1.91016
    A5        1.87648  -0.00000   0.00000  -0.00012  -0.00012   1.87636
    A6        1.89257   0.00000   0.00000   0.00002   0.00002   1.89260
    A7        1.87540   0.00000   0.00000   0.00070   0.00070   1.87610
    A8        1.92688  -0.00001   0.00000  -0.00009  -0.00009   1.92679
    A9        1.89538   0.00000   0.00000   0.00077   0.00077   1.89615
   A10        2.00375   0.00000   0.00000  -0.00022  -0.00022   2.00354
   A11        1.76272  -0.00000   0.00000  -0.00087  -0.00087   1.76185
   A12        1.98945   0.00000   0.00000  -0.00023  -0.00023   1.98922
   A13        1.87927   0.00000   0.00000   0.00064   0.00064   1.87991
   A14        1.92955   0.00000   0.00000   0.00002   0.00002   1.92957
   A15        1.89995  -0.00000   0.00000   0.00066   0.00066   1.90061
   A16        1.99831   0.00000   0.00000  -0.00024  -0.00024   1.99808
   A17        1.76243  -0.00000   0.00000  -0.00077  -0.00077   1.76166
   A18        1.98461  -0.00000   0.00000  -0.00027  -0.00027   1.98434
   A19        1.88003  -0.00000   0.00000   0.00008   0.00008   1.88012
   A20        1.97295  -0.00001   0.00000  -0.00012  -0.00012   1.97283
   A21        1.93214   0.00000   0.00000  -0.00017  -0.00017   1.93197
   A22        1.90798   0.00001   0.00000   0.00027   0.00027   1.90826
   A23        1.87660  -0.00000   0.00000  -0.00010  -0.00010   1.87650
   A24        1.89174   0.00001   0.00000   0.00004   0.00004   1.89177
   A25        1.75085   0.00000   0.00000   0.00005   0.00005   1.75090
   A26        1.94402  -0.00000   0.00000  -0.00102  -0.00102   1.94300
   A27        1.96258  -0.00000   0.00000   0.00052   0.00052   1.96310
   A28        1.94343  -0.00000   0.00000  -0.00102  -0.00102   1.94241
   A29        1.96504  -0.00000   0.00000   0.00055   0.00055   1.96558
   A30        1.89597   0.00000   0.00000   0.00079   0.00079   1.89676
   A31        2.27289  -0.00001   0.00000  -0.00015  -0.00015   2.27274
   A32        1.88849  -0.00001   0.00000   0.00005   0.00005   1.88854
   A33        2.12123   0.00002   0.00000   0.00019   0.00019   2.12141
   A34        2.04656   0.00003   0.00000  -0.00006  -0.00006   2.04650
   A35        2.13139  -0.00002   0.00000  -0.00026  -0.00027   2.13113
   A36        2.10497  -0.00001   0.00000   0.00030   0.00030   2.10526
   A37        2.13225  -0.00006   0.00000  -0.00018  -0.00018   2.13208
   A38        2.11826   0.00005   0.00000   0.00021   0.00021   2.11846
   A39        2.03266   0.00001   0.00000  -0.00003  -0.00003   2.03263
   A40        2.07496   0.00003   0.00000   0.00034   0.00034   2.07530
   A41        2.12179  -0.00002   0.00000  -0.00030  -0.00031   2.12148
   A42        2.08637  -0.00001   0.00000  -0.00002  -0.00002   2.08635
   A43        2.07331   0.00002   0.00000  -0.00013  -0.00013   2.07318
   A44        2.05807  -0.00001   0.00000   0.00006   0.00006   2.05812
   A45        2.15167  -0.00001   0.00000   0.00005   0.00005   2.15172
   A46        1.88624   0.00001   0.00000  -0.00000  -0.00000   1.88624
   A47        2.27869   0.00003   0.00000   0.00029   0.00028   2.27897
   A48        2.11772  -0.00004   0.00000  -0.00019  -0.00019   2.11753
   A49        2.07707  -0.00001   0.00000   0.00010   0.00010   2.07717
   A50        2.13524   0.00004   0.00000   0.00007   0.00006   2.13531
   A51        2.07031  -0.00003   0.00000  -0.00013  -0.00013   2.07018
   A52        2.14297   0.00002   0.00000   0.00115   0.00114   2.14411
   A53        2.05571  -0.00007   0.00000  -0.00028  -0.00028   2.05543
   A54        1.63235   0.00002   0.00000  -0.00116  -0.00116   1.63118
   A55        2.05642   0.00003   0.00000  -0.00037  -0.00037   2.05604
   A56        1.58349  -0.00014   0.00000  -0.00180  -0.00180   1.58169
   A57        1.72100   0.00021   0.00000   0.00116   0.00116   1.72217
   A58        2.00694   0.00001   0.00000   0.00063   0.00063   2.00757
   A59        1.94386   0.00001   0.00000   0.00116   0.00115   1.94501
   A60        1.94104   0.00001   0.00000   0.00121   0.00121   1.94225
   A61        2.13203   0.00001   0.00000   0.00088   0.00087   2.13290
   A62        2.06388  -0.00001   0.00000  -0.00002  -0.00003   2.06385
   A63        2.08299   0.00000   0.00000  -0.00019  -0.00020   2.08280
   A64        2.07599   0.00003   0.00000   0.00064   0.00064   2.07663
   A65        1.89723  -0.00001   0.00000   0.02049   0.02046   1.91769
   A66        1.89046  -0.00002   0.00000  -0.02748  -0.02742   1.86304
   A67        1.78906   0.00027   0.00000   0.00814   0.00803   1.79709
   A68        1.96413  -0.00003   0.00000  -0.00085  -0.00072   1.96341
   A69        1.96285  -0.00016   0.00000   0.00119   0.00097   1.96381
   A70        1.94980  -0.00002   0.00000  -0.00127  -0.00129   1.94851
    D1       -1.08886  -0.00000   0.00000  -0.00110  -0.00110  -1.08996
    D2        1.10826  -0.00000   0.00000  -0.00095  -0.00095   1.10731
    D3       -2.98197  -0.00000   0.00000  -0.00076  -0.00076  -2.98273
    D4        1.02126   0.00000   0.00000  -0.00074  -0.00074   1.02052
    D5       -3.06480   0.00000   0.00000  -0.00059  -0.00059  -3.06540
    D6       -0.87185  -0.00000   0.00000  -0.00041  -0.00041  -0.87226
    D7       -3.13094  -0.00000   0.00000  -0.00091  -0.00091  -3.13185
    D8       -0.93382  -0.00000   0.00000  -0.00076  -0.00076  -0.93458
    D9        1.25913  -0.00000   0.00000  -0.00058  -0.00058   1.25856
   D10       -0.75127  -0.00001   0.00000   0.00063   0.00063  -0.75063
   D11        1.47700   0.00003   0.00000   0.00389   0.00389   1.48090
   D12        1.33726  -0.00001   0.00000   0.00088   0.00088   1.33814
   D13       -2.71766   0.00003   0.00000   0.00414   0.00414  -2.71351
   D14       -2.90393  -0.00001   0.00000   0.00091   0.00091  -2.90302
   D15       -0.67565   0.00003   0.00000   0.00417   0.00417  -0.67148
   D16       -1.22739  -0.00000   0.00000   0.00085   0.00085  -1.22653
   D17        2.99720   0.00000   0.00000   0.00241   0.00241   2.99962
   D18        0.86427  -0.00000   0.00000   0.00176   0.00176   0.86603
   D19        2.90516   0.00000   0.00000   0.00058   0.00058   2.90575
   D20        0.84657   0.00000   0.00000   0.00215   0.00215   0.84871
   D21       -1.28637   0.00000   0.00000   0.00149   0.00149  -1.28488
   D22        0.75673   0.00000   0.00000   0.00157   0.00157   0.75830
   D23       -1.30187   0.00000   0.00000   0.00314   0.00314  -1.29873
   D24        2.84838   0.00000   0.00000   0.00248   0.00248   2.85086
   D25       -1.61823   0.00001   0.00000  -0.00318  -0.00318  -1.62141
   D26        1.48659   0.00000   0.00000  -0.00037  -0.00037   1.48622
   D27        2.69598   0.00000   0.00000  -0.00384  -0.00384   2.69213
   D28       -0.48239  -0.00000   0.00000  -0.00103  -0.00103  -0.48342
   D29        0.53769   0.00000   0.00000  -0.00288  -0.00288   0.53482
   D30       -2.64067  -0.00000   0.00000  -0.00006  -0.00006  -2.64073
   D31        1.08091   0.00001   0.00000   0.00098   0.00098   1.08190
   D32       -1.02891   0.00000   0.00000   0.00065   0.00065  -1.02826
   D33        3.12815   0.00000   0.00000   0.00081   0.00081   3.12896
   D34       -1.11381   0.00000   0.00000   0.00082   0.00082  -1.11299
   D35        3.05955   0.00000   0.00000   0.00050   0.00050   3.06005
   D36        0.93342   0.00000   0.00000   0.00066   0.00066   0.93408
   D37        2.97753   0.00000   0.00000   0.00069   0.00069   2.97822
   D38        0.86770   0.00000   0.00000   0.00036   0.00036   0.86807
   D39       -1.25842   0.00000   0.00000   0.00052   0.00052  -1.25790
   D40        1.23543  -0.00000   0.00000  -0.00083  -0.00083   1.23460
   D41       -2.98872  -0.00000   0.00000  -0.00240  -0.00240  -2.99112
   D42       -0.85444  -0.00000   0.00000  -0.00172  -0.00172  -0.85616
   D43       -2.89443   0.00000   0.00000  -0.00049  -0.00049  -2.89492
   D44       -0.83540   0.00000   0.00000  -0.00205  -0.00205  -0.83745
   D45        1.29888   0.00000   0.00000  -0.00137  -0.00137   1.29750
   D46       -0.75497  -0.00000   0.00000  -0.00145  -0.00145  -0.75643
   D47        1.30406  -0.00000   0.00000  -0.00302  -0.00302   1.30104
   D48       -2.84485  -0.00000   0.00000  -0.00234  -0.00234  -2.84719
   D49       -1.49572  -0.00000   0.00000   0.00002   0.00002  -1.49570
   D50        1.61033   0.00000   0.00000   0.00315   0.00315   1.61348
   D51        0.47906  -0.00000   0.00000   0.00062   0.00062   0.47968
   D52       -2.69808   0.00000   0.00000   0.00375   0.00375  -2.69433
   D53        2.62802  -0.00000   0.00000  -0.00031  -0.00031   2.62771
   D54       -0.54912   0.00000   0.00000   0.00282   0.00282  -0.54630
   D55        0.75308   0.00001   0.00000  -0.00058  -0.00058   0.75250
   D56       -1.47661  -0.00003   0.00000  -0.00381  -0.00381  -1.48041
   D57       -1.34080   0.00001   0.00000  -0.00080  -0.00080  -1.34160
   D58        2.71269  -0.00002   0.00000  -0.00403  -0.00403   2.70867
   D59        2.90176   0.00001   0.00000  -0.00085  -0.00085   2.90091
   D60        0.67207  -0.00003   0.00000  -0.00407  -0.00407   0.66799
   D61        3.12059  -0.00001   0.00000   0.00389   0.00389   3.12448
   D62       -0.04586   0.00001   0.00000   0.00260   0.00260  -0.04327
   D63        0.01999  -0.00000   0.00000   0.00076   0.00076   0.02075
   D64        3.13672   0.00001   0.00000  -0.00054  -0.00054   3.13618
   D65        0.00226   0.00000   0.00000   0.00026   0.00026   0.00252
   D66       -3.10772  -0.00000   0.00000  -0.00253  -0.00253  -3.11025
   D67        3.11091  -0.00000   0.00000   0.00278   0.00278   3.11368
   D68        0.00093  -0.00001   0.00000  -0.00002  -0.00001   0.00092
   D69       -0.02287   0.00001   0.00000  -0.00073  -0.00073  -0.02360
   D70        3.11419   0.00004   0.00000  -0.00161  -0.00161   3.11257
   D71       -3.13999  -0.00000   0.00000   0.00055   0.00055  -3.13945
   D72       -0.00294   0.00002   0.00000  -0.00033  -0.00033  -0.00327
   D73        0.00498  -0.00001   0.00000  -0.00002  -0.00002   0.00496
   D74       -3.12385   0.00003   0.00000  -0.00182  -0.00182  -3.12567
   D75       -3.13228  -0.00003   0.00000   0.00082   0.00082  -3.13147
   D76        0.02207   0.00001   0.00000  -0.00099  -0.00099   0.02108
   D77       -3.03363  -0.00003   0.00000  -0.00330  -0.00330  -3.03693
   D78        0.00794   0.00001   0.00000   0.00442   0.00442   0.01236
   D79        0.10368  -0.00001   0.00000  -0.00413  -0.00413   0.09954
   D80       -3.13794   0.00004   0.00000   0.00358   0.00359  -3.13436
   D81        0.01634  -0.00000   0.00000   0.00077   0.00077   0.01711
   D82        3.14030   0.00001   0.00000  -0.00071  -0.00071   3.13958
   D83       -3.13775  -0.00004   0.00000   0.00254   0.00254  -3.13521
   D84       -0.01379  -0.00003   0.00000   0.00105   0.00105  -0.01274
   D85       -0.06143   0.00003   0.00000   0.00326   0.00326  -0.05817
   D86        3.09301   0.00006   0.00000   0.00145   0.00145   3.09445
   D87       -3.12148   0.00000   0.00000  -0.00425  -0.00425  -3.12572
   D88       -0.01945   0.00001   0.00000  -0.00076  -0.00076  -0.02021
   D89        0.03876  -0.00001   0.00000  -0.00268  -0.00268   0.03608
   D90        3.14079  -0.00001   0.00000   0.00081   0.00081  -3.14159
   D91       -0.15594  -0.00001   0.00000  -0.00118  -0.00118  -0.15712
   D92       -3.03935   0.00008   0.00000  -0.00334  -0.00334  -3.04269
   D93        1.46970  -0.00016   0.00000  -0.00398  -0.00398   1.46572
   D94        3.02216  -0.00003   0.00000  -0.00219  -0.00219   3.01997
   D95        0.13875   0.00005   0.00000  -0.00435  -0.00435   0.13440
   D96       -1.63538  -0.00018   0.00000  -0.00499  -0.00499  -1.64037
   D97       -0.01905  -0.00006   0.00000  -0.00062  -0.00062  -0.01967
   D98       -3.12427  -0.00008   0.00000  -0.00164  -0.00163  -3.12590
   D99       -0.18007  -0.00002   0.00000   0.00670   0.00670  -0.17337
   D100       3.06261  -0.00006   0.00000  -0.00111  -0.00111   3.06150
   D101      -3.07649   0.00007   0.00000   0.00442   0.00442  -3.07207
   D102       0.16619   0.00002   0.00000  -0.00339  -0.00339   0.16280
   D103       1.54136   0.00011   0.00000   0.00593   0.00594   1.54730
   D104      -1.49915   0.00006   0.00000  -0.00188  -0.00188  -1.50102
   D105      -1.25763   0.00008   0.00000   0.17701   0.17711  -1.08052
   D106       0.88157   0.00003   0.00000   0.17161   0.17157   1.05314
   D107       2.94464   0.00013   0.00000   0.16239   0.16233   3.10697
   D108       0.88754   0.00009   0.00000   0.17795   0.17805   1.06559
   D109       3.02674   0.00004   0.00000   0.17255   0.17251  -3.08393
   D110      -1.19337   0.00014   0.00000   0.16333   0.16327  -1.03010
   D111       2.95220   0.00012   0.00000   0.17736   0.17746   3.12966
   D112      -1.19178   0.00006   0.00000   0.17195   0.17191  -1.01986
   D113       0.87129   0.00016   0.00000   0.16274   0.16268   1.03397
         Item               Value     Threshold  Converged?
 Maximum Force            0.000285     0.000450     YES
 RMS     Force            0.000049     0.000300     YES
 Maximum Displacement     0.378134     0.001800     NO 
 RMS     Displacement     0.047183     0.001200     NO 
 Predicted change in Energy=-9.491154D-05
 GradGradGradGradGradGradGradGradGradGradGradGradGradGradGradGradGradGrad

 Leave Link  103 at Sun Nov 30 19:55:53 2025, MaxMem=   104857600 cpu:               0.0 elap:               0.0
 (Enter /home/zhouoh/g16/l202.exe)
                          Input orientation:                          
 ---------------------------------------------------------------------
 Center     Atomic      Atomic             Coordinates (Angstroms)
 Number     Number       Type             X           Y           Z
 ---------------------------------------------------------------------
      1          6           0       -3.971893   -1.096897   -0.892127
      2          6           0       -2.963743   -1.473884    0.229525
      3          6           0       -3.146394    0.675377    1.196892
      4          6           0       -4.162929    1.129486    0.117886
      5          1           0       -4.944094   -1.507520   -0.605827
      6          1           0       -5.164588    1.046190    0.548246
      7          6           0       -3.441973   -0.798245    1.527911
      8          1           0       -2.861261   -1.135292    2.387672
      9          1           0       -4.498486   -0.979474    1.727455
     10          1           0       -2.852174   -2.555413    0.291791
     11          1           0       -3.174907    1.345097    2.054990
     12          6           0       -1.676488   -0.740884   -0.015926
     13          6           0       -0.554428   -1.129590   -0.694475
     14          6           0        0.499089   -0.207543   -0.774996
     15          6           0        0.411886    1.092465   -0.206656
     16          6           0       -0.773772    1.465706    0.466910
     17          6           0       -1.785208    0.558732    0.565757
     18          1           0       -0.460279   -2.115607   -1.135356
     19          1           0       -0.822242    2.458266    0.895115
     20          6           0        2.540749    1.606077   -0.885254
     21          6           0        2.728037    0.297948   -1.390314
     22          1           0        3.356167    2.315537   -0.949451
     23          1           0        3.597162    0.010205   -1.965401
     24          7           0       -4.094026    0.335460   -1.099146
     25          1           0       -3.377751    0.680949   -1.722375
     26          1           0       -4.004599    2.175324   -0.144487
     27          1           0       -3.686324   -1.558750   -1.837350
     28          7           0        1.673165   -0.520346   -1.404365
     29          7           0        1.430278    1.979878   -0.307465
     30          6           0        3.748111   -0.472137    0.584808
     31          9           0        4.849434    0.195982    0.805760
     32          9           0        2.868748   -0.323087    1.547403
     33          9           0        3.972790   -1.742452    0.325157
     34          1           0        1.762318   -1.438436   -1.825022
 ---------------------------------------------------------------------
                    Distance matrix (angstroms):
                    1          2          3          4          5
     1  C    0.000000
     2  C    1.554537   0.000000
     3  C    2.861189   2.363997   0.000000
     4  C    2.452223   2.868456   1.550423   0.000000
     5  H    1.093505   2.149589   3.353590   2.843902   0.000000
     6  H    2.844295   3.360963   2.152058   1.093375   2.811038
     7  C    2.495314   1.539805   1.538994   2.494814   2.704123
     8  H    3.462955   2.186949   2.185814   3.460562   3.665758
     9  H    2.674564   2.200834   2.201859   2.674140   2.433435
    10  H    2.186938   1.089050   3.368052   3.914945   2.505978
    11  H    3.909478   3.365051   1.088885   2.185188   4.283386
    12  C    2.482611   1.501519   2.374309   3.114253   3.407780
    13  C    3.423332   2.603289   3.681503   4.334124   4.406797
    14  C    4.560082   3.821503   4.237621   4.931459   5.598821
    15  C    4.947796   4.262777   3.847761   4.586461   5.967058
    16  C    4.317626   3.673352   2.605154   3.423630   5.232822
    17  C    3.106143   2.373505   1.504913   2.485941   3.952286
    18  H    3.664473   2.922677   4.521524   5.080438   4.555740
    19  H    5.074811   4.526680   2.944731   3.678305   5.913539
    20  C    7.051285   6.405335   6.127408   6.795051   8.111439
    21  C    6.861694   6.177348   6.430010   7.102924   7.920652
    22  H    8.083839   7.462637   7.041321   7.686529   9.144844
    23  H    7.724518   7.075712   7.477840   8.112452   8.780944
    24  N    1.452384   2.513290   2.507058   1.454782   2.088672
    25  H    2.050135   2.936770   2.928426   2.050427   2.913676
    26  H    3.356704   3.813133   2.187614   1.089810   3.828685
    27  H    1.090094   2.191186   3.806504   3.358081   1.761039
    28  N    5.697498   5.007969   5.605751   6.252934   6.737974
    29  N    6.244343   5.614646   4.991065   5.673451   7.272110
    30  C    7.884803   6.795492   7.016098   8.085033   8.834255
    31  F    9.075800   8.010383   8.019729   9.086654  10.040303
    32  F    7.303729   6.089260   6.107513   7.321063   8.190225
    33  F    8.063281   6.942389   7.568923   8.630232   8.968431
    34  H    5.819632   5.153453   6.139676   6.743713   6.816683
                    6          7          8          9         10
     6  H    0.000000
     7  C    2.707229   0.000000
     8  H    3.667106   1.090878   0.000000
     9  H    2.436707   1.090358   1.772194   0.000000
    10  H    4.287723   2.227891   2.531708   2.693522   0.000000
    11  H    2.513653   2.223297   2.522178   2.694953   4.292669
    12  C    3.959642   2.345988   2.708602   3.325654   2.183905
    13  C    5.247090   3.658786   3.849824   4.630754   2.878425
    14  C    5.949794   4.602638   4.706924   5.642153   4.228650
    15  C    5.627528   4.629874   4.733596   5.669697   4.920319
    16  C    4.411561   3.656569   3.848653   4.630483   4.529881
    17  C    3.414400   2.347764   2.710532   3.328288   3.303236
    18  H    5.912867   4.209386   4.374638   5.078740   2.819811
    19  H    4.579327   4.227089   4.393061   5.101530   5.442572
    20  C    7.857519   6.884555   6.885410   7.941168   6.912817
    21  C    8.161582   6.912793   6.896928   7.973389   6.489214
    22  H    8.744004   7.877034   7.855000   8.928522   7.988137
    23  H    9.173873   7.899763   7.872271   8.952998   7.298715
    24  N    2.089292   2.934602   3.980040   3.143614   3.440065
    25  H    2.912372   3.571625   4.523050   3.989283   3.848003
    26  H    1.760794   3.457684   4.321948   3.701465   4.888588
    27  H    3.829105   3.458766   4.325605   3.701756   2.494471
    28  N    7.281593   5.902551   5.942956   6.936020   5.243771
    29  N    6.715376   5.901305   5.948559   6.931732   6.266367
    30  C    9.041175   7.259001   6.882870   8.340827   6.927456
    31  F   10.053347   8.381970   7.983079   9.466511   8.194455
    32  F    8.210220   6.328614   5.847968   7.398608   6.268076
    33  F    9.556044   7.570790   7.164278   8.620389   6.873293
    34  H    7.732257   6.223878   6.262282   7.213072   5.198276
                   11         12         13         14         15
    11  H    0.000000
    12  C    3.299283   0.000000
    13  C    4.533271   1.367678   0.000000
    14  C    4.890578   2.365116   1.402337   0.000000
    15  C    4.247817   2.785472   2.471691   1.421490   0.000000
    16  C    2.881317   2.432503   2.851752   2.441776   1.413784
    17  C    2.183448   1.427998   2.439967   2.757319   2.389292
    18  H    5.433597   2.149919   1.084190   2.165860   3.451793
    19  H    2.849470   3.434282   3.933348   3.411997   2.145317
    20  C    6.432874   4.903983   4.135261   2.733085   2.292673
    21  C    6.914578   4.729478   3.646455   2.366929   2.719717
    22  H    7.254195   5.961610   5.217917   3.815661   3.273598
    23  H    7.987890   5.672387   4.488884   3.326039   3.796110
    24  N    3.436964   2.859435   3.852128   4.636446   4.655409
    25  H    3.840667   2.797834   3.507960   4.088622   4.102206
    26  H    2.493063   3.733751   4.809223   5.134082   4.547723
    27  H    4.883051   2.833007   3.361416   4.524603   5.146205
    28  N    6.241059   3.632710   2.416049   1.368359   2.372023
    29  N    5.214582   4.139992   3.709127   2.422914   1.354543
    30  C    7.306979   5.464374   4.536590   3.532028   3.768925
    31  F    8.201895   6.643835   5.762774   4.646194   4.639019
    32  F    6.290171   4.824699   4.170683   3.319965   3.334169
    33  F    7.975892   5.747506   4.680913   3.953844   4.582534
    34  H    6.868678   3.947759   2.596311   2.052657   3.293665
                   16         17         18         19         20
    16  C    0.000000
    17  C    1.362122   0.000000
    18  H    3.935904   3.435303   0.000000
    19  H    1.082073   2.154996   5.017383   0.000000
    20  C    3.582472   4.681482   4.787447   3.899443   0.000000
    21  C    4.132265   4.925811   4.006945   4.742852   1.414695
    22  H    4.447998   5.640563   5.851056   4.569672   1.082757
    23  H    5.209577   5.973069   4.655199   5.805746   2.197620
    24  N    3.841104   2.855240   4.383281   4.380405   6.758732
    25  H    3.491349   2.790462   4.083743   4.067030   6.048576
    26  H    3.363868   2.836109   5.652974   3.359795   6.611684
    27  H    4.789563   3.724634   3.348171   5.639658   7.049756
    28  N    3.665185   4.123850   2.677463   4.515174   2.354539
    29  N    2.392042   3.622364   4.586131   2.597865   1.306413
    30  C    4.921033   5.628559   4.834305   5.437985   2.817406
    31  F    5.774726   6.648884   6.107734   6.106867   3.190285
    32  F    4.199428   4.837410   4.636026   4.667420   3.122031
    33  F    5.730814   6.205472   4.682354   6.400252   3.837770
    34  H    4.485393   4.721170   2.423662   5.409564   3.279965
                   21         22         23         24         25
    21  C    0.000000
    22  H    2.158604   0.000000
    23  H    1.081156   2.530768   0.000000
    24  N    6.828377   7.710285   7.746648   0.000000
    25  H    6.126794   6.972441   7.011303   1.010360   0.000000
    26  H    7.099649   7.405977   8.111118   2.074722   2.261820
    27  H    6.692623   8.086726   7.451657   2.073450   2.263777
    28  N    1.335125   3.328915   2.073164   5.838327   5.201538
    29  N    2.384456   2.057635   3.365078   5.817973   5.177483
    30  C    2.352592   3.206041   2.599809   8.061453   7.578298
    31  F    3.055072   3.130995   3.046643   9.145140   8.620512
    32  F    3.005939   3.665269   3.602980   7.477842   7.121677
    33  F    2.942020   4.297921   2.908532   8.451028   8.005980
    34  H    2.033866   4.171246   2.341990   6.162010   5.560812
                   26         27         28         29         30
    26  H    0.000000
    27  H    4.112225   0.000000
    28  N    6.410222   5.476302   0.000000
    29  N    5.440832   6.406407   2.741041   0.000000
    30  C    8.224684   7.894200   2.874810   3.490112   0.000000
    31  F    9.122207   9.106277   3.935284   4.013998   1.306949
    32  F    7.506494   7.480132   3.190809   3.288370   1.312282
    33  F    8.899903   7.960667   3.126189   4.551958   1.315903
    34  H    7.010049   5.449984   1.013799   3.754743   3.268698
                   31         32         33         34
    31  F    0.000000
    32  F    2.177747   0.000000
    33  F    2.181057   2.174257   0.000000
    34  H    4.372941   3.720408   3.098690   0.000000
 Stoichiometry    C14H14F3N3(1+,2)
 Framework group  C1[X(C14H14F3N3)]
 Deg. of freedom    96
 Full point group                 C1      NOp   1
 RotChk:  IX=0 Diff= 2.84D-03
 Largest Abelian subgroup         C1      NOp   1
 Largest concise Abelian subgroup C1      NOp   1
                         Standard orientation:                         
 ---------------------------------------------------------------------
 Center     Atomic      Atomic             Coordinates (Angstroms)
 Number     Number       Type             X           Y           Z
 ---------------------------------------------------------------------
      1          6           0       -3.947881   -1.001946   -0.986672
      2          6           0       -2.935493   -1.487086    0.088639
      3          6           0       -3.112761    0.557357    1.262228
      4          6           0       -4.133310    1.115083    0.236931
      5          1           0       -4.919208   -1.438302   -0.737936
      6          1           0       -5.133289    0.990410    0.661157
      7          6           0       -3.408031   -0.941480    1.448794
      8          1           0       -2.824102   -1.361141    2.269116
      9          1           0       -4.463859   -1.141035    1.633961
     10          1           0       -2.824424   -2.569555    0.044418
     11          1           0       -3.137360    1.139984    2.181799
     12          6           0       -1.648726   -0.733984   -0.089209
     13          6           0       -0.529672   -1.054823   -0.807069
     14          6           0        0.524151   -0.129635   -0.801346
     15          6           0        0.440136    1.108607   -0.108285
     16          6           0       -0.742546    1.414561    0.603363
     17          6           0       -1.754205    0.502569    0.617181
     18          1           0       -0.437981   -1.993041   -1.342614
     19          1           0       -0.788605    2.360516    1.126747
     20          6           0        2.566610    1.685468   -0.742074
     21          6           0        2.750959    0.432929   -1.373361
     22          1           0        3.382255    2.397564   -0.739921
     23          1           0        3.617565    0.202530   -1.977355
     24          7           0       -4.069851    0.443825   -1.052168
     25          1           0       -3.355847    0.848376   -1.641545
     26          1           0       -3.975311    2.181515    0.077418
     27          1           0       -3.666435   -1.369261   -1.973674
     28          7           0        1.695471   -0.379758   -1.463052
     29          7           0        1.458730    2.001321   -0.125996
     30          6           0        3.778429   -0.526871    0.512847
     31          9           0        4.881094    0.116118    0.793576
     32          9           0        2.903046   -0.472383    1.488972
     33          9           0        4.001181   -1.765782    0.129336
     34          1           0        1.782295   -1.252350   -1.971810
 ---------------------------------------------------------------------
 Rotational constants (GHZ):           0.8747829           0.1802944           0.1747997
 Leave Link  202 at Sun Nov 30 19:55:53 2025, MaxMem=   104857600 cpu:               0.0 elap:               0.0
 (Enter /home/zhouoh/g16/l301.exe)
 Standard basis: STO-3G (5D, 7F)
 Ernie: Thresh=  0.10000D-02 Tol=  0.10000D-05 Strict=F.
 There are   114 symmetry adapted cartesian basis functions of A   symmetry.
 There are   114 symmetry adapted basis functions of A   symmetry.
   114 basis functions,   342 primitive gaussians,   114 cartesian basis functions
    73 alpha electrons       72 beta electrons
       nuclear repulsion energy      1607.0674744290 Hartrees.
 IExCor=    0 DFT=F Ex=HF Corr=None ExCW=0 ScaHFX=  1.000000
 ScaDFX=  1.000000  1.000000  1.000000  1.000000 ScalE2=  1.000000  1.000000
 IRadAn=      5 IRanWt=     -1 IRanGd=            0 ICorTp=0 IEmpDi=  4
 NAtoms=   34 NActive=   34 NUniq=   34 SFac= 1.00D+00 NAtFMM=   60 NAOKFM=F Big=F
 Integral buffers will be    131072 words long.
 Raffenetti 2 integral format.
 Two-electron integral symmetry is turned on.
 Leave Link  301 at Sun Nov 30 19:55:53 2025, MaxMem=   104857600 cpu:               0.0 elap:               0.0
 (Enter /home/zhouoh/g16/l402.exe)
 External calculation of energy, first and second derivatives.
 Running external command "python ../GauUMA_client.py R"
         input file       "/home/zhouoh/scratch/Gau-2679020.EIn"
         output file      "/home/zhouoh/scratch/Gau-2679020.EOu"
         message file     "/home/zhouoh/scratch/Gau-2679020.EMs"
         fchk file        "/home/zhouoh/scratch/Gau-2679020.EFC"
         mat. el file     "/home/zhouoh/scratch/Gau-2679020.EUF"
Sent job to server.
Received result from server:
SCF Done:  E(UMA) =  -1005.4624741606028     A.U.
 Recovered energy= -1005.46247416     dipole=      0.000000000000      0.000000000000      0.000000000000
 Energy=    -1005.46247     NIter=   0.
 Dipole moment=       0.000000       0.000000       0.000000
 Leave Link  402 at Sun Nov 30 19:56:00 2025, MaxMem=   104857600 cpu:               0.0 elap:               7.1
 (Enter /home/zhouoh/g16/l716.exe)
 Dipole        = 0.00000000D+00 0.00000000D+00 0.00000000D+00
 ***** Axes restored to original set *****
 -------------------------------------------------------------------
 Center     Atomic                   Forces (Hartrees/Bohr)
 Number     Number              X              Y              Z
 -------------------------------------------------------------------
      1        6           0.000000453   -0.000000312   -0.000000946
      2        6          -0.000010314   -0.000000032   -0.000001221
      3        6          -0.000003956    0.000000987   -0.000002856
      4        6           0.000000327    0.000000039    0.000000501
      5        1          -0.000000882    0.000000138   -0.000000007
      6        1          -0.000001380   -0.000001515    0.000000544
      7        6           0.000028622   -0.000006086    0.000007219
      8        1           0.000043014    0.000007588   -0.000002732
      9        1           0.000005138   -0.000002325    0.000005837
     10        1          -0.000000901    0.000000103   -0.000001014
     11        1          -0.000000790    0.000000499   -0.000000228
     12        6           0.000023159   -0.000007638   -0.000012618
     13        6          -0.000032680    0.000001774    0.000007734
     14        6           0.000049595   -0.000007032   -0.000017573
     15        6          -0.000010076   -0.000023662    0.000004955
     16        6           0.000020559   -0.000011131    0.000000939
     17        6          -0.000003023    0.000003029   -0.000013208
     18        1           0.000002908    0.000002523   -0.000000059
     19        1          -0.000003165    0.000003180   -0.000004599
     20        6          -0.000027402    0.000016251   -0.000049774
     21        6          -0.000054798    0.000050821   -0.000064619
     22        1          -0.000006133    0.000000687    0.000007958
     23        1          -0.000027424   -0.000028111    0.000000232
     24        7           0.000002069   -0.000001262    0.000002667
     25        1          -0.000002306    0.000002166   -0.000002171
     26        1           0.000000365    0.000000735   -0.000001174
     27        1           0.000000072    0.000000457    0.000000214
     28        7          -0.000042339    0.000066571   -0.000044408
     29        7           0.000055924    0.000009017    0.000003037
     30        6           0.000008480   -0.000174190    0.000089105
     31        9          -0.000041394    0.000046372    0.000031640
     32        9          -0.000007615    0.000018341    0.000018128
     33        9           0.000052050    0.000017983    0.000032842
     34        1          -0.000016154    0.000014035    0.000005656
 -------------------------------------------------------------------
 Cartesian Forces:  Max     0.000174190 RMS     0.000028714
 FormGI is forming the generalized inverse of G from B-inverse, IUseBI=4.
 Leave Link  716 at Sun Nov 30 19:56:00 2025, MaxMem=   104857600 cpu:               0.0 elap:               0.0
 (Enter /home/zhouoh/g16/l103.exe)

 GradGradGradGradGradGradGradGradGradGradGradGradGradGradGradGradGradGrad
 Berny optimization.
 Red2BG is reusing G-inverse.
 Internal  Forces:  Max     0.000179108 RMS     0.000027674
 Search for a saddle point.
 Step number   4 out of a maximum of  204
 All quantities printed in internal units (Hartrees-Bohrs-Radians)
 Swapping is turned off.
 Second derivative matrix not updated -- analytic derivatives used.
 ITU=  0  0  0  0
     Eigenvalues ---   -0.01692   0.00061   0.00368   0.00813   0.00905
     Eigenvalues ---    0.01111   0.01160   0.01215   0.01265   0.01377
     Eigenvalues ---    0.01547   0.01610   0.01759   0.02018   0.02090
     Eigenvalues ---    0.02281   0.02364   0.02535   0.02589   0.02776
     Eigenvalues ---    0.02897   0.03072   0.03244   0.03282   0.03466
     Eigenvalues ---    0.03650   0.04076   0.04119   0.04335   0.04375
     Eigenvalues ---    0.05102   0.05156   0.05406   0.05817   0.06391
     Eigenvalues ---    0.06548   0.06770   0.07870   0.08067   0.08331
     Eigenvalues ---    0.08765   0.09224   0.09461   0.10534   0.10647
     Eigenvalues ---    0.11348   0.12161   0.12623   0.13185   0.13960
     Eigenvalues ---    0.14188   0.14417   0.15867   0.18156   0.18329
     Eigenvalues ---    0.19507   0.19761   0.20510   0.20888   0.22090
     Eigenvalues ---    0.23114   0.23421   0.24238   0.24473   0.24672
     Eigenvalues ---    0.25852   0.29034   0.30004   0.31397   0.31630
     Eigenvalues ---    0.33432   0.33469   0.33700   0.34330   0.34411
     Eigenvalues ---    0.34483   0.34503   0.34897   0.35569   0.36202
     Eigenvalues ---    0.36340   0.36666   0.36809   0.37115   0.38413
     Eigenvalues ---    0.39925   0.40295   0.41958   0.43751   0.45002
     Eigenvalues ---    0.45319   0.49574   0.52210   0.53156   0.57773
     Eigenvalues ---    0.58400
 Eigenvectors required to have negative eigenvalues:
                          R32       D91      D102       D94       A57
   1                   -0.93511  -0.12853   0.12771  -0.10661   0.10444
                         D101       D95       D99       D92      D100
   1                    0.09976   0.09763  -0.09522   0.07571  -0.06727
 RFO step:  Lambda0=1.946201774D-06 Lambda=-1.29723538D-05.
 Linear search not attempted -- option 19 set.
 Iteration  1 RMS(Cart)=  0.01163439 RMS(Int)=  0.00019252
 Iteration  2 RMS(Cart)=  0.00019953 RMS(Int)=  0.00000109
 Iteration  3 RMS(Cart)=  0.00000004 RMS(Int)=  0.00000109
 ITry= 1 IFail=0 DXMaxC= 6.86D-02 DCOld= 1.00D+10 DXMaxT= 3.00D-01 DXLimC= 3.00D+00 Rises=F
 Variable       Old X    -DE/DX   Delta X   Delta X   Delta X     New X
                                 (Linear)    (Quad)   (Total)
    R1        2.93765   0.00000   0.00000  -0.00015  -0.00015   2.93750
    R2        2.06643   0.00000   0.00000   0.00002   0.00002   2.06644
    R3        2.74461   0.00001   0.00000  -0.00007  -0.00007   2.74454
    R4        2.05998  -0.00000   0.00000  -0.00001  -0.00001   2.05997
    R5        2.90981  -0.00001   0.00000   0.00005   0.00005   2.90986
    R6        2.05801  -0.00000   0.00000   0.00001   0.00001   2.05802
    R7        2.83746  -0.00003   0.00000   0.00003   0.00003   2.83749
    R8        2.92988   0.00000   0.00000  -0.00011  -0.00011   2.92976
    R9        2.90828  -0.00001   0.00000   0.00007   0.00007   2.90835
   R10        2.05769   0.00000   0.00000   0.00002   0.00002   2.05771
   R11        2.84387  -0.00003   0.00000  -0.00003  -0.00003   2.84384
   R12        2.06618   0.00000   0.00000   0.00002   0.00002   2.06620
   R13        2.74914   0.00001   0.00000  -0.00008  -0.00008   2.74906
   R14        2.05944   0.00000   0.00000   0.00000   0.00000   2.05944
   R15        2.06146   0.00002   0.00000   0.00006   0.00006   2.06153
   R16        2.06048  -0.00000   0.00000  -0.00001  -0.00001   2.06047
   R17        2.58454  -0.00005   0.00000  -0.00016  -0.00016   2.58438
   R18        2.69852  -0.00000   0.00000  -0.00001  -0.00001   2.69851
   R19        2.65003  -0.00002   0.00000   0.00010   0.00010   2.65013
   R20        2.04882  -0.00000   0.00000  -0.00000  -0.00000   2.04882
   R21        2.68623  -0.00001   0.00000  -0.00014  -0.00014   2.68609
   R22        2.58582  -0.00009   0.00000  -0.00026  -0.00026   2.58557
   R23        2.67167  -0.00004   0.00000  -0.00027  -0.00027   2.67140
   R24        2.55972  -0.00000   0.00000   0.00041   0.00041   2.56012
   R25        2.57404  -0.00002   0.00000   0.00006   0.00006   2.57410
   R26        2.04482   0.00000   0.00000   0.00000   0.00000   2.04482
   R27        2.67339  -0.00001   0.00000   0.00061   0.00061   2.67400
   R28        2.04611  -0.00000   0.00000  -0.00003  -0.00003   2.04608
   R29        2.46876  -0.00007   0.00000  -0.00033  -0.00033   2.46844
   R30        2.04309  -0.00001   0.00000  -0.00002  -0.00002   2.04307
   R31        2.52302  -0.00006   0.00000   0.00053   0.00053   2.52355
   R32        4.44576   0.00018   0.00000  -0.00957  -0.00957   4.43619
   R33        1.90930   0.00000   0.00000   0.00000   0.00000   1.90931
   R34        1.91580  -0.00002   0.00000  -0.00007  -0.00007   1.91573
   R35        2.46977  -0.00001   0.00000  -0.00017  -0.00017   2.46961
   R36        2.47985   0.00002   0.00000   0.00057   0.00057   2.48043
   R37        2.48670  -0.00001   0.00000  -0.00059  -0.00059   2.48610
    A1        1.87193   0.00000   0.00000   0.00005   0.00005   1.87199
    A2        1.97855  -0.00000   0.00000   0.00001   0.00001   1.97855
    A3        1.93158   0.00000   0.00000  -0.00003  -0.00003   1.93154
    A4        1.91016  -0.00000   0.00000  -0.00005  -0.00005   1.91011
    A5        1.87636  -0.00000   0.00000  -0.00002  -0.00002   1.87634
    A6        1.89260   0.00000   0.00000   0.00004   0.00004   1.89263
    A7        1.87610   0.00001   0.00000   0.00038   0.00038   1.87648
    A8        1.92679   0.00000   0.00000  -0.00006  -0.00006   1.92674
    A9        1.89615   0.00002   0.00000   0.00054   0.00054   1.89669
   A10        2.00354  -0.00000   0.00000  -0.00013  -0.00013   2.00340
   A11        1.76185  -0.00002   0.00000  -0.00057  -0.00057   1.76128
   A12        1.98922  -0.00001   0.00000  -0.00013  -0.00013   1.98909
   A13        1.87991   0.00001   0.00000   0.00036   0.00036   1.88027
   A14        1.92957   0.00000   0.00000  -0.00005  -0.00005   1.92952
   A15        1.90061   0.00002   0.00000   0.00050   0.00050   1.90111
   A16        1.99808  -0.00000   0.00000  -0.00009  -0.00009   1.99798
   A17        1.76166  -0.00002   0.00000  -0.00053  -0.00053   1.76113
   A18        1.98434  -0.00001   0.00000  -0.00017  -0.00017   1.98417
   A19        1.88012   0.00000   0.00000   0.00002   0.00002   1.88014
   A20        1.97283  -0.00000   0.00000  -0.00001  -0.00001   1.97282
   A21        1.93197   0.00000   0.00000  -0.00002  -0.00002   1.93194
   A22        1.90826  -0.00000   0.00000  -0.00002  -0.00002   1.90823
   A23        1.87650   0.00000   0.00000  -0.00001  -0.00001   1.87649
   A24        1.89177   0.00000   0.00000   0.00004   0.00004   1.89182
   A25        1.75090   0.00001   0.00000  -0.00004  -0.00004   1.75086
   A26        1.94300  -0.00000   0.00000  -0.00035  -0.00035   1.94264
   A27        1.96310  -0.00001   0.00000   0.00027   0.00027   1.96338
   A28        1.94241  -0.00000   0.00000  -0.00032  -0.00032   1.94209
   A29        1.96558  -0.00001   0.00000   0.00025   0.00025   1.96584
   A30        1.89676   0.00001   0.00000   0.00015   0.00015   1.89691
   A31        2.27274  -0.00001   0.00000   0.00015   0.00015   2.27289
   A32        1.88854   0.00001   0.00000   0.00000   0.00000   1.88854
   A33        2.12141   0.00000   0.00000  -0.00010  -0.00010   2.12132
   A34        2.04650  -0.00001   0.00000  -0.00001  -0.00001   2.04649
   A35        2.13113   0.00001   0.00000   0.00005   0.00005   2.13118
   A36        2.10526   0.00000   0.00000  -0.00009  -0.00009   2.10518
   A37        2.13208   0.00001   0.00000   0.00001   0.00001   2.13209
   A38        2.11846  -0.00002   0.00000  -0.00017  -0.00017   2.11829
   A39        2.03263   0.00001   0.00000   0.00015   0.00015   2.03278
   A40        2.07530  -0.00000   0.00000   0.00002   0.00002   2.07532
   A41        2.12148   0.00002   0.00000   0.00008   0.00008   2.12156
   A42        2.08635  -0.00001   0.00000  -0.00009  -0.00009   2.08627
   A43        2.07318  -0.00001   0.00000  -0.00004  -0.00004   2.07314
   A44        2.05812   0.00001   0.00000   0.00010   0.00010   2.05822
   A45        2.15172   0.00000   0.00000  -0.00008  -0.00008   2.15163
   A46        1.88624   0.00000   0.00000   0.00001   0.00001   1.88625
   A47        2.27897  -0.00001   0.00000  -0.00001  -0.00002   2.27896
   A48        2.11753   0.00001   0.00000   0.00006   0.00006   2.11759
   A49        2.07717   0.00001   0.00000  -0.00014  -0.00014   2.07703
   A50        2.13531   0.00000   0.00000   0.00011   0.00011   2.13541
   A51        2.07018  -0.00001   0.00000  -0.00000  -0.00000   2.07017
   A52        2.14411  -0.00001   0.00000  -0.00006  -0.00006   2.14405
   A53        2.05543   0.00003   0.00000  -0.00040  -0.00040   2.05503
   A54        1.63118  -0.00001   0.00000  -0.00099  -0.00099   1.63020
   A55        2.05604  -0.00001   0.00000  -0.00047  -0.00047   2.05557
   A56        1.58169   0.00007   0.00000   0.00343   0.00343   1.58512
   A57        1.72217  -0.00006   0.00000   0.00129   0.00129   1.72346
   A58        2.00757   0.00000   0.00000  -0.00018  -0.00018   2.00739
   A59        1.94501   0.00000   0.00000   0.00013   0.00013   1.94514
   A60        1.94225  -0.00000   0.00000   0.00013   0.00013   1.94238
   A61        2.13290  -0.00002   0.00000  -0.00030  -0.00031   2.13259
   A62        2.06385  -0.00000   0.00000  -0.00005  -0.00005   2.06380
   A63        2.08280   0.00002   0.00000   0.00017   0.00017   2.08297
   A64        2.07663  -0.00004   0.00000  -0.00027  -0.00027   2.07635
   A65        1.91769  -0.00003   0.00000   0.00010   0.00010   1.91778
   A66        1.86304  -0.00002   0.00000  -0.00448  -0.00448   1.85856
   A67        1.79709   0.00011   0.00000   0.00466   0.00466   1.80176
   A68        1.96341  -0.00003   0.00000  -0.00065  -0.00066   1.96275
   A69        1.96381  -0.00002   0.00000   0.00050   0.00050   1.96431
   A70        1.94851  -0.00001   0.00000   0.00002   0.00002   1.94854
    D1       -1.08996  -0.00001   0.00000   0.00008   0.00008  -1.08988
    D2        1.10731  -0.00000   0.00000   0.00013   0.00013   1.10745
    D3       -2.98273   0.00001   0.00000   0.00031   0.00031  -2.98242
    D4        1.02052  -0.00001   0.00000   0.00006   0.00006   1.02057
    D5       -3.06540  -0.00000   0.00000   0.00011   0.00011  -3.06528
    D6       -0.87226   0.00000   0.00000   0.00029   0.00029  -0.87197
    D7       -3.13185  -0.00001   0.00000   0.00008   0.00008  -3.13177
    D8       -0.93458  -0.00000   0.00000   0.00014   0.00014  -0.93444
    D9        1.25856   0.00001   0.00000   0.00032   0.00032   1.25888
   D10       -0.75063   0.00000   0.00000  -0.00040  -0.00040  -0.75103
   D11        1.48090   0.00000   0.00000  -0.00025  -0.00025   1.48065
   D12        1.33814  -0.00000   0.00000  -0.00036  -0.00036   1.33778
   D13       -2.71351   0.00000   0.00000  -0.00021  -0.00021  -2.71372
   D14       -2.90302  -0.00000   0.00000  -0.00039  -0.00039  -2.90340
   D15       -0.67148   0.00000   0.00000  -0.00024  -0.00024  -0.67172
   D16       -1.22653   0.00001   0.00000   0.00062   0.00062  -1.22591
   D17        2.99962   0.00001   0.00000   0.00116   0.00116   3.00077
   D18        0.86603   0.00000   0.00000   0.00102   0.00102   0.86704
   D19        2.90575   0.00000   0.00000   0.00050   0.00050   2.90624
   D20        0.84871   0.00000   0.00000   0.00103   0.00103   0.84974
   D21       -1.28488  -0.00000   0.00000   0.00089   0.00089  -1.28398
   D22        0.75830   0.00003   0.00000   0.00111   0.00111   0.75941
   D23       -1.29873   0.00003   0.00000   0.00164   0.00164  -1.29709
   D24        2.85086   0.00002   0.00000   0.00150   0.00150   2.85237
   D25       -1.62141  -0.00002   0.00000  -0.00244  -0.00244  -1.62385
   D26        1.48622  -0.00001   0.00000  -0.00033  -0.00033   1.48589
   D27        2.69213  -0.00003   0.00000  -0.00280  -0.00280   2.68934
   D28       -0.48342  -0.00001   0.00000  -0.00069  -0.00069  -0.48411
   D29        0.53482  -0.00001   0.00000  -0.00219  -0.00219   0.53263
   D30       -2.64073   0.00001   0.00000  -0.00009  -0.00009  -2.64082
   D31        1.08190   0.00000   0.00000  -0.00012  -0.00012   1.08178
   D32       -1.02826   0.00001   0.00000  -0.00010  -0.00010  -1.02836
   D33        3.12896   0.00001   0.00000  -0.00013  -0.00013   3.12883
   D34       -1.11299   0.00000   0.00000  -0.00022  -0.00022  -1.11321
   D35        3.06005   0.00000   0.00000  -0.00020  -0.00020   3.05984
   D36        0.93408   0.00000   0.00000  -0.00023  -0.00023   0.93385
   D37        2.97822  -0.00001   0.00000  -0.00033  -0.00033   2.97789
   D38        0.86807  -0.00000   0.00000  -0.00031  -0.00031   0.86776
   D39       -1.25790  -0.00000   0.00000  -0.00034  -0.00034  -1.25824
   D40        1.23460  -0.00001   0.00000  -0.00061  -0.00061   1.23399
   D41       -2.99112  -0.00001   0.00000  -0.00117  -0.00117  -2.99229
   D42       -0.85616  -0.00000   0.00000  -0.00102  -0.00102  -0.85718
   D43       -2.89492  -0.00000   0.00000  -0.00046  -0.00046  -2.89538
   D44       -0.83745  -0.00000   0.00000  -0.00102  -0.00102  -0.83847
   D45        1.29750   0.00000   0.00000  -0.00087  -0.00087   1.29663
   D46       -0.75643  -0.00003   0.00000  -0.00106  -0.00106  -0.75749
   D47        1.30104  -0.00002   0.00000  -0.00162  -0.00162   1.29942
   D48       -2.84719  -0.00002   0.00000  -0.00147  -0.00147  -2.84866
   D49       -1.49570   0.00001   0.00000   0.00020   0.00020  -1.49550
   D50        1.61348   0.00002   0.00000   0.00230   0.00230   1.61578
   D51        0.47968   0.00001   0.00000   0.00053   0.00053   0.48022
   D52       -2.69433   0.00003   0.00000   0.00264   0.00264  -2.69169
   D53        2.62771  -0.00001   0.00000  -0.00001  -0.00001   2.62770
   D54       -0.54630   0.00001   0.00000   0.00210   0.00210  -0.54420
   D55        0.75250   0.00000   0.00000   0.00042   0.00042   0.75292
   D56       -1.48041  -0.00000   0.00000   0.00027   0.00027  -1.48014
   D57       -1.34160   0.00000   0.00000   0.00041   0.00041  -1.34119
   D58        2.70867  -0.00000   0.00000   0.00026   0.00026   2.70893
   D59        2.90091   0.00000   0.00000   0.00041   0.00041   2.90132
   D60        0.66799  -0.00000   0.00000   0.00027   0.00027   0.66826
   D61        3.12448   0.00005   0.00000   0.00365   0.00365   3.12813
   D62       -0.04327   0.00000   0.00000   0.00176   0.00176  -0.04151
   D63        0.02075   0.00003   0.00000   0.00130   0.00130   0.02205
   D64        3.13618  -0.00002   0.00000  -0.00059  -0.00059   3.13559
   D65        0.00252  -0.00000   0.00000   0.00010   0.00010   0.00262
   D66       -3.11025  -0.00002   0.00000  -0.00177  -0.00177  -3.11202
   D67        3.11368   0.00001   0.00000   0.00199   0.00199   3.11568
   D68        0.00092  -0.00000   0.00000   0.00012   0.00012   0.00104
   D69       -0.02360  -0.00003   0.00000  -0.00158  -0.00158  -0.02519
   D70        3.11257  -0.00007   0.00000  -0.00356  -0.00356   3.10902
   D71       -3.13945   0.00001   0.00000   0.00028   0.00028  -3.13917
   D72       -0.00327  -0.00002   0.00000  -0.00170  -0.00170  -0.00496
   D73        0.00496   0.00000   0.00000   0.00045   0.00045   0.00541
   D74       -3.12567  -0.00003   0.00000  -0.00081  -0.00081  -3.12649
   D75       -3.13147   0.00004   0.00000   0.00233   0.00233  -3.12914
   D76        0.02108   0.00001   0.00000   0.00107   0.00107   0.02215
   D77       -3.03693   0.00006   0.00000   0.00414   0.00414  -3.03279
   D78        0.01236   0.00001   0.00000   0.00185   0.00185   0.01421
   D79        0.09954   0.00003   0.00000   0.00227   0.00227   0.10181
   D80       -3.13436  -0.00002   0.00000  -0.00002  -0.00002  -3.13438
   D81        0.01711   0.00003   0.00000   0.00100   0.00100   0.01812
   D82        3.13958  -0.00001   0.00000  -0.00024  -0.00024   3.13934
   D83       -3.13521   0.00006   0.00000   0.00224   0.00224  -3.13297
   D84       -0.01274   0.00002   0.00000   0.00100   0.00100  -0.01174
   D85       -0.05817  -0.00003   0.00000  -0.00193  -0.00193  -0.06010
   D86        3.09445  -0.00006   0.00000  -0.00320  -0.00320   3.09125
   D87       -3.12572  -0.00005   0.00000  -0.00364  -0.00364  -3.12936
   D88       -0.02021  -0.00003   0.00000  -0.00130  -0.00130  -0.02151
   D89        0.03608  -0.00001   0.00000  -0.00233  -0.00233   0.03375
   D90       -3.14159   0.00001   0.00000   0.00002   0.00002  -3.14158
   D91       -0.15712  -0.00001   0.00000  -0.00200  -0.00200  -0.15912
   D92       -3.04269  -0.00001   0.00000   0.00231   0.00231  -3.04038
   D93        1.46572   0.00006   0.00000   0.00145   0.00145   1.46717
   D94        3.01997   0.00003   0.00000  -0.00072  -0.00072   3.01924
   D95        0.13440   0.00003   0.00000   0.00359   0.00359   0.13799
   D96       -1.64037   0.00010   0.00000   0.00272   0.00272  -1.63765
   D97       -0.01967   0.00002   0.00000  -0.00042  -0.00042  -0.02010
   D98       -3.12590   0.00005   0.00000   0.00085   0.00085  -3.12505
   D99       -0.17337  -0.00005   0.00000  -0.00445  -0.00445  -0.17782
   D100       3.06150   0.00001   0.00000  -0.00213  -0.00213   3.05937
   D101      -3.07207  -0.00005   0.00000  -0.00042  -0.00043  -3.07249
   D102       0.16280   0.00001   0.00000   0.00190   0.00190   0.16470
   D103       1.54730  -0.00009   0.00000  -0.00497  -0.00497   1.54233
   D104      -1.50102  -0.00003   0.00000  -0.00264  -0.00264  -1.50366
   D105      -1.08052   0.00006   0.00000   0.03969   0.03969  -1.04083
   D106       1.05314   0.00000   0.00000   0.03619   0.03620   1.08933
   D107       3.10697   0.00004   0.00000   0.03649   0.03649  -3.13973
   D108       1.06559   0.00005   0.00000   0.03985   0.03985   1.10544
   D109      -3.08393  -0.00001   0.00000   0.03635   0.03635  -3.04758
   D110      -1.03010   0.00003   0.00000   0.03665   0.03664  -0.99346
   D111       3.12966   0.00004   0.00000   0.04011   0.04011  -3.11341
   D112      -1.01986  -0.00002   0.00000   0.03661   0.03662  -0.98325
   D113       1.03397   0.00002   0.00000   0.03691   0.03691   1.07088
         Item               Value     Threshold  Converged?
 Maximum Force            0.000179     0.000450     YES
 RMS     Force            0.000028     0.000300     YES
 Maximum Displacement     0.068556     0.001800     NO 
 RMS     Displacement     0.011638     0.001200     NO 
 Predicted change in Energy=-5.599021D-06
 GradGradGradGradGradGradGradGradGradGradGradGradGradGradGradGradGradGrad

 Leave Link  103 at Sun Nov 30 19:56:01 2025, MaxMem=   104857600 cpu:               0.0 elap:               0.0
 (Enter /home/zhouoh/g16/l202.exe)
                          Input orientation:                          
 ---------------------------------------------------------------------
 Center     Atomic      Atomic             Coordinates (Angstroms)
 Number     Number       Type             X           Y           Z
 ---------------------------------------------------------------------
      1          6           0       -3.974477   -1.096166   -0.889405
      2          6           0       -2.962298   -1.472726    0.228647
      3          6           0       -3.142641    0.676460    1.196640
      4          6           0       -4.163118    1.129934    0.121180
      5          1           0       -4.945571   -1.507022   -0.599665
      6          1           0       -5.163271    1.045872    0.554907
      7          6           0       -3.435730   -0.797400    1.528987
      8          1           0       -2.850646   -1.133792    2.386081
      9          1           0       -4.491150   -0.979617    1.733331
     10          1           0       -2.850132   -2.554224    0.290492
     11          1           0       -3.168607    1.346224    2.054795
     12          6           0       -1.675947   -0.739373   -0.020538
     13          6           0       -0.554893   -1.128409   -0.700396
     14          6           0        0.499575   -0.207345   -0.780584
     15          6           0        0.413500    1.092654   -0.212234
     16          6           0       -0.771633    1.466818    0.461449
     17          6           0       -1.783330    0.560213    0.561444
     18          1           0       -0.461398   -2.114561   -1.141110
     19          1           0       -0.819239    2.459311    0.889906
     20          6           0        2.544359    1.602904   -0.886601
     21          6           0        2.731382    0.293400   -1.389098
     22          1           0        3.361131    2.310917   -0.949281
     23          1           0        3.601132    0.003975   -1.962376
     24          7           0       -4.097779    0.336097   -1.096119
     25          1           0       -3.383727    0.681911   -1.721718
     26          1           0       -4.006426    2.175922   -0.141583
     27          1           0       -3.692103   -1.558056   -1.835567
     28          7           0        1.674167   -0.522235   -1.407653
     29          7           0        1.433256    1.978959   -0.311886
     30          6           0        3.738291   -0.472249    0.588480
     31          9           0        4.813667    0.226768    0.839133
     32          9           0        2.835144   -0.359365    1.534241
     33          9           0        4.006502   -1.732250    0.321581
     34          1           0        1.762385   -1.440427   -1.828194
 ---------------------------------------------------------------------
                    Distance matrix (angstroms):
                    1          2          3          4          5
     1  C    0.000000
     2  C    1.554459   0.000000
     3  C    2.861073   2.364009   0.000000
     4  C    2.452018   2.868338   1.550364   0.000000
     5  H    1.093515   2.149569   3.353336   2.843482   0.000000
     6  H    2.843869   3.360664   2.152030   1.093385   2.810284
     7  C    2.495622   1.539834   1.539032   2.495122   2.704504
     8  H    3.463122   2.186747   2.185644   3.460753   3.666427
     9  H    2.675683   2.201049   2.202068   2.675228   2.434651
    10  H    2.186833   1.089056   3.368083   3.914795   2.505967
    11  H    3.909349   3.365095   1.088893   2.185108   4.283079
    12  C    2.483037   1.501533   2.374300   3.114549   3.408095
    13  C    3.424955   2.603320   3.681404   4.335249   4.408122
    14  C    4.562783   3.821558   4.237484   4.933782   5.601027
    15  C    4.950135   4.262812   3.847634   4.588898   5.968924
    16  C    4.318784   3.673436   2.605158   3.425119   5.233683
    17  C    3.106393   2.373513   1.504897   2.486323   3.952391
    18  H    3.666362   2.922788   4.521498   5.081620   4.557420
    19  H    5.075716   4.526686   2.944629   3.679635   5.914155
    20  C    7.055508   6.405197   6.127002   6.799233   8.114986
    21  C    6.866522   6.176916   6.429379   7.107380   7.924665
    22  H    8.088445   7.462522   7.040986   7.691224   9.148780
    23  H    7.729904   7.075298   7.477305   8.117423   8.785568
    24  N    1.452347   2.513198   2.506967   1.454738   2.088613
    25  H    2.050193   2.936663   2.928305   2.050475   2.913724
    26  H    3.356608   3.813124   2.187545   1.089811   3.828304
    27  H    1.090092   2.191089   3.806475   3.357976   1.761033
    28  N    5.701329   5.007766   5.605431   6.256268   6.741185
    29  N    6.247679   5.614909   4.991091   5.676952   7.274909
    30  C    7.877830   6.784419   7.002615   8.075743   8.825639
    31  F    9.053699   7.982895   7.977022   9.050627  10.015932
    32  F    7.265526   6.046031   6.076251   7.293177   8.149245
    33  F    8.097352   6.974250   7.594594   8.658808   9.002168
    34  H    5.823351   5.153083   6.139227   6.746733   6.819852
                    6          7          8          9         10
     6  H    0.000000
     7  C    2.707560   0.000000
     8  H    3.667746   1.090913   0.000000
     9  H    2.437834   1.090353   1.772315   0.000000
    10  H    4.287332   2.227830   2.531624   2.693346   0.000000
    11  H    2.513674   2.223276   2.522168   2.694809   4.292748
    12  C    3.959756   2.345471   2.706898   3.325529   2.183835
    13  C    5.247897   3.657722   3.846667   4.630257   2.878008
    14  C    5.951631   4.600969   4.702133   5.641233   4.227953
    15  C    5.629482   4.628253   4.728948   5.668785   4.919731
    16  C    4.412755   3.655644   3.845734   4.630068   4.529697
    17  C    3.414660   2.347271   2.708896   3.328165   3.303210
    18  H    5.913748   4.208442   4.371669   5.078328   2.819369
    19  H    4.580464   4.226183   4.390392   5.101032   5.442367
    20  C    7.861029   6.881714   6.877938   7.939259   6.911424
    21  C    8.165225   6.909293   6.888243   7.970890   6.487162
    22  H    8.748048   7.874057   7.847091   8.926496   7.986640
    23  H    9.178072   7.896153   7.863144   8.950459   7.296478
    24  N    2.089243   2.935015   3.980154   3.145097   3.439952
    25  H    2.912433   3.571856   4.522716   3.990542   3.847893
    26  H    1.760796   3.457911   4.321935   3.702390   4.888557
    27  H    3.828725   3.458981   4.325547   3.702715   2.494271
    28  N    7.284309   5.900052   5.936358   6.934415   5.242324
    29  N    6.718344   5.899492   5.943068   6.930705   6.265782
    30  C    9.030151   7.242711   6.861713   8.324170   6.915977
    31  F   10.014540   8.341305   7.936364   9.425210   8.171215
    32  F    8.179757   6.286157   5.801171   7.355198   6.219862
    33  F    9.584213   7.597275   7.186153   8.646940   6.905798
    34  H    7.734698   6.221298   6.255733   7.211345   5.196603
                   11         12         13         14         15
    11  H    0.000000
    12  C    3.299206   0.000000
    13  C    4.532812   1.367595   0.000000
    14  C    4.889634   2.365083   1.402388   0.000000
    15  C    4.246788   2.785473   2.471681   1.421418   0.000000
    16  C    2.880760   2.432565   2.851676   2.441606   1.413644
    17  C    2.183324   1.427991   2.439823   2.757144   2.389170
    18  H    5.433215   2.149873   1.084190   2.165853   3.451737
    19  H    2.848765   3.434303   3.933277   3.411871   2.145252
    20  C    6.430838   4.903805   4.135227   2.733016   2.292528
    21  C    6.912214   4.729071   3.646293   2.366853   2.719631
    22  H    7.252075   5.961458   5.217869   3.815574   3.273520
    23  H    7.985528   5.671936   4.488589   3.325799   3.795947
    24  N    3.436855   2.859858   3.854013   4.640104   4.658892
    25  H    3.840526   2.798317   3.510364   4.093476   4.106846
    26  H    2.492873   3.734265   4.810816   5.137347   4.551287
    27  H    4.883011   2.833629   3.363821   4.528529   5.149509
    28  N    6.239563   3.632423   2.415858   1.368224   2.371956
    29  N    5.213317   4.140212   3.709368   2.423090   1.354758
    30  C    7.291240   5.454927   4.530252   3.526158   3.760891
    31  F    8.151548   6.617216   5.747008   4.628534   4.606148
    32  F    6.262990   4.786615   4.132479   3.291870   3.320074
    33  F    7.997702   5.778674   4.713320   3.979779   4.601598
    34  H    6.867147   3.947305   2.595970   2.052478   3.293527
                   16         17         18         19         20
    16  C    0.000000
    17  C    1.362153   0.000000
    18  H    3.935825   3.435202   0.000000
    19  H    1.082074   2.154979   5.017308   0.000000
    20  C    3.582117   4.681125   4.787367   3.899128   0.000000
    21  C    4.131894   4.925284   4.006696   4.742566   1.415020
    22  H    4.447742   5.640278   5.850930   4.569477   1.082741
    23  H    5.209214   5.972562   4.654762   5.805503   2.197871
    24  N    3.842889   2.855594   4.385319   4.381913   6.765108
    25  H    3.493613   2.790861   4.086241   4.068947   6.057049
    26  H    3.366061   2.836709   5.654603   3.361911   6.617869
    27  H    4.791167   3.725068   3.351033   5.640992   7.055895
    28  N    3.664944   4.123508   2.677160   4.515026   2.354770
    29  N    2.392044   3.622426   4.586309   2.597840   1.306240
    30  C    4.910757   5.617385   4.829706   5.427336   2.812045
    31  F    5.733755   6.611254   6.101598   6.059410   3.165702
    32  F    4.182663   4.808562   4.594062   4.659895   3.129781
    33  F    5.751885   6.231780   4.716752   6.417161   3.836772
    34  H    4.485062   4.720702   2.423169   5.409326   3.280235
                   21         22         23         24         25
    21  C    0.000000
    22  H    2.158796   0.000000
    23  H    1.081147   2.530997   0.000000
    24  N    6.835576   7.717307   7.754607   0.000000
    25  H    6.136459   6.981649   7.021806   1.010363   0.000000
    26  H    7.106211   7.412928   8.118348   2.074715   2.262002
    27  H    6.699878   8.093365   7.459711   2.073444   2.263959
    28  N    1.335405   3.329069   2.073115   5.843728   5.208732
    29  N    2.384665   2.057467   3.365169   5.822917   5.183945
    30  C    2.347530   3.202026   2.598551   8.055762   7.575767
    31  F    3.050470   3.106760   3.060773   9.119816   8.600138
    32  F    2.997128   3.684420   3.597927   7.447677   7.096470
    33  F    2.942042   4.287050   2.897458   8.483355   8.038577
    34  H    2.034187   4.171458   2.342070   6.167130   5.567596
                   26         27         28         29         30
    26  H    0.000000
    27  H    4.112295   0.000000
    28  N    6.414992   5.482051   0.000000
    29  N    5.445910   6.411036   2.741298   0.000000
    30  C    8.217448   7.890864   2.871873   3.483141   0.000000
    31  F    9.085981   9.093280   3.932622   3.977713   1.306861
    32  F    7.486198   7.442944   3.166880   3.292603   1.312585
    33  F    8.927225   7.997008   3.145500   4.560258   1.315590
    34  H    7.014401   5.455761   1.013763   3.754959   3.268316
                   31         32         33         34
    31  F    0.000000
    32  F    2.177448   0.000000
    33  F    2.181084   2.174267   0.000000
    34  H    4.382293   3.691270   3.121338   0.000000
 Stoichiometry    C14H14F3N3(1+,2)
 Framework group  C1[X(C14H14F3N3)]
 Deg. of freedom    96
 Full point group                 C1      NOp   1
 RotChk:  IX=0 Diff= 2.84D-03
 Largest Abelian subgroup         C1      NOp   1
 Largest concise Abelian subgroup C1      NOp   1
                         Standard orientation:                         
 ---------------------------------------------------------------------
 Center     Atomic      Atomic             Coordinates (Angstroms)
 Number     Number       Type             X           Y           Z
 ---------------------------------------------------------------------
      1          6           0       -3.949153   -0.999670   -0.985032
      2          6           0       -2.932533   -1.486197    0.085536
      3          6           0       -3.107193    0.555766    1.263847
      4          6           0       -4.131875    1.114577    0.243365
      5          1           0       -4.919316   -1.437075   -0.733565
      6          1           0       -5.130246    0.987981    0.670823
      7          6           0       -3.399961   -0.943804    1.448771
      8          1           0       -2.811506   -1.364198    2.265520
      9          1           0       -4.454641   -1.145166    1.638437
     10          1           0       -2.820904   -2.568505    0.038712
     11          1           0       -3.129035    1.136594    2.184634
     12          6           0       -1.646706   -0.732047   -0.094760
     13          6           0       -0.528826   -1.051675   -0.814828
     14          6           0        0.525974   -0.127536   -0.807256
     15          6           0        0.443263    1.109312   -0.111701
     16          6           0       -0.738733    1.414777    0.601014
     17          6           0       -1.750667    0.503036    0.614408
     18          1           0       -0.437923   -1.988975   -1.352110
     19          1           0       -0.783793    2.359596    1.126536
     20          6           0        2.571626    1.683620   -0.740926
     21          6           0        2.755555    0.430714   -1.372337
     22          1           0        3.388649    2.394099   -0.736166
     23          1           0        3.622659    0.199647   -1.975345
     24          7           0       -4.072272    0.446108   -1.047317
     25          1           0       -3.360617    0.852379   -1.638353
     26          1           0       -3.975524    2.181510    0.085582
     27          1           0       -3.671125   -1.364962   -1.973750
     28          7           0        1.697670   -0.378671   -1.467631
     29          7           0        1.463242    2.000818   -0.126813
     30          6           0        3.770256   -0.528699    0.514674
     31          9           0        4.847198    0.141492    0.829196
     32          9           0        2.871201   -0.510438    1.470837
     33          9           0        4.036405   -1.755875    0.122274
     34          1           0        1.783430   -1.250361   -1.978039
 ---------------------------------------------------------------------
 Rotational constants (GHZ):           0.8744330           0.1806321           0.1751450
 Leave Link  202 at Sun Nov 30 19:56:01 2025, MaxMem=   104857600 cpu:               0.0 elap:               0.0
 (Enter /home/zhouoh/g16/l301.exe)
 Standard basis: STO-3G (5D, 7F)
 Ernie: Thresh=  0.10000D-02 Tol=  0.10000D-05 Strict=F.
 There are   114 symmetry adapted cartesian basis functions of A   symmetry.
 There are   114 symmetry adapted basis functions of A   symmetry.
   114 basis functions,   342 primitive gaussians,   114 cartesian basis functions
    73 alpha electrons       72 beta electrons
       nuclear repulsion energy      1607.7397249599 Hartrees.
 IExCor=    0 DFT=F Ex=HF Corr=None ExCW=0 ScaHFX=  1.000000
 ScaDFX=  1.000000  1.000000  1.000000  1.000000 ScalE2=  1.000000  1.000000
 IRadAn=      5 IRanWt=     -1 IRanGd=            0 ICorTp=0 IEmpDi=  4
 NAtoms=   34 NActive=   34 NUniq=   34 SFac= 1.00D+00 NAtFMM=   60 NAOKFM=F Big=F
 Integral buffers will be    131072 words long.
 Raffenetti 2 integral format.
 Two-electron integral symmetry is turned on.
 Leave Link  301 at Sun Nov 30 19:56:01 2025, MaxMem=   104857600 cpu:               0.0 elap:               0.0
 (Enter /home/zhouoh/g16/l402.exe)
 External calculation of energy, first and second derivatives.
 Running external command "python ../GauUMA_client.py R"
         input file       "/home/zhouoh/scratch/Gau-2679020.EIn"
         output file      "/home/zhouoh/scratch/Gau-2679020.EOu"
         message file     "/home/zhouoh/scratch/Gau-2679020.EMs"
         fchk file        "/home/zhouoh/scratch/Gau-2679020.EFC"
         mat. el file     "/home/zhouoh/scratch/Gau-2679020.EUF"
Sent job to server.
Received result from server:
SCF Done:  E(UMA) =  -1005.4624791898307     A.U.
 Recovered energy= -1005.46247919     dipole=      0.000000000000      0.000000000000      0.000000000000
 Energy=    -1005.46248     NIter=   0.
 Dipole moment=       0.000000       0.000000       0.000000
 Leave Link  402 at Sun Nov 30 19:56:08 2025, MaxMem=   104857600 cpu:               0.0 elap:               7.0
 (Enter /home/zhouoh/g16/l716.exe)
 Dipole        = 0.00000000D+00 0.00000000D+00 0.00000000D+00
 ***** Axes restored to original set *****
 -------------------------------------------------------------------
 Center     Atomic                   Forces (Hartrees/Bohr)
 Number     Number              X              Y              Z
 -------------------------------------------------------------------
      1        6          -0.000000270   -0.000000647   -0.000000299
      2        6           0.000000052    0.000000030    0.000000289
      3        6           0.000000252   -0.000000454    0.000000373
      4        6          -0.000000120   -0.000000179   -0.000000357
      5        1           0.000000047   -0.000000242   -0.000000457
      6        1           0.000000109   -0.000000626   -0.000000016
      7        6          -0.000001849    0.000000080   -0.000001778
      8        1          -0.000011671    0.000003719    0.000005043
      9        1           0.000000253   -0.000000516   -0.000000064
     10        1          -0.000000052   -0.000000384   -0.000000534
     11        1          -0.000000045   -0.000000560    0.000000122
     12        6           0.000000347   -0.000001472   -0.000002076
     13        6          -0.000003202   -0.000001015    0.000000709
     14        6           0.000005098   -0.000000757   -0.000003239
     15        6          -0.000001970   -0.000000806   -0.000000225
     16        6          -0.000001931    0.000000442    0.000000502
     17        6          -0.000000052    0.000000067    0.000001025
     18        1           0.000000386    0.000000472   -0.000000159
     19        1          -0.000000052   -0.000000148    0.000000225
     20        6          -0.000005044    0.000003880   -0.000002143
     21        6           0.000003244   -0.000001918    0.000001060
     22        1          -0.000000940   -0.000000255    0.000000664
     23        1          -0.000001068    0.000000937   -0.000000553
     24        7           0.000000342    0.000000629   -0.000000050
     25        1          -0.000000099   -0.000000465    0.000000195
     26        1          -0.000000139   -0.000000432    0.000000171
     27        1           0.000000082    0.000000074   -0.000000300
     28        7          -0.000007595    0.000001576   -0.000002524
     29        7           0.000005190    0.000000720   -0.000000438
     30        6          -0.000004459   -0.000001052    0.000004044
     31        9           0.000005384   -0.000000465    0.000002537
     32        9           0.000017145   -0.000000313   -0.000001964
     33        9           0.000003297   -0.000000604   -0.000000208
     34        1          -0.000000669    0.000000681    0.000000421
 -------------------------------------------------------------------
 Cartesian Forces:  Max     0.000017145 RMS     0.000002789
 FormGI is forming the generalized inverse of G from B-inverse, IUseBI=4.
 Leave Link  716 at Sun Nov 30 19:56:08 2025, MaxMem=   104857600 cpu:               0.0 elap:               0.0
 (Enter /home/zhouoh/g16/l103.exe)

 GradGradGradGradGradGradGradGradGradGradGradGradGradGradGradGradGradGrad
 Berny optimization.
 Red2BG is reusing G-inverse.
 Internal  Forces:  Max     0.000025450 RMS     0.000005253
 Search for a saddle point.
 Step number   5 out of a maximum of  204
 All quantities printed in internal units (Hartrees-Bohrs-Radians)
 Swapping is turned off.
 Second derivative matrix not updated -- analytic derivatives used.
 ITU=  0  0  0  0  0
     Eigenvalues ---   -0.01772   0.00062   0.00369   0.00812   0.00924
     Eigenvalues ---    0.01111   0.01168   0.01216   0.01284   0.01377
     Eigenvalues ---    0.01557   0.01652   0.01761   0.02021   0.02091
     Eigenvalues ---    0.02304   0.02401   0.02560   0.02639   0.02801
     Eigenvalues ---    0.02904   0.03072   0.03245   0.03353   0.03467
     Eigenvalues ---    0.03652   0.04099   0.04153   0.04335   0.04375
     Eigenvalues ---    0.05102   0.05155   0.05452   0.05816   0.06485
     Eigenvalues ---    0.06563   0.06770   0.07870   0.08067   0.08331
     Eigenvalues ---    0.08764   0.09222   0.09460   0.10533   0.10649
     Eigenvalues ---    0.11349   0.12155   0.12623   0.13182   0.13997
     Eigenvalues ---    0.14176   0.14435   0.15867   0.18163   0.18335
     Eigenvalues ---    0.19510   0.19768   0.20511   0.20889   0.22096
     Eigenvalues ---    0.23109   0.23419   0.24242   0.24494   0.24669
     Eigenvalues ---    0.25853   0.29026   0.30028   0.31400   0.31629
     Eigenvalues ---    0.33435   0.33471   0.33693   0.34330   0.34410
     Eigenvalues ---    0.34483   0.34506   0.34901   0.35572   0.36204
     Eigenvalues ---    0.36341   0.36670   0.36811   0.37109   0.38451
     Eigenvalues ---    0.39930   0.40299   0.41927   0.43771   0.45006
     Eigenvalues ---    0.45315   0.49576   0.52160   0.53169   0.57803
     Eigenvalues ---    0.58423
 Eigenvectors required to have negative eigenvalues:
                          R32       D91      D102       D94       A57
   1                   -0.93600  -0.12769   0.12689  -0.10611   0.10167
                         D101       D95       D99       D92      D100
   1                    0.09885   0.09791  -0.09576   0.07634  -0.06772
 RFO step:  Lambda0=5.883442761D-10 Lambda=-1.76435359D-07.
 Linear search not attempted -- option 19 set.
 Iteration  1 RMS(Cart)=  0.00112204 RMS(Int)=  0.00000056
 Iteration  2 RMS(Cart)=  0.00000078 RMS(Int)=  0.00000001
 ITry= 1 IFail=0 DXMaxC= 7.76D-03 DCOld= 1.00D+10 DXMaxT= 3.00D-01 DXLimC= 3.00D+00 Rises=F
 Variable       Old X    -DE/DX   Delta X   Delta X   Delta X     New X
                                 (Linear)    (Quad)   (Total)
    R1        2.93750   0.00000   0.00000   0.00002   0.00002   2.93752
    R2        2.06644  -0.00000   0.00000  -0.00000  -0.00000   2.06644
    R3        2.74454  -0.00000   0.00000   0.00001   0.00001   2.74455
    R4        2.05997   0.00000   0.00000   0.00000   0.00000   2.05998
    R5        2.90986   0.00001   0.00000   0.00000   0.00000   2.90987
    R6        2.05802   0.00000   0.00000  -0.00000  -0.00000   2.05802
    R7        2.83749   0.00001   0.00000   0.00001   0.00001   2.83749
    R8        2.92976   0.00000   0.00000   0.00002   0.00002   2.92978
    R9        2.90835   0.00000   0.00000  -0.00002  -0.00002   2.90833
   R10        2.05771  -0.00000   0.00000  -0.00000  -0.00000   2.05771
   R11        2.84384   0.00001   0.00000   0.00001   0.00001   2.84385
   R12        2.06620  -0.00000   0.00000  -0.00000  -0.00000   2.06620
   R13        2.74906  -0.00000   0.00000   0.00000   0.00000   2.74906
   R14        2.05944  -0.00000   0.00000  -0.00000  -0.00000   2.05944
   R15        2.06153  -0.00000   0.00000  -0.00001  -0.00001   2.06152
   R16        2.06047  -0.00000   0.00000   0.00000   0.00000   2.06047
   R17        2.58438   0.00001   0.00000   0.00002   0.00002   2.58439
   R18        2.69851   0.00000   0.00000  -0.00001  -0.00001   2.69850
   R19        2.65013   0.00001   0.00000   0.00001   0.00001   2.65014
   R20        2.04882  -0.00000   0.00000  -0.00000  -0.00000   2.04882
   R21        2.68609   0.00000   0.00000  -0.00000  -0.00000   2.68609
   R22        2.58557   0.00000   0.00000   0.00002   0.00002   2.58558
   R23        2.67140   0.00001   0.00000   0.00001   0.00001   2.67141
   R24        2.56012   0.00001   0.00000   0.00001   0.00001   2.56013
   R25        2.57410   0.00000   0.00000   0.00001   0.00001   2.57411
   R26        2.04482  -0.00000   0.00000   0.00000   0.00000   2.04482
   R27        2.67400   0.00000   0.00000   0.00001   0.00001   2.67401
   R28        2.04608  -0.00000   0.00000   0.00000   0.00000   2.04609
   R29        2.46844   0.00000   0.00000  -0.00001  -0.00001   2.46843
   R30        2.04307  -0.00000   0.00000  -0.00000  -0.00000   2.04307
   R31        2.52355   0.00001   0.00000   0.00001   0.00001   2.52356
   R32        4.43619   0.00001   0.00000   0.00006   0.00006   4.43625
   R33        1.90931  -0.00000   0.00000  -0.00000  -0.00000   1.90931
   R34        1.91573  -0.00000   0.00000  -0.00000  -0.00000   1.91573
   R35        2.46961   0.00000   0.00000   0.00004   0.00004   2.46965
   R36        2.48043  -0.00001   0.00000  -0.00007  -0.00007   2.48035
   R37        2.48610   0.00000   0.00000   0.00001   0.00001   2.48612
    A1        1.87199   0.00000   0.00000   0.00000   0.00000   1.87199
    A2        1.97855   0.00000   0.00000  -0.00001  -0.00001   1.97854
    A3        1.93154  -0.00000   0.00000   0.00000   0.00000   1.93155
    A4        1.91011   0.00000   0.00000   0.00001   0.00001   1.91012
    A5        1.87634  -0.00000   0.00000   0.00000   0.00000   1.87635
    A6        1.89263  -0.00000   0.00000  -0.00001  -0.00001   1.89262
    A7        1.87648  -0.00000   0.00000  -0.00006  -0.00006   1.87642
    A8        1.92674  -0.00000   0.00000   0.00000   0.00000   1.92674
    A9        1.89669  -0.00000   0.00000  -0.00009  -0.00009   1.89660
   A10        2.00340   0.00000   0.00000   0.00003   0.00003   2.00343
   A11        1.76128   0.00000   0.00000   0.00009   0.00009   1.76138
   A12        1.98909   0.00000   0.00000   0.00002   0.00002   1.98912
   A13        1.88027  -0.00000   0.00000  -0.00006  -0.00006   1.88021
   A14        1.92952   0.00000   0.00000   0.00000   0.00000   1.92953
   A15        1.90111  -0.00000   0.00000  -0.00006  -0.00006   1.90105
   A16        1.99798  -0.00000   0.00000   0.00001   0.00001   1.99799
   A17        1.76113   0.00000   0.00000   0.00007   0.00007   1.76120
   A18        1.98417   0.00000   0.00000   0.00003   0.00003   1.98420
   A19        1.88014  -0.00000   0.00000  -0.00001  -0.00001   1.88012
   A20        1.97282   0.00000   0.00000   0.00000   0.00000   1.97283
   A21        1.93194  -0.00000   0.00000   0.00001   0.00001   1.93195
   A22        1.90823  -0.00000   0.00000  -0.00000  -0.00000   1.90823
   A23        1.87649   0.00000   0.00000   0.00001   0.00001   1.87650
   A24        1.89182  -0.00000   0.00000  -0.00000  -0.00000   1.89181
   A25        1.75086  -0.00000   0.00000   0.00000   0.00000   1.75086
   A26        1.94264   0.00001   0.00000   0.00012   0.00012   1.94277
   A27        1.96338   0.00000   0.00000  -0.00005  -0.00005   1.96333
   A28        1.94209  -0.00000   0.00000   0.00003   0.00003   1.94212
   A29        1.96584   0.00000   0.00000  -0.00004  -0.00004   1.96580
   A30        1.89691  -0.00000   0.00000  -0.00006  -0.00006   1.89686
   A31        2.27289   0.00000   0.00000  -0.00001  -0.00001   2.27288
   A32        1.88854  -0.00000   0.00000  -0.00000  -0.00000   1.88854
   A33        2.12132  -0.00000   0.00000  -0.00000  -0.00000   2.12132
   A34        2.04649   0.00000   0.00000   0.00002   0.00002   2.04650
   A35        2.13118  -0.00000   0.00000  -0.00000  -0.00000   2.13118
   A36        2.10518  -0.00000   0.00000  -0.00001  -0.00001   2.10517
   A37        2.13209  -0.00000   0.00000  -0.00001  -0.00001   2.13208
   A38        2.11829   0.00000   0.00000   0.00002   0.00002   2.11831
   A39        2.03278  -0.00000   0.00000  -0.00000  -0.00000   2.03278
   A40        2.07532  -0.00000   0.00000   0.00000   0.00000   2.07532
   A41        2.12156  -0.00000   0.00000  -0.00001  -0.00001   2.12155
   A42        2.08627   0.00000   0.00000   0.00001   0.00001   2.08627
   A43        2.07314   0.00000   0.00000   0.00001   0.00001   2.07315
   A44        2.05822  -0.00000   0.00000  -0.00000  -0.00000   2.05821
   A45        2.15163  -0.00000   0.00000  -0.00000  -0.00000   2.15163
   A46        1.88625  -0.00000   0.00000   0.00000   0.00000   1.88625
   A47        2.27896   0.00000   0.00000  -0.00000  -0.00000   2.27896
   A48        2.11759  -0.00000   0.00000  -0.00001  -0.00001   2.11758
   A49        2.07703  -0.00000   0.00000  -0.00000  -0.00000   2.07703
   A50        2.13541   0.00000   0.00000   0.00002   0.00002   2.13543
   A51        2.07017  -0.00000   0.00000  -0.00002  -0.00002   2.07016
   A52        2.14405   0.00000   0.00000   0.00000   0.00000   2.14405
   A53        2.05503  -0.00001   0.00000  -0.00003  -0.00003   2.05500
   A54        1.63020   0.00000   0.00000   0.00018   0.00018   1.63038
   A55        2.05557   0.00000   0.00000   0.00000   0.00000   2.05558
   A56        1.58512  -0.00002   0.00000  -0.00054  -0.00054   1.58458
   A57        1.72346   0.00002   0.00000   0.00045   0.00045   1.72391
   A58        2.00739  -0.00000   0.00000   0.00003   0.00003   2.00742
   A59        1.94514  -0.00000   0.00000  -0.00001  -0.00001   1.94513
   A60        1.94238   0.00000   0.00000  -0.00000  -0.00000   1.94238
   A61        2.13259   0.00001   0.00000   0.00006   0.00006   2.13265
   A62        2.06380  -0.00000   0.00000  -0.00002  -0.00002   2.06378
   A63        2.08297  -0.00000   0.00000  -0.00001  -0.00001   2.08296
   A64        2.07635   0.00001   0.00000   0.00003   0.00003   2.07638
   A65        1.91778   0.00000   0.00000  -0.00026  -0.00026   1.91753
   A66        1.85856   0.00002   0.00000   0.00033   0.00033   1.85888
   A67        1.80176  -0.00000   0.00000  -0.00008  -0.00008   1.80168
   A68        1.96275  -0.00001   0.00000   0.00001   0.00001   1.96276
   A69        1.96431  -0.00000   0.00000  -0.00005  -0.00005   1.96426
   A70        1.94854  -0.00000   0.00000   0.00005   0.00005   1.94858
    D1       -1.08988   0.00000   0.00000  -0.00000  -0.00000  -1.08989
    D2        1.10745   0.00000   0.00000  -0.00001  -0.00001   1.10744
    D3       -2.98242  -0.00000   0.00000  -0.00004  -0.00004  -2.98247
    D4        1.02057   0.00000   0.00000   0.00000   0.00000   1.02058
    D5       -3.06528   0.00000   0.00000  -0.00000  -0.00000  -3.06528
    D6       -0.87197  -0.00000   0.00000  -0.00003  -0.00003  -0.87200
    D7       -3.13177   0.00000   0.00000  -0.00001  -0.00001  -3.13178
    D8       -0.93444   0.00000   0.00000  -0.00002  -0.00002  -0.93446
    D9        1.25888  -0.00000   0.00000  -0.00005  -0.00005   1.25883
   D10       -0.75103  -0.00000   0.00000   0.00005   0.00005  -0.75098
   D11        1.48065  -0.00000   0.00000   0.00006   0.00006   1.48071
   D12        1.33778   0.00000   0.00000   0.00006   0.00006   1.33784
   D13       -2.71372   0.00000   0.00000   0.00007   0.00007  -2.71365
   D14       -2.90340   0.00000   0.00000   0.00006   0.00006  -2.90334
   D15       -0.67172   0.00000   0.00000   0.00007   0.00007  -0.67165
   D16       -1.22591  -0.00000   0.00000  -0.00011  -0.00011  -1.22602
   D17        3.00077  -0.00000   0.00000  -0.00019  -0.00019   3.00058
   D18        0.86704  -0.00000   0.00000  -0.00017  -0.00017   0.86687
   D19        2.90624  -0.00000   0.00000  -0.00008  -0.00008   2.90616
   D20        0.84974   0.00000   0.00000  -0.00016  -0.00016   0.84958
   D21       -1.28398   0.00000   0.00000  -0.00014  -0.00014  -1.28413
   D22        0.75941  -0.00000   0.00000  -0.00019  -0.00019   0.75922
   D23       -1.29709  -0.00000   0.00000  -0.00027  -0.00027  -1.29736
   D24        2.85237  -0.00000   0.00000  -0.00025  -0.00025   2.85212
   D25       -1.62385   0.00001   0.00000   0.00043   0.00043  -1.62342
   D26        1.48589   0.00000   0.00000   0.00010   0.00010   1.48599
   D27        2.68934   0.00001   0.00000   0.00049   0.00049   2.68982
   D28       -0.48411   0.00000   0.00000   0.00016   0.00016  -0.48395
   D29        0.53263   0.00000   0.00000   0.00038   0.00038   0.53301
   D30       -2.64082  -0.00000   0.00000   0.00005   0.00005  -2.64077
   D31        1.08178  -0.00000   0.00000   0.00001   0.00001   1.08179
   D32       -1.02836  -0.00000   0.00000   0.00002   0.00002  -1.02833
   D33        3.12883  -0.00000   0.00000   0.00002   0.00002   3.12885
   D34       -1.11321   0.00000   0.00000   0.00004   0.00004  -1.11317
   D35        3.05984   0.00000   0.00000   0.00005   0.00005   3.05989
   D36        0.93385   0.00000   0.00000   0.00004   0.00004   0.93389
   D37        2.97789   0.00000   0.00000   0.00004   0.00004   2.97793
   D38        0.86776   0.00000   0.00000   0.00005   0.00005   0.86781
   D39       -1.25824   0.00000   0.00000   0.00005   0.00005  -1.25819
   D40        1.23399   0.00000   0.00000   0.00009   0.00009   1.23408
   D41       -2.99229   0.00000   0.00000   0.00024   0.00024  -2.99204
   D42       -0.85718   0.00000   0.00000   0.00016   0.00016  -0.85702
   D43       -2.89538  -0.00000   0.00000   0.00006   0.00006  -2.89532
   D44       -0.83847   0.00000   0.00000   0.00021   0.00021  -0.83826
   D45        1.29663  -0.00000   0.00000   0.00013   0.00013   1.29676
   D46       -0.75749   0.00000   0.00000   0.00014   0.00014  -0.75734
   D47        1.29942   0.00001   0.00000   0.00030   0.00030   1.29972
   D48       -2.84866   0.00000   0.00000   0.00022   0.00022  -2.84845
   D49       -1.49550   0.00000   0.00000   0.00002   0.00002  -1.49548
   D50        1.61578  -0.00000   0.00000  -0.00027  -0.00027   1.61550
   D51        0.48022   0.00000   0.00000  -0.00003  -0.00003   0.48019
   D52       -2.69169  -0.00000   0.00000  -0.00033  -0.00033  -2.69202
   D53        2.62770   0.00000   0.00000   0.00004   0.00004   2.62775
   D54       -0.54420  -0.00000   0.00000  -0.00025  -0.00025  -0.54446
   D55        0.75292  -0.00000   0.00000  -0.00006  -0.00006   0.75286
   D56       -1.48014   0.00000   0.00000  -0.00007  -0.00007  -1.48022
   D57       -1.34119  -0.00000   0.00000  -0.00005  -0.00005  -1.34124
   D58        2.70893   0.00000   0.00000  -0.00006  -0.00006   2.70887
   D59        2.90132   0.00000   0.00000  -0.00005  -0.00005   2.90127
   D60        0.66826   0.00000   0.00000  -0.00006  -0.00006   0.66819
   D61        3.12813  -0.00001   0.00000  -0.00050  -0.00050   3.12764
   D62       -0.04151   0.00000   0.00000  -0.00025  -0.00025  -0.04176
   D63        0.02205  -0.00000   0.00000  -0.00013  -0.00013   0.02192
   D64        3.13559   0.00000   0.00000   0.00012   0.00012   3.13571
   D65        0.00262  -0.00000   0.00000  -0.00008  -0.00008   0.00254
   D66       -3.11202   0.00000   0.00000   0.00018   0.00018  -3.11183
   D67        3.11568  -0.00000   0.00000  -0.00038  -0.00038   3.11530
   D68        0.00104  -0.00000   0.00000  -0.00011  -0.00011   0.00093
   D69       -0.02519   0.00001   0.00000   0.00023   0.00023  -0.02495
   D70        3.10902   0.00001   0.00000   0.00054   0.00054   3.10956
   D71       -3.13917  -0.00000   0.00000  -0.00001  -0.00001  -3.13918
   D72       -0.00496   0.00000   0.00000   0.00030   0.00030  -0.00467
   D73        0.00541  -0.00000   0.00000  -0.00010  -0.00010   0.00531
   D74       -3.12649   0.00001   0.00000   0.00016   0.00016  -3.12633
   D75       -3.12914  -0.00001   0.00000  -0.00039  -0.00039  -3.12953
   D76        0.02215  -0.00000   0.00000  -0.00013  -0.00013   0.02202
   D77       -3.03279  -0.00001   0.00000  -0.00050  -0.00050  -3.03329
   D78        0.01421  -0.00000   0.00000  -0.00014  -0.00014   0.01406
   D79        0.10181  -0.00000   0.00000  -0.00021  -0.00021   0.10160
   D80       -3.13438   0.00001   0.00000   0.00015   0.00015  -3.13423
   D81        0.01812  -0.00000   0.00000  -0.00014  -0.00014   0.01797
   D82        3.13934   0.00000   0.00000   0.00009   0.00009   3.13944
   D83       -3.13297  -0.00001   0.00000  -0.00040  -0.00040  -3.13337
   D84       -0.01174  -0.00000   0.00000  -0.00016  -0.00016  -0.01190
   D85       -0.06010   0.00001   0.00000   0.00029   0.00029  -0.05981
   D86        3.09125   0.00001   0.00000   0.00055   0.00055   3.09180
   D87       -3.12936   0.00001   0.00000   0.00058   0.00058  -3.12878
   D88       -0.02151   0.00001   0.00000   0.00025   0.00025  -0.02126
   D89        0.03375   0.00000   0.00000   0.00033   0.00033   0.03408
   D90       -3.14158  -0.00000   0.00000  -0.00000  -0.00000  -3.14158
   D91       -0.15912  -0.00000   0.00000  -0.00028  -0.00028  -0.15940
   D92       -3.04038   0.00001   0.00000  -0.00019  -0.00019  -3.04057
   D93        1.46717  -0.00002   0.00000  -0.00080  -0.00080   1.46637
   D94        3.01924  -0.00001   0.00000  -0.00031  -0.00031   3.01893
   D95        0.13799   0.00000   0.00000  -0.00023  -0.00023   0.13776
   D96       -1.63765  -0.00003   0.00000  -0.00084  -0.00084  -1.63848
   D97       -0.02010  -0.00001   0.00000  -0.00011  -0.00011  -0.02020
   D98       -3.12505  -0.00001   0.00000  -0.00014  -0.00014  -3.12520
   D99       -0.17782   0.00000   0.00000   0.00039   0.00039  -0.17743
   D100       3.05937  -0.00001   0.00000   0.00003   0.00003   3.05940
   D101      -3.07249   0.00001   0.00000   0.00047   0.00047  -3.07203
   D102       0.16470   0.00000   0.00000   0.00010   0.00010   0.16481
   D103       1.54233   0.00002   0.00000   0.00084   0.00084   1.54317
   D104      -1.50366   0.00001   0.00000   0.00048   0.00048  -1.50319
   D105      -1.04083  -0.00001   0.00000  -0.00137  -0.00137  -1.04221
   D106       1.08933  -0.00000   0.00000  -0.00131  -0.00131   1.08802
   D107      -3.13973  -0.00000   0.00000  -0.00115  -0.00115  -3.14088
   D108       1.10544  -0.00000   0.00000  -0.00140  -0.00140   1.10404
   D109      -3.04758  -0.00000   0.00000  -0.00134  -0.00134  -3.04892
   D110      -0.99346   0.00000   0.00000  -0.00118  -0.00118  -0.99464
   D111      -3.11341  -0.00000   0.00000  -0.00145  -0.00145  -3.11486
   D112      -0.98325  -0.00000   0.00000  -0.00139  -0.00139  -0.98463
   D113       1.07088   0.00000   0.00000  -0.00123  -0.00123   1.06965
         Item               Value     Threshold  Converged?
 Maximum Force            0.000025     0.000450     YES
 RMS     Force            0.000005     0.000300     YES
 Maximum Displacement     0.007756     0.001800     NO 
 RMS     Displacement     0.001122     0.001200     YES
 Predicted change in Energy=-8.792351D-08
 GradGradGradGradGradGradGradGradGradGradGradGradGradGradGradGradGradGrad

 Leave Link  103 at Sun Nov 30 19:56:08 2025, MaxMem=   104857600 cpu:               0.0 elap:               0.0
 (Enter /home/zhouoh/g16/l202.exe)
                          Input orientation:                          
 ---------------------------------------------------------------------
 Center     Atomic      Atomic             Coordinates (Angstroms)
 Number     Number       Type             X           Y           Z
 ---------------------------------------------------------------------
      1          6           0       -3.974286   -1.096152   -0.889780
      2          6           0       -2.962802   -1.472791    0.228889
      3          6           0       -3.143331    0.676489    1.196636
      4          6           0       -4.163107    1.130084    0.120546
      5          1           0       -4.945606   -1.506854   -0.600585
      6          1           0       -5.163518    1.046260    0.553722
      7          6           0       -3.436963   -0.797281    1.528869
      8          1           0       -2.852663   -1.133728    2.386467
      9          1           0       -4.492580   -0.979231    1.732432
     10          1           0       -2.850831   -2.554300    0.290871
     11          1           0       -3.169675    1.346306    2.054735
     12          6           0       -1.676233   -0.739621   -0.019735
     13          6           0       -0.555052   -1.128710   -0.699368
     14          6           0        0.499398   -0.207618   -0.779558
     15          6           0        0.413279    1.092367   -0.211186
     16          6           0       -0.771914    1.466529    0.462407
     17          6           0       -1.783703    0.559993    0.562156
     18          1           0       -0.461533   -2.114850   -1.140106
     19          1           0       -0.819578    2.459046    0.890802
     20          6           0        2.543887    1.602939   -0.886169
     21          6           0        2.730932    0.293530   -1.388923
     22          1           0        3.360520    2.311094   -0.949074
     23          1           0        3.600384    0.004391   -1.962796
     24          7           0       -4.097250    0.336123   -1.096647
     25          1           0       -3.382815    0.681772   -1.721899
     26          1           0       -4.006054    2.176014   -0.142227
     27          1           0       -3.691425   -1.558129   -1.835755
     28          7           0        1.673876   -0.522327   -1.406949
     29          7           0        1.432947    1.978765   -0.310996
     30          6           0        3.740487   -0.472122    0.587345
     31          9           0        4.816771    0.226356    0.835696
     32          9           0        2.839249   -0.358403    1.534771
     33          9           0        4.007507   -1.732355    0.320315
     34          1           0        1.762055   -1.440463   -1.827621
 ---------------------------------------------------------------------
                    Distance matrix (angstroms):
                    1          2          3          4          5
     1  C    0.000000
     2  C    1.554471   0.000000
     3  C    2.861097   2.364006   0.000000
     4  C    2.452048   2.868349   1.550375   0.000000
     5  H    1.093514   2.149582   3.353384   2.843549   0.000000
     6  H    2.843923   3.360697   2.152028   1.093384   2.810391
     7  C    2.495577   1.539835   1.539024   2.495074   2.704455
     8  H    3.463127   2.186832   2.185651   3.460709   3.666349
     9  H    2.675499   2.201015   2.202035   2.675059   2.434458
    10  H    2.186844   1.089055   3.368080   3.914814   2.505977
    11  H    3.909370   3.365088   1.088891   2.185120   4.283127
    12  C    2.482971   1.501536   2.374300   3.114486   3.408055
    13  C    3.424687   2.603327   3.681408   4.335029   4.407916
    14  C    4.562400   3.821578   4.237506   4.933416   5.600725
    15  C    4.949832   4.262819   3.847648   4.588549   5.968688
    16  C    4.318672   3.673434   2.605162   3.424946   5.233609
    17  C    3.106379   2.373510   1.504899   2.486280   3.952398
    18  H    3.666039   2.922795   4.521501   5.081386   4.557154
    19  H    5.075637   4.526685   2.944635   3.679487   5.914111
    20  C    7.054905   6.405239   6.127057   6.798591   8.114486
    21  C    6.865880   6.177039   6.429521   7.106764   7.924147
    22  H    8.087782   7.462558   7.041028   7.690503   9.148218
    23  H    7.729048   7.075377   7.477394   8.116606   8.784841
    24  N    1.452352   2.513203   2.506982   1.454741   2.088623
    25  H    2.050189   2.936687   2.928349   2.050474   2.913717
    26  H    3.356623   3.813120   2.187560   1.089810   3.828363
    27  H    1.090092   2.191103   3.806483   3.357988   1.761035
    28  N    5.700743   5.007807   5.605470   6.255723   6.740702
    29  N    6.247262   5.614920   4.991112   5.676470   7.274568
    30  C    7.879660   6.787040   7.005533   8.077857   8.827801
    31  F    9.055881   7.986055   7.980985   9.053529  10.018530
    32  F    7.269593   6.050700   6.080838   7.297165   8.153690
    33  F    8.098031   6.975739   7.596377   8.659815   9.003174
    34  H    5.822688   5.153110   6.139252   6.746155   6.819292
                    6          7          8          9         10
     6  H    0.000000
     7  C    2.707498   0.000000
     8  H    3.667608   1.090907   0.000000
     9  H    2.437648   1.090354   1.772276   0.000000
    10  H    4.287382   2.227848   2.531709   2.693377   0.000000
    11  H    2.513658   2.223273   2.522124   2.694825   4.292739
    12  C    3.959720   2.345564   2.707234   3.325555   2.183854
    13  C    5.247732   3.657909   3.847261   4.630349   2.878104
    14  C    5.951341   4.601247   4.702947   5.641395   4.228093
    15  C    5.629199   4.628491   4.729660   5.668918   4.919823
    16  C    4.412612   3.655770   3.846148   4.630125   4.529722
    17  C    3.414626   2.347337   2.709146   3.328178   3.303207
    18  H    5.913571   4.208634   4.372278   5.078429   2.819496
    19  H    4.580328   4.226286   4.390726   5.101082   5.442384
    20  C    7.860488   6.882153   6.879116   7.939556   6.911660
    21  C    8.164730   6.909870   6.889642   7.971318   6.487521
    22  H    8.747423   7.874513   7.848329   8.926807   7.986889
    23  H    9.177382   7.896750   7.864682   8.950883   7.296855
    24  N    2.089244   2.934948   3.980144   3.144858   3.439958
    25  H    2.912423   3.571838   4.522807   3.990353   3.847911
    26  H    1.760799   3.457876   4.321920   3.702246   4.888557
    27  H    3.828773   3.458950   4.325598   3.702557   2.494293
    28  N    7.283862   5.900449   5.937455   6.934671   5.242564
    29  N    6.717935   5.899793   5.943936   6.930889   6.265914
    30  C    9.032603   7.246240   6.866163   8.327772   6.918731
    31  F   10.017880   8.345804   7.941973   9.429825   8.174412
    32  F    8.184119   6.291540   5.807269   7.360721   6.224649
    33  F    9.585555   7.599677   7.189524   8.649436   6.907478
    34  H    7.734218   6.221695   6.256855   7.211599   5.196860
                   11         12         13         14         15
    11  H    0.000000
    12  C    3.299225   0.000000
    13  C    4.532885   1.367603   0.000000
    14  C    4.889784   2.365107   1.402393   0.000000
    15  C    4.246933   2.785480   2.471674   1.421416   0.000000
    16  C    2.880836   2.432560   2.851669   2.441614   1.413651
    17  C    2.183345   1.427986   2.439825   2.757168   2.389187
    18  H    5.433290   2.149879   1.084190   2.165853   3.451729
    19  H    2.848839   3.434299   3.933270   3.411876   2.145257
    20  C    6.431140   4.903846   4.135242   2.733023   2.292548
    21  C    6.912617   4.729184   3.646361   2.366901   2.719691
    22  H    7.252387   5.961494   5.217883   3.815581   3.273530
    23  H    7.985925   5.672012   4.488632   3.325825   3.795980
    24  N    3.436870   2.859771   3.853665   4.639545   4.658414
    25  H    3.840573   2.798240   3.509938   4.092751   4.106237
    26  H    2.492907   3.734167   4.810512   5.136827   4.550775
    27  H    4.883019   2.833529   3.363423   4.527961   5.149073
    28  N    6.239794   3.632466   2.415883   1.368232   2.371959
    29  N    5.213523   4.140224   3.709363   2.423083   1.354764
    30  C    7.294536   5.457193   4.531930   3.527469   3.762391
    31  F    8.156204   6.619968   5.748835   4.630020   4.608327
    32  F    6.267660   4.790761   4.135943   3.294503   3.322413
    33  F    7.999893   5.779796   4.713924   3.980121   4.602175
    34  H    6.867366   3.947334   2.595982   2.052473   3.293522
                   16         17         18         19         20
    16  C    0.000000
    17  C    1.362158   0.000000
    18  H    3.935817   3.435202   0.000000
    19  H    1.082074   2.154983   5.017301   0.000000
    20  C    3.582151   4.681177   4.787378   3.899159   0.000000
    21  C    4.131983   4.925408   4.006750   4.742650   1.415026
    22  H    4.447761   5.640319   5.850945   4.569491   1.082742
    23  H    5.209266   5.972644   4.654801   5.805551   2.197878
    24  N    3.842698   2.855564   4.384928   4.381769   6.764158
    25  H    3.493400   2.790860   4.085764   4.068796   6.055807
    26  H    3.365800   2.836639   5.654282   3.361679   6.616917
    27  H    4.790996   3.725026   3.350532   5.640861   7.055011
    28  N    3.664960   4.123548   2.677183   4.515037   2.354758
    29  N    2.392060   3.622451   4.586302   2.597856   1.306238
    30  C    4.912814   5.619838   4.831109   5.429367   2.812289
    31  F    5.736792   6.614560   6.102912   6.062703   3.166354
    32  F    4.185790   4.812600   4.597307   4.662588   3.129704
    33  F    5.752905   6.233094   4.717144   6.418258   3.836922
    34  H    4.485067   4.720726   2.423183   5.409327   3.280227
                   21         22         23         24         25
    21  C    0.000000
    22  H    2.158798   0.000000
    23  H    1.081147   2.531017   0.000000
    24  N    6.834567   7.716257   7.753311   0.000000
    25  H    6.135105   6.980295   7.020111   1.010362   0.000000
    26  H    7.105278   7.411859   8.117162   2.074714   2.261979
    27  H    6.698878   8.092405   7.458424   2.073442   2.263926
    28  N    1.335409   3.329068   2.073121   5.842869   5.207608
    29  N    2.384682   2.057455   3.365172   5.822251   5.183089
    30  C    2.347564   3.201757   2.598059   8.057246   7.576643
    31  F    3.050273   3.106800   3.059481   9.121720   8.601274
    32  F    2.997455   3.683399   3.597766   7.451291   7.099433
    33  F    2.941998   4.287123   2.897349   8.483717   8.038377
    34  H    2.034186   4.171465   2.342078   6.166200   5.566395
                   26         27         28         29         30
    26  H    0.000000
    27  H    4.112281   0.000000
    28  N    6.414216   5.481169   0.000000
    29  N    5.445192   6.410437   2.741281   0.000000
    30  C    8.219111   7.892030   2.872388   3.484050   0.000000
    31  F    9.088440   9.094528   3.932909   3.979461   1.306881
    32  F    7.489577   7.446441   3.168388   3.293463   1.312547
    33  F    8.927846   7.997033   3.145385   4.560627   1.315596
    34  H    7.013596   5.454755   1.013762   3.754941   3.268629
                   31         32         33         34
    31  F    0.000000
    32  F    2.177440   0.000000
    33  F    2.181072   2.174275   0.000000
    34  H    4.382104   3.692814   3.121039   0.000000
 Stoichiometry    C14H14F3N3(1+,2)
 Framework group  C1[X(C14H14F3N3)]
 Deg. of freedom    96
 Full point group                 C1      NOp   1
 RotChk:  IX=0 Diff= 1.46D-03
 Largest Abelian subgroup         C1      NOp   1
 Largest concise Abelian subgroup C1      NOp   1
                         Standard orientation:                         
 ---------------------------------------------------------------------
 Center     Atomic      Atomic             Coordinates (Angstroms)
 Number     Number       Type             X           Y           Z
 ---------------------------------------------------------------------
      1          6           0       -3.949243   -1.000680   -0.984601
      2          6           0       -2.933379   -1.486228    0.087146
      3          6           0       -3.108341    0.557060    1.263110
      4          6           0       -4.132265    1.114987    0.241366
      5          1           0       -4.919644   -1.437635   -0.733276
      6          1           0       -5.130923    0.989105    0.668363
      7          6           0       -3.401641   -0.942222    1.449453
      8          1           0       -2.814016   -1.361871    2.267175
      9          1           0       -4.456531   -1.143065    1.638504
     10          1           0       -2.821924   -2.568606    0.041578
     11          1           0       -3.130634    1.138892    2.183250
     12          6           0       -1.647333   -0.732479   -0.093298
     13          6           0       -0.529270   -1.052904   -0.812743
     14          6           0        0.525495   -0.128710   -0.806046
     15          6           0        0.442673    1.108834   -0.111749
     16          6           0       -0.739439    1.415019    0.600481
     17          6           0       -1.751451    0.503367    0.614505
     18          1           0       -0.438292   -1.990739   -1.349077
     19          1           0       -0.784609    2.360406    1.124970
     20          6           0        2.570816    1.682912   -0.741999
     21          6           0        2.754830    0.429482   -1.372355
     22          1           0        3.387685    2.393574   -0.738123
     23          1           0        3.621678    0.198153   -1.975630
     24          7           0       -4.072044    0.445058   -1.048533
     25          1           0       -3.359972    0.850536   -1.639610
     26          1           0       -3.975560    2.181704    0.082480
     27          1           0       -3.670653   -1.367088   -1.972748
     28          7           0        1.697125   -0.380292   -1.466387
     29          7           0        1.462549    2.000449   -0.127856
     30          6           0        3.772058   -0.527848    0.514394
     31          9           0        4.849865    0.142374    0.825954
     32          9           0        2.874853   -0.507954    1.472208
     33          9           0        4.037062   -1.755641    0.123127
     34          1           0        1.782896   -1.252436   -1.976016
 ---------------------------------------------------------------------
 Rotational constants (GHZ):           0.8747017           0.1805498           0.1750634
 Leave Link  202 at Sun Nov 30 19:56:08 2025, MaxMem=   104857600 cpu:               0.0 elap:               0.0
 (Enter /home/zhouoh/g16/l301.exe)
 Standard basis: STO-3G (5D, 7F)
 Ernie: Thresh=  0.10000D-02 Tol=  0.10000D-05 Strict=F.
 There are   114 symmetry adapted cartesian basis functions of A   symmetry.
 There are   114 symmetry adapted basis functions of A   symmetry.
   114 basis functions,   342 primitive gaussians,   114 cartesian basis functions
    73 alpha electrons       72 beta electrons
       nuclear repulsion energy      1607.6224933875 Hartrees.
 IExCor=    0 DFT=F Ex=HF Corr=None ExCW=0 ScaHFX=  1.000000
 ScaDFX=  1.000000  1.000000  1.000000  1.000000 ScalE2=  1.000000  1.000000
 IRadAn=      5 IRanWt=     -1 IRanGd=            0 ICorTp=0 IEmpDi=  4
 NAtoms=   34 NActive=   34 NUniq=   34 SFac= 1.00D+00 NAtFMM=   60 NAOKFM=F Big=F
 Integral buffers will be    131072 words long.
 Raffenetti 2 integral format.
 Two-electron integral symmetry is turned on.
 Leave Link  301 at Sun Nov 30 19:56:08 2025, MaxMem=   104857600 cpu:               0.0 elap:               0.0
 (Enter /home/zhouoh/g16/l402.exe)
 External calculation of energy, first and second derivatives.
 Running external command "python ../GauUMA_client.py R"
         input file       "/home/zhouoh/scratch/Gau-2679020.EIn"
         output file      "/home/zhouoh/scratch/Gau-2679020.EOu"
         message file     "/home/zhouoh/scratch/Gau-2679020.EMs"
         fchk file        "/home/zhouoh/scratch/Gau-2679020.EFC"
         mat. el file     "/home/zhouoh/scratch/Gau-2679020.EUF"
Sent job to server.
Received result from server:
SCF Done:  E(UMA) =  -1005.4624792774481     A.U.
 Recovered energy= -1005.46247928     dipole=      0.000000000000      0.000000000000      0.000000000000
 Energy=    -1005.46248     NIter=   0.
 Dipole moment=       0.000000       0.000000       0.000000
 Leave Link  402 at Sun Nov 30 19:56:15 2025, MaxMem=   104857600 cpu:               0.0 elap:               7.1
 (Enter /home/zhouoh/g16/l716.exe)
 Dipole        = 0.00000000D+00 0.00000000D+00 0.00000000D+00
 ***** Axes restored to original set *****
 -------------------------------------------------------------------
 Center     Atomic                   Forces (Hartrees/Bohr)
 Number     Number              X              Y              Z
 -------------------------------------------------------------------
      1        6           0.000000212    0.000000059    0.000000110
      2        6           0.000000113   -0.000000091   -0.000000000
      3        6          -0.000000068    0.000000055   -0.000000122
      4        6           0.000000234   -0.000000046    0.000000023
      5        1          -0.000000130   -0.000000008    0.000000037
      6        1          -0.000000113    0.000000023    0.000000027
      7        6           0.000000044    0.000000068   -0.000000056
      8        1           0.000000193   -0.000000159   -0.000000190
      9        1          -0.000000157   -0.000000004    0.000000043
     10        1          -0.000000020    0.000000053    0.000000076
     11        1           0.000000016   -0.000000001   -0.000000036
     12        6          -0.000000125   -0.000000108    0.000000056
     13        6          -0.000000057   -0.000000144    0.000000005
     14        6           0.000000237    0.000000035   -0.000000103
     15        6          -0.000000111    0.000000056    0.000000044
     16        6           0.000000189    0.000000109    0.000000011
     17        6          -0.000000292   -0.000000061    0.000000183
     18        1          -0.000000019    0.000000039    0.000000035
     19        1           0.000000020   -0.000000054    0.000000012
     20        6           0.000000096    0.000000091    0.000000003
     21        6          -0.000000003   -0.000000160    0.000000112
     22        1          -0.000000013   -0.000000073   -0.000000002
     23        1           0.000000011   -0.000000024   -0.000000010
     24        7          -0.000000139    0.000000033   -0.000000056
     25        1           0.000000165    0.000000011   -0.000000053
     26        1          -0.000000018    0.000000014   -0.000000016
     27        1           0.000000046   -0.000000016   -0.000000044
     28        7          -0.000000374    0.000000023    0.000000053
     29        7           0.000000032    0.000000231    0.000000043
     30        6           0.000000031    0.000000268   -0.000000349
     31        9          -0.000000010   -0.000000033    0.000000013
     32        9          -0.000000038   -0.000000094    0.000000040
     33        9          -0.000000040   -0.000000061    0.000000143
     34        1           0.000000082   -0.000000032   -0.000000031
 -------------------------------------------------------------------
 Cartesian Forces:  Max     0.000000374 RMS     0.000000109
 FormGI is forming the generalized inverse of G from B-inverse, IUseBI=4.
 Leave Link  716 at Sun Nov 30 19:56:15 2025, MaxMem=   104857600 cpu:               0.0 elap:               0.0
 (Enter /home/zhouoh/g16/l103.exe)

 GradGradGradGradGradGradGradGradGradGradGradGradGradGradGradGradGradGrad
 Berny optimization.
 Red2BG is reusing G-inverse.
 Internal  Forces:  Max     0.000000302 RMS     0.000000069
 Search for a saddle point.
 Step number   6 out of a maximum of  204
 All quantities printed in internal units (Hartrees-Bohrs-Radians)
 Swapping is turned off.
 Second derivative matrix not updated -- analytic derivatives used.
 ITU=  0  0  0  0  0  0
     Eigenvalues ---   -0.01771   0.00061   0.00369   0.00812   0.00926
     Eigenvalues ---    0.01111   0.01173   0.01217   0.01285   0.01377
     Eigenvalues ---    0.01557   0.01654   0.01761   0.02020   0.02091
     Eigenvalues ---    0.02305   0.02404   0.02567   0.02644   0.02800
     Eigenvalues ---    0.02904   0.03072   0.03244   0.03355   0.03468
     Eigenvalues ---    0.03653   0.04097   0.04164   0.04335   0.04375
     Eigenvalues ---    0.05103   0.05155   0.05448   0.05816   0.06482
     Eigenvalues ---    0.06560   0.06770   0.07870   0.08066   0.08331
     Eigenvalues ---    0.08764   0.09222   0.09460   0.10533   0.10649
     Eigenvalues ---    0.11349   0.12157   0.12624   0.13183   0.13994
     Eigenvalues ---    0.14177   0.14443   0.15867   0.18162   0.18336
     Eigenvalues ---    0.19510   0.19766   0.20511   0.20888   0.22095
     Eigenvalues ---    0.23111   0.23418   0.24241   0.24494   0.24671
     Eigenvalues ---    0.25855   0.29025   0.30027   0.31398   0.31632
     Eigenvalues ---    0.33430   0.33469   0.33695   0.34326   0.34408
     Eigenvalues ---    0.34480   0.34502   0.34898   0.35571   0.36205
     Eigenvalues ---    0.36343   0.36670   0.36815   0.37112   0.38453
     Eigenvalues ---    0.39928   0.40298   0.41923   0.43765   0.45007
     Eigenvalues ---    0.45316   0.49577   0.52159   0.53162   0.57816
     Eigenvalues ---    0.58422
 Eigenvectors required to have negative eigenvalues:
                          R32       D91      D102       D94       A57
   1                   -0.93613  -0.12775   0.12695  -0.10607   0.10138
                         D101       D95       D99       D92      D100
   1                    0.09887   0.09794  -0.09572   0.07627  -0.06764
 RFO step:  Lambda0=1.682588097D-12 Lambda= 0.00000000D+00.
 Linear search not attempted -- option 19 set.
 Iteration  1 RMS(Cart)=  0.00000499 RMS(Int)=  0.00000000
 Iteration  2 RMS(Cart)=  0.00000000 RMS(Int)=  0.00000000
 ITry= 1 IFail=0 DXMaxC= 2.99D-05 DCOld= 1.00D+10 DXMaxT= 3.00D-01 DXLimC= 3.00D+00 Rises=F
 Variable       Old X    -DE/DX   Delta X   Delta X   Delta X     New X
                                 (Linear)    (Quad)   (Total)
    R1        2.93752  -0.00000   0.00000  -0.00000  -0.00000   2.93752
    R2        2.06644   0.00000   0.00000   0.00000   0.00000   2.06644
    R3        2.74455   0.00000   0.00000   0.00000   0.00000   2.74455
    R4        2.05998   0.00000   0.00000   0.00000   0.00000   2.05998
    R5        2.90987  -0.00000   0.00000  -0.00000  -0.00000   2.90987
    R6        2.05802  -0.00000   0.00000  -0.00000  -0.00000   2.05802
    R7        2.83749  -0.00000   0.00000  -0.00000  -0.00000   2.83749
    R8        2.92978  -0.00000   0.00000  -0.00000  -0.00000   2.92978
    R9        2.90833   0.00000   0.00000  -0.00000  -0.00000   2.90833
   R10        2.05771  -0.00000   0.00000  -0.00000  -0.00000   2.05771
   R11        2.84385  -0.00000   0.00000  -0.00000  -0.00000   2.84385
   R12        2.06620   0.00000   0.00000   0.00000   0.00000   2.06620
   R13        2.74906   0.00000   0.00000   0.00000   0.00000   2.74906
   R14        2.05944   0.00000   0.00000   0.00000   0.00000   2.05944
   R15        2.06152   0.00000   0.00000   0.00000   0.00000   2.06152
   R16        2.06047   0.00000   0.00000   0.00000   0.00000   2.06047
   R17        2.58439  -0.00000   0.00000  -0.00000  -0.00000   2.58439
   R18        2.69850   0.00000   0.00000   0.00000   0.00000   2.69850
   R19        2.65014   0.00000   0.00000   0.00000   0.00000   2.65014
   R20        2.04882  -0.00000   0.00000  -0.00000  -0.00000   2.04882
   R21        2.68609   0.00000   0.00000   0.00000   0.00000   2.68609
   R22        2.58558  -0.00000   0.00000  -0.00000  -0.00000   2.58558
   R23        2.67141  -0.00000   0.00000  -0.00000  -0.00000   2.67141
   R24        2.56013   0.00000   0.00000   0.00000   0.00000   2.56013
   R25        2.57411   0.00000   0.00000   0.00000   0.00000   2.57411
   R26        2.04482  -0.00000   0.00000  -0.00000  -0.00000   2.04482
   R27        2.67401   0.00000   0.00000  -0.00000  -0.00000   2.67401
   R28        2.04609  -0.00000   0.00000  -0.00000  -0.00000   2.04608
   R29        2.46843   0.00000   0.00000   0.00000   0.00000   2.46843
   R30        2.04307   0.00000   0.00000   0.00000   0.00000   2.04307
   R31        2.52356  -0.00000   0.00000  -0.00000  -0.00000   2.52356
   R32        4.43625  -0.00000   0.00000   0.00001   0.00001   4.43626
   R33        1.90931   0.00000   0.00000   0.00000   0.00000   1.90931
   R34        1.91573   0.00000   0.00000   0.00000   0.00000   1.91573
   R35        2.46965  -0.00000   0.00000   0.00000   0.00000   2.46965
   R36        2.48035   0.00000   0.00000   0.00000   0.00000   2.48035
   R37        2.48612   0.00000   0.00000   0.00000   0.00000   2.48612
    A1        1.87199   0.00000   0.00000   0.00000   0.00000   1.87199
    A2        1.97854   0.00000   0.00000  -0.00000  -0.00000   1.97854
    A3        1.93155  -0.00000   0.00000  -0.00000  -0.00000   1.93155
    A4        1.91012  -0.00000   0.00000  -0.00000  -0.00000   1.91012
    A5        1.87635   0.00000   0.00000   0.00000   0.00000   1.87635
    A6        1.89262  -0.00000   0.00000  -0.00000  -0.00000   1.89262
    A7        1.87642   0.00000   0.00000   0.00000   0.00000   1.87642
    A8        1.92674   0.00000   0.00000   0.00000   0.00000   1.92674
    A9        1.89660  -0.00000   0.00000  -0.00000  -0.00000   1.89660
   A10        2.00343  -0.00000   0.00000  -0.00000  -0.00000   2.00343
   A11        1.76138   0.00000   0.00000  -0.00000  -0.00000   1.76138
   A12        1.98912   0.00000   0.00000   0.00000   0.00000   1.98912
   A13        1.88021   0.00000   0.00000   0.00000   0.00000   1.88022
   A14        1.92953   0.00000   0.00000   0.00000   0.00000   1.92953
   A15        1.90105  -0.00000   0.00000  -0.00000  -0.00000   1.90105
   A16        1.99799   0.00000   0.00000   0.00000   0.00000   1.99799
   A17        1.76120  -0.00000   0.00000  -0.00000  -0.00000   1.76120
   A18        1.98420   0.00000   0.00000   0.00000   0.00000   1.98420
   A19        1.88012   0.00000   0.00000   0.00000   0.00000   1.88012
   A20        1.97283  -0.00000   0.00000   0.00000   0.00000   1.97283
   A21        1.93195   0.00000   0.00000  -0.00000  -0.00000   1.93195
   A22        1.90823   0.00000   0.00000  -0.00000  -0.00000   1.90823
   A23        1.87650  -0.00000   0.00000  -0.00000  -0.00000   1.87650
   A24        1.89181  -0.00000   0.00000  -0.00000  -0.00000   1.89181
   A25        1.75086   0.00000   0.00000   0.00000   0.00000   1.75086
   A26        1.94277  -0.00000   0.00000  -0.00000  -0.00000   1.94276
   A27        1.96333   0.00000   0.00000   0.00000   0.00000   1.96333
   A28        1.94212   0.00000   0.00000   0.00000   0.00000   1.94212
   A29        1.96580  -0.00000   0.00000   0.00000   0.00000   1.96580
   A30        1.89686   0.00000   0.00000   0.00000   0.00000   1.89686
   A31        2.27288  -0.00000   0.00000  -0.00000  -0.00000   2.27288
   A32        1.88854   0.00000   0.00000   0.00000   0.00000   1.88854
   A33        2.12132   0.00000   0.00000   0.00000   0.00000   2.12132
   A34        2.04650  -0.00000   0.00000  -0.00000  -0.00000   2.04650
   A35        2.13118  -0.00000   0.00000  -0.00000  -0.00000   2.13118
   A36        2.10517   0.00000   0.00000   0.00000   0.00000   2.10517
   A37        2.13208   0.00000   0.00000   0.00000   0.00000   2.13208
   A38        2.11831  -0.00000   0.00000  -0.00000  -0.00000   2.11831
   A39        2.03278   0.00000   0.00000   0.00000   0.00000   2.03278
   A40        2.07532  -0.00000   0.00000  -0.00000  -0.00000   2.07532
   A41        2.12155   0.00000   0.00000  -0.00000  -0.00000   2.12155
   A42        2.08627   0.00000   0.00000   0.00000   0.00000   2.08627
   A43        2.07315  -0.00000   0.00000   0.00000   0.00000   2.07315
   A44        2.05821  -0.00000   0.00000   0.00000   0.00000   2.05821
   A45        2.15163   0.00000   0.00000  -0.00000  -0.00000   2.15163
   A46        1.88625  -0.00000   0.00000  -0.00000  -0.00000   1.88625
   A47        2.27896   0.00000   0.00000   0.00000   0.00000   2.27896
   A48        2.11758   0.00000   0.00000  -0.00000  -0.00000   2.11758
   A49        2.07703  -0.00000   0.00000  -0.00000  -0.00000   2.07702
   A50        2.13543   0.00000   0.00000  -0.00000  -0.00000   2.13543
   A51        2.07016   0.00000   0.00000   0.00000   0.00000   2.07016
   A52        2.14405  -0.00000   0.00000   0.00000   0.00000   2.14405
   A53        2.05500   0.00000   0.00000   0.00000   0.00000   2.05500
   A54        1.63038  -0.00000   0.00000  -0.00000  -0.00000   1.63038
   A55        2.05558  -0.00000   0.00000  -0.00000  -0.00000   2.05558
   A56        1.58458   0.00000   0.00000   0.00000   0.00000   1.58458
   A57        1.72391   0.00000   0.00000  -0.00000  -0.00000   1.72391
   A58        2.00742  -0.00000   0.00000  -0.00000  -0.00000   2.00742
   A59        1.94513  -0.00000   0.00000  -0.00000  -0.00000   1.94513
   A60        1.94238   0.00000   0.00000  -0.00000  -0.00000   1.94237
   A61        2.13265   0.00000   0.00000  -0.00000  -0.00000   2.13265
   A62        2.06378   0.00000   0.00000   0.00000   0.00000   2.06378
   A63        2.08296  -0.00000   0.00000  -0.00000  -0.00000   2.08296
   A64        2.07638  -0.00000   0.00000  -0.00000  -0.00000   2.07638
   A65        1.91753   0.00000   0.00000  -0.00000  -0.00000   1.91753
   A66        1.85888   0.00000   0.00000  -0.00000  -0.00000   1.85888
   A67        1.80168   0.00000   0.00000   0.00000   0.00000   1.80168
   A68        1.96276  -0.00000   0.00000  -0.00000  -0.00000   1.96276
   A69        1.96426  -0.00000   0.00000  -0.00000  -0.00000   1.96426
   A70        1.94858  -0.00000   0.00000  -0.00000  -0.00000   1.94858
    D1       -1.08989  -0.00000   0.00000   0.00000   0.00000  -1.08989
    D2        1.10744   0.00000   0.00000   0.00000   0.00000   1.10744
    D3       -2.98247   0.00000   0.00000   0.00000   0.00000  -2.98246
    D4        1.02058   0.00000   0.00000   0.00000   0.00000   1.02058
    D5       -3.06528   0.00000   0.00000   0.00000   0.00000  -3.06528
    D6       -0.87200   0.00000   0.00000   0.00000   0.00000  -0.87200
    D7       -3.13178  -0.00000   0.00000   0.00000   0.00000  -3.13178
    D8       -0.93446  -0.00000   0.00000   0.00000   0.00000  -0.93446
    D9        1.25883   0.00000   0.00000   0.00000   0.00000   1.25883
   D10       -0.75098  -0.00000   0.00000  -0.00000  -0.00000  -0.75098
   D11        1.48071  -0.00000   0.00000  -0.00001  -0.00001   1.48070
   D12        1.33784   0.00000   0.00000  -0.00000  -0.00000   1.33784
   D13       -2.71365  -0.00000   0.00000  -0.00001  -0.00001  -2.71366
   D14       -2.90334   0.00000   0.00000  -0.00000  -0.00000  -2.90334
   D15       -0.67165  -0.00000   0.00000  -0.00001  -0.00001  -0.67165
   D16       -1.22602   0.00000   0.00000   0.00000   0.00000  -1.22602
   D17        3.00058   0.00000   0.00000   0.00000   0.00000   3.00059
   D18        0.86687   0.00000   0.00000   0.00000   0.00000   0.86688
   D19        2.90616   0.00000   0.00000   0.00000   0.00000   2.90616
   D20        0.84958  -0.00000   0.00000   0.00000   0.00000   0.84958
   D21       -1.28413   0.00000   0.00000   0.00000   0.00000  -1.28413
   D22        0.75922  -0.00000   0.00000   0.00000   0.00000   0.75922
   D23       -1.29736  -0.00000   0.00000   0.00000   0.00000  -1.29736
   D24        2.85212  -0.00000   0.00000   0.00000   0.00000   2.85212
   D25       -1.62342   0.00000   0.00000   0.00000   0.00000  -1.62341
   D26        1.48599   0.00000   0.00000   0.00000   0.00000   1.48599
   D27        2.68982   0.00000   0.00000   0.00000   0.00000   2.68983
   D28       -0.48395   0.00000   0.00000   0.00000   0.00000  -0.48395
   D29        0.53301   0.00000   0.00000   0.00000   0.00000   0.53301
   D30       -2.64077   0.00000   0.00000   0.00000   0.00000  -2.64077
   D31        1.08179   0.00000   0.00000  -0.00000  -0.00000   1.08179
   D32       -1.02833   0.00000   0.00000  -0.00000  -0.00000  -1.02833
   D33        3.12885   0.00000   0.00000  -0.00000  -0.00000   3.12885
   D34       -1.11317  -0.00000   0.00000  -0.00000  -0.00000  -1.11317
   D35        3.05989  -0.00000   0.00000  -0.00000  -0.00000   3.05989
   D36        0.93389  -0.00000   0.00000  -0.00000  -0.00000   0.93389
   D37        2.97793   0.00000   0.00000  -0.00000  -0.00000   2.97793
   D38        0.86781  -0.00000   0.00000  -0.00000  -0.00000   0.86781
   D39       -1.25819   0.00000   0.00000  -0.00000  -0.00000  -1.25819
   D40        1.23408  -0.00000   0.00000  -0.00000  -0.00000   1.23408
   D41       -2.99204  -0.00000   0.00000  -0.00001  -0.00001  -2.99205
   D42       -0.85702  -0.00000   0.00000  -0.00000  -0.00000  -0.85703
   D43       -2.89532   0.00000   0.00000  -0.00000  -0.00000  -2.89532
   D44       -0.83826  -0.00000   0.00000  -0.00000  -0.00000  -0.83827
   D45        1.29676   0.00000   0.00000  -0.00000  -0.00000   1.29676
   D46       -0.75734   0.00000   0.00000  -0.00000  -0.00000  -0.75734
   D47        1.29972  -0.00000   0.00000  -0.00000  -0.00000   1.29971
   D48       -2.84845   0.00000   0.00000  -0.00000  -0.00000  -2.84845
   D49       -1.49548  -0.00000   0.00000   0.00000   0.00000  -1.49548
   D50        1.61550  -0.00000   0.00000  -0.00000  -0.00000   1.61550
   D51        0.48019  -0.00000   0.00000   0.00000   0.00000   0.48019
   D52       -2.69202  -0.00000   0.00000  -0.00000  -0.00000  -2.69202
   D53        2.62775  -0.00000   0.00000   0.00000   0.00000   2.62775
   D54       -0.54446  -0.00000   0.00000  -0.00000  -0.00000  -0.54446
   D55        0.75286   0.00000   0.00000   0.00000   0.00000   0.75286
   D56       -1.48022   0.00000   0.00000   0.00001   0.00001  -1.48021
   D57       -1.34124  -0.00000   0.00000   0.00000   0.00000  -1.34124
   D58        2.70887   0.00000   0.00000   0.00000   0.00000   2.70888
   D59        2.90127   0.00000   0.00000   0.00000   0.00000   2.90127
   D60        0.66819   0.00000   0.00000   0.00001   0.00001   0.66820
   D61        3.12764  -0.00000   0.00000  -0.00001  -0.00001   3.12763
   D62       -0.04176  -0.00000   0.00000  -0.00000  -0.00000  -0.04176
   D63        0.02192  -0.00000   0.00000  -0.00000  -0.00000   0.02192
   D64        3.13571   0.00000   0.00000   0.00000   0.00000   3.13571
   D65        0.00254  -0.00000   0.00000  -0.00000  -0.00000   0.00254
   D66       -3.11183  -0.00000   0.00000   0.00000   0.00000  -3.11183
   D67        3.11530  -0.00000   0.00000  -0.00000  -0.00000   3.11530
   D68        0.00093  -0.00000   0.00000  -0.00000  -0.00000   0.00092
   D69       -0.02495   0.00000   0.00000   0.00000   0.00000  -0.02495
   D70        3.10956   0.00000   0.00000   0.00000   0.00000   3.10956
   D71       -3.13918   0.00000   0.00000  -0.00000  -0.00000  -3.13918
   D72       -0.00467   0.00000   0.00000   0.00000   0.00000  -0.00467
   D73        0.00531  -0.00000   0.00000  -0.00000  -0.00000   0.00531
   D74       -3.12633   0.00000   0.00000   0.00000   0.00000  -3.12633
   D75       -3.12953  -0.00000   0.00000  -0.00000  -0.00000  -3.12953
   D76        0.02202   0.00000   0.00000   0.00000   0.00000   0.02202
   D77       -3.03329  -0.00000   0.00000  -0.00000  -0.00000  -3.03330
   D78        0.01406  -0.00000   0.00000  -0.00000  -0.00000   0.01406
   D79        0.10160  -0.00000   0.00000  -0.00000  -0.00000   0.10160
   D80       -3.13423  -0.00000   0.00000  -0.00000  -0.00000  -3.13423
   D81        0.01797  -0.00000   0.00000  -0.00000  -0.00000   0.01797
   D82        3.13944  -0.00000   0.00000  -0.00000  -0.00000   3.13944
   D83       -3.13337  -0.00000   0.00000  -0.00000  -0.00000  -3.13337
   D84       -0.01190  -0.00000   0.00000  -0.00000  -0.00000  -0.01190
   D85       -0.05981   0.00000   0.00000   0.00000   0.00000  -0.05981
   D86        3.09180   0.00000   0.00000   0.00000   0.00000   3.09180
   D87       -3.12878   0.00000   0.00000   0.00001   0.00001  -3.12878
   D88       -0.02126   0.00000   0.00000   0.00000   0.00000  -0.02126
   D89        0.03408   0.00000   0.00000   0.00000   0.00000   0.03409
   D90       -3.14158   0.00000   0.00000   0.00000   0.00000  -3.14158
   D91       -0.15940   0.00000   0.00000   0.00000   0.00000  -0.15940
   D92       -3.04057  -0.00000   0.00000  -0.00000  -0.00000  -3.04057
   D93        1.46637  -0.00000   0.00000   0.00000   0.00000   1.46637
   D94        3.01893   0.00000   0.00000   0.00000   0.00000   3.01893
   D95        0.13776   0.00000   0.00000  -0.00000  -0.00000   0.13776
   D96       -1.63848  -0.00000   0.00000   0.00000   0.00000  -1.63848
   D97       -0.02020  -0.00000   0.00000   0.00000   0.00000  -0.02020
   D98       -3.12520  -0.00000   0.00000   0.00000   0.00000  -3.12520
   D99       -0.17743   0.00000   0.00000   0.00000   0.00000  -0.17743
   D100       3.05940   0.00000   0.00000   0.00000   0.00000   3.05940
   D101      -3.07203  -0.00000   0.00000  -0.00000  -0.00000  -3.07203
   D102       0.16481  -0.00000   0.00000  -0.00000  -0.00000   0.16480
   D103       1.54317  -0.00000   0.00000  -0.00000  -0.00000   1.54316
   D104      -1.50319  -0.00000   0.00000  -0.00000  -0.00000  -1.50319
   D105      -1.04221   0.00000   0.00000  -0.00000  -0.00000  -1.04221
   D106       1.08802   0.00000   0.00000  -0.00001  -0.00001   1.08802
   D107      -3.14088  -0.00000   0.00000  -0.00001  -0.00001  -3.14089
   D108       1.10404   0.00000   0.00000  -0.00000  -0.00000   1.10403
   D109      -3.04892   0.00000   0.00000  -0.00001  -0.00001  -3.04892
   D110      -0.99464  -0.00000   0.00000  -0.00001  -0.00001  -0.99464
   D111      -3.11486  -0.00000   0.00000  -0.00000  -0.00000  -3.11487
   D112      -0.98463   0.00000   0.00000  -0.00001  -0.00001  -0.98464
   D113       1.06965  -0.00000   0.00000  -0.00001  -0.00001   1.06964
         Item               Value     Threshold  Converged?
 Maximum Force            0.000000     0.000450     YES
 RMS     Force            0.000000     0.000300     YES
 Maximum Displacement     0.000030     0.001800     YES
 RMS     Displacement     0.000005     0.001200     YES
 Predicted change in Energy=-5.351734D-12
 Optimization completed.
    -- Stationary point found.
                           ----------------------------
                           !   Optimized Parameters   !
                           ! (Angstroms and Degrees)  !
 --------------------------                            --------------------------
 ! Name  Definition              Value          Derivative Info.                !
 --------------------------------------------------------------------------------
 ! R1    R(1,2)                  1.5545         -DE/DX =    0.0                 !
 ! R2    R(1,5)                  1.0935         -DE/DX =    0.0                 !
 ! R3    R(1,24)                 1.4524         -DE/DX =    0.0                 !
 ! R4    R(1,27)                 1.0901         -DE/DX =    0.0                 !
 ! R5    R(2,7)                  1.5398         -DE/DX =    0.0                 !
 ! R6    R(2,10)                 1.0891         -DE/DX =    0.0                 !
 ! R7    R(2,12)                 1.5015         -DE/DX =    0.0                 !
 ! R8    R(3,4)                  1.5504         -DE/DX =    0.0                 !
 ! R9    R(3,7)                  1.539          -DE/DX =    0.0                 !
 ! R10   R(3,11)                 1.0889         -DE/DX =    0.0                 !
 ! R11   R(3,17)                 1.5049         -DE/DX =    0.0                 !
 ! R12   R(4,6)                  1.0934         -DE/DX =    0.0                 !
 ! R13   R(4,24)                 1.4547         -DE/DX =    0.0                 !
 ! R14   R(4,26)                 1.0898         -DE/DX =    0.0                 !
 ! R15   R(7,8)                  1.0909         -DE/DX =    0.0                 !
 ! R16   R(7,9)                  1.0904         -DE/DX =    0.0                 !
 ! R17   R(12,13)                1.3676         -DE/DX =    0.0                 !
 ! R18   R(12,17)                1.428          -DE/DX =    0.0                 !
 ! R19   R(13,14)                1.4024         -DE/DX =    0.0                 !
 ! R20   R(13,18)                1.0842         -DE/DX =    0.0                 !
 ! R21   R(14,15)                1.4214         -DE/DX =    0.0                 !
 ! R22   R(14,28)                1.3682         -DE/DX =    0.0                 !
 ! R23   R(15,16)                1.4137         -DE/DX =    0.0                 !
 ! R24   R(15,29)                1.3548         -DE/DX =    0.0                 !
 ! R25   R(16,17)                1.3622         -DE/DX =    0.0                 !
 ! R26   R(16,19)                1.0821         -DE/DX =    0.0                 !
 ! R27   R(20,21)                1.415          -DE/DX =    0.0                 !
 ! R28   R(20,22)                1.0827         -DE/DX =    0.0                 !
 ! R29   R(20,29)                1.3062         -DE/DX =    0.0                 !
 ! R30   R(21,23)                1.0811         -DE/DX =    0.0                 !
 ! R31   R(21,28)                1.3354         -DE/DX =    0.0                 !
 ! R32   R(21,30)                2.3476         -DE/DX =    0.0                 !
 ! R33   R(24,25)                1.0104         -DE/DX =    0.0                 !
 ! R34   R(28,34)                1.0138         -DE/DX =    0.0                 !
 ! R35   R(30,31)                1.3069         -DE/DX =    0.0                 !
 ! R36   R(30,32)                1.3125         -DE/DX =    0.0                 !
 ! R37   R(30,33)                1.3156         -DE/DX =    0.0                 !
 ! A1    A(2,1,5)              107.2572         -DE/DX =    0.0                 !
 ! A2    A(2,1,24)             113.362          -DE/DX =    0.0                 !
 ! A3    A(2,1,27)             110.6695         -DE/DX =    0.0                 !
 ! A4    A(5,1,24)             109.442          -DE/DX =    0.0                 !
 ! A5    A(5,1,27)             107.5068         -DE/DX =    0.0                 !
 ! A6    A(24,1,27)            108.4394         -DE/DX =    0.0                 !
 ! A7    A(1,2,7)              107.511          -DE/DX =    0.0                 !
 ! A8    A(1,2,10)             110.394          -DE/DX =    0.0                 !
 ! A9    A(1,2,12)             108.6672         -DE/DX =    0.0                 !
 ! A10   A(7,2,10)             114.788          -DE/DX =    0.0                 !
 ! A11   A(7,2,12)             100.9195         -DE/DX =    0.0                 !
 ! A12   A(10,2,12)            113.9679         -DE/DX =    0.0                 !
 ! A13   A(4,3,7)              107.7284         -DE/DX =    0.0                 !
 ! A14   A(4,3,11)             110.5538         -DE/DX =    0.0                 !
 ! A15   A(4,3,17)             108.9221         -DE/DX =    0.0                 !
 ! A16   A(7,3,11)             114.4766         -DE/DX =    0.0                 !
 ! A17   A(7,3,17)             100.9095         -DE/DX =    0.0                 !
 ! A18   A(11,3,17)            113.6861         -DE/DX =    0.0                 !
 ! A19   A(3,4,6)              107.7231         -DE/DX =    0.0                 !
 ! A20   A(3,4,24)             113.0348         -DE/DX =    0.0                 !
 ! A21   A(3,4,26)             110.6927         -DE/DX =    0.0                 !
 ! A22   A(6,4,24)             109.3335         -DE/DX =    0.0                 !
 ! A23   A(6,4,26)             107.5153         -DE/DX =    0.0                 !
 ! A24   A(24,4,26)            108.3929         -DE/DX =    0.0                 !
 ! A25   A(2,7,3)              100.3169         -DE/DX =    0.0                 !
 ! A26   A(2,7,8)              111.3124         -DE/DX =    0.0                 !
 ! A27   A(2,7,9)              112.4904         -DE/DX =    0.0                 !
 ! A28   A(3,7,8)              111.2753         -DE/DX =    0.0                 !
 ! A29   A(3,7,9)              112.6321         -DE/DX =    0.0                 !
 ! A30   A(8,7,9)              108.6819         -DE/DX =    0.0                 !
 ! A31   A(2,12,13)            130.2267         -DE/DX =    0.0                 !
 ! A32   A(2,12,17)            108.2055         -DE/DX =    0.0                 !
 ! A33   A(13,12,17)           121.5425         -DE/DX =    0.0                 !
 ! A34   A(12,13,14)           117.256          -DE/DX =    0.0                 !
 ! A35   A(12,13,18)           122.1073         -DE/DX =    0.0                 !
 ! A36   A(14,13,18)           120.6173         -DE/DX =    0.0                 !
 ! A37   A(13,14,15)           122.159          -DE/DX =    0.0                 !
 ! A38   A(13,14,28)           121.3702         -DE/DX =    0.0                 !
 ! A39   A(15,14,28)           116.4696         -DE/DX =    0.0                 !
 ! A40   A(14,15,16)           118.9072         -DE/DX =    0.0                 !
 ! A41   A(14,15,29)           121.5557         -DE/DX =    0.0                 !
 ! A42   A(16,15,29)           119.5347         -DE/DX =    0.0                 !
 ! A43   A(15,16,17)           118.7828         -DE/DX =    0.0                 !
 ! A44   A(15,16,19)           117.9269         -DE/DX =    0.0                 !
 ! A45   A(17,16,19)           123.2795         -DE/DX =    0.0                 !
 ! A46   A(3,17,12)            108.0743         -DE/DX =    0.0                 !
 ! A47   A(3,17,16)            130.5745         -DE/DX =    0.0                 !
 ! A48   A(12,17,16)           121.3285         -DE/DX =    0.0                 !
 ! A49   A(21,20,22)           119.0048         -DE/DX =    0.0                 !
 ! A50   A(21,20,29)           122.3514         -DE/DX =    0.0                 !
 ! A51   A(22,20,29)           118.6113         -DE/DX =    0.0                 !
 ! A52   A(20,21,23)           122.8451         -DE/DX =    0.0                 !
 ! A53   A(20,21,28)           117.7429         -DE/DX =    0.0                 !
 ! A54   A(20,21,30)            93.4138         -DE/DX =    0.0                 !
 ! A55   A(23,21,28)           117.7758         -DE/DX =    0.0                 !
 ! A56   A(23,21,30)            90.7898         -DE/DX =    0.0                 !
 ! A57   A(28,21,30)            98.7725         -DE/DX =    0.0                 !
 ! A58   A(1,24,4)             115.0169         -DE/DX =    0.0                 !
 ! A59   A(1,24,25)            111.4478         -DE/DX =    0.0                 !
 ! A60   A(4,24,25)            111.2899         -DE/DX =    0.0                 !
 ! A61   A(14,28,21)           122.1917         -DE/DX =    0.0                 !
 ! A62   A(14,28,34)           118.2459         -DE/DX =    0.0                 !
 ! A63   A(21,28,34)           119.3448         -DE/DX =    0.0                 !
 ! A64   A(15,29,20)           118.9676         -DE/DX =    0.0                 !
 ! A65   A(21,30,31)           109.8664         -DE/DX =    0.0                 !
 ! A66   A(21,30,32)           106.5061         -DE/DX =    0.0                 !
 ! A67   A(21,30,33)           103.2286         -DE/DX =    0.0                 !
 ! A68   A(31,30,32)           112.4577         -DE/DX =    0.0                 !
 ! A69   A(31,30,33)           112.5439         -DE/DX =    0.0                 !
 ! A70   A(32,30,33)           111.6457         -DE/DX =    0.0                 !
 ! D1    D(5,1,2,7)            -62.4459         -DE/DX =    0.0                 !
 ! D2    D(5,1,2,10)            63.4514         -DE/DX =    0.0                 !
 ! D3    D(5,1,2,12)          -170.8827         -DE/DX =    0.0                 !
 ! D4    D(24,1,2,7)            58.4749         -DE/DX =    0.0                 !
 ! D5    D(24,1,2,10)         -175.6278         -DE/DX =    0.0                 !
 ! D6    D(24,1,2,12)          -49.9619         -DE/DX =    0.0                 !
 ! D7    D(27,1,2,7)          -179.4378         -DE/DX =    0.0                 !
 ! D8    D(27,1,2,10)          -53.5405         -DE/DX =    0.0                 !
 ! D9    D(27,1,2,12)           72.1254         -DE/DX =    0.0                 !
 ! D10   D(2,1,24,4)           -43.028          -DE/DX =    0.0                 !
 ! D11   D(2,1,24,25)           84.8384         -DE/DX =    0.0                 !
 ! D12   D(5,1,24,4)            76.6526         -DE/DX =    0.0                 !
 ! D13   D(5,1,24,25)         -155.481          -DE/DX =    0.0                 !
 ! D14   D(27,1,24,4)         -166.3491         -DE/DX =    0.0                 !
 ! D15   D(27,1,24,25)         -38.4826         -DE/DX =    0.0                 !
 ! D16   D(1,2,7,3)            -70.2457         -DE/DX =    0.0                 !
 ! D17   D(1,2,7,8)            171.9208         -DE/DX =    0.0                 !
 ! D18   D(1,2,7,9)             49.6682         -DE/DX =    0.0                 !
 ! D19   D(10,2,7,3)           166.5109         -DE/DX =    0.0                 !
 ! D20   D(10,2,7,8)            48.6774         -DE/DX =    0.0                 !
 ! D21   D(10,2,7,9)           -73.5751         -DE/DX =    0.0                 !
 ! D22   D(12,2,7,3)            43.5002         -DE/DX =    0.0                 !
 ! D23   D(12,2,7,8)           -74.3332         -DE/DX =    0.0                 !
 ! D24   D(12,2,7,9)           163.4142         -DE/DX =    0.0                 !
 ! D25   D(1,2,12,13)          -93.015          -DE/DX =    0.0                 !
 ! D26   D(1,2,12,17)           85.1409         -DE/DX =    0.0                 !
 ! D27   D(7,2,12,13)          154.1156         -DE/DX =    0.0                 !
 ! D28   D(7,2,12,17)          -27.7285         -DE/DX =    0.0                 !
 ! D29   D(10,2,12,13)          30.539          -DE/DX =    0.0                 !
 ! D30   D(10,2,12,17)        -151.3051         -DE/DX =    0.0                 !
 ! D31   D(7,3,4,6)             61.9821         -DE/DX =    0.0                 !
 ! D32   D(7,3,4,24)           -58.9191         -DE/DX =    0.0                 !
 ! D33   D(7,3,4,26)           179.2699         -DE/DX =    0.0                 !
 ! D34   D(11,3,4,6)           -63.7798         -DE/DX =    0.0                 !
 ! D35   D(11,3,4,24)          175.319          -DE/DX =    0.0                 !
 ! D36   D(11,3,4,26)           53.508          -DE/DX =    0.0                 !
 ! D37   D(17,3,4,6)           170.623          -DE/DX =    0.0                 !
 ! D38   D(17,3,4,24)           49.7218         -DE/DX =    0.0                 !
 ! D39   D(17,3,4,26)          -72.0892         -DE/DX =    0.0                 !
 ! D40   D(4,3,7,2)             70.7076         -DE/DX =    0.0                 !
 ! D41   D(4,3,7,8)           -171.4315         -DE/DX =    0.0                 !
 ! D42   D(4,3,7,9)            -49.1038         -DE/DX =    0.0                 !
 ! D43   D(11,3,7,2)          -165.8897         -DE/DX =    0.0                 !
 ! D44   D(11,3,7,8)           -48.0289         -DE/DX =    0.0                 !
 ! D45   D(11,3,7,9)            74.2988         -DE/DX =    0.0                 !
 ! D46   D(17,3,7,2)           -43.3925         -DE/DX =    0.0                 !
 ! D47   D(17,3,7,8)            74.4684         -DE/DX =    0.0                 !
 ! D48   D(17,3,7,9)          -163.2039         -DE/DX =    0.0                 !
 ! D49   D(4,3,17,12)          -85.6846         -DE/DX =    0.0                 !
 ! D50   D(4,3,17,16)           92.5616         -DE/DX =    0.0                 !
 ! D51   D(7,3,17,12)           27.5127         -DE/DX =    0.0                 !
 ! D52   D(7,3,17,16)         -154.2412         -DE/DX =    0.0                 !
 ! D53   D(11,3,17,12)         150.5587         -DE/DX =    0.0                 !
 ! D54   D(11,3,17,16)         -31.1951         -DE/DX =    0.0                 !
 ! D55   D(3,4,24,1)            43.1357         -DE/DX =    0.0                 !
 ! D56   D(3,4,24,25)          -84.8101         -DE/DX =    0.0                 !
 ! D57   D(6,4,24,1)           -76.8472         -DE/DX =    0.0                 !
 ! D58   D(6,4,24,25)          155.207          -DE/DX =    0.0                 !
 ! D59   D(26,4,24,1)          166.2305         -DE/DX =    0.0                 !
 ! D60   D(26,4,24,25)          38.2847         -DE/DX =    0.0                 !
 ! D61   D(2,12,13,14)         179.2004         -DE/DX =    0.0                 !
 ! D62   D(2,12,13,18)          -2.3926         -DE/DX =    0.0                 !
 ! D63   D(17,12,13,14)          1.2559         -DE/DX =    0.0                 !
 ! D64   D(17,12,13,18)        179.663          -DE/DX =    0.0                 !
 ! D65   D(2,12,17,3)            0.1455         -DE/DX =    0.0                 !
 ! D66   D(2,12,17,16)        -178.295          -DE/DX =    0.0                 !
 ! D67   D(13,12,17,3)         178.4935         -DE/DX =    0.0                 !
 ! D68   D(13,12,17,16)          0.053          -DE/DX =    0.0                 !
 ! D69   D(12,13,14,15)         -1.4296         -DE/DX =    0.0                 !
 ! D70   D(12,13,14,28)        178.1646         -DE/DX =    0.0                 !
 ! D71   D(18,13,14,15)       -179.8617         -DE/DX =    0.0                 !
 ! D72   D(18,13,14,28)         -0.2675         -DE/DX =    0.0                 !
 ! D73   D(13,14,15,16)          0.3042         -DE/DX =    0.0                 !
 ! D74   D(13,14,15,29)       -179.1255         -DE/DX =    0.0                 !
 ! D75   D(28,14,15,16)       -179.3088         -DE/DX =    0.0                 !
 ! D76   D(28,14,15,29)          1.2615         -DE/DX =    0.0                 !
 ! D77   D(13,14,28,21)       -173.7949         -DE/DX =    0.0                 !
 ! D78   D(13,14,28,34)          0.8057         -DE/DX =    0.0                 !
 ! D79   D(15,14,28,21)          5.8214         -DE/DX =    0.0                 !
 ! D80   D(15,14,28,34)       -179.5781         -DE/DX =    0.0                 !
 ! D81   D(14,15,16,17)          1.0298         -DE/DX =    0.0                 !
 ! D82   D(14,15,16,19)        179.8765         -DE/DX =    0.0                 !
 ! D83   D(29,15,16,17)       -179.5288         -DE/DX =    0.0                 !
 ! D84   D(29,15,16,19)         -0.682          -DE/DX =    0.0                 !
 ! D85   D(14,15,29,20)         -3.4268         -DE/DX =    0.0                 !
 ! D86   D(16,15,29,20)        177.147          -DE/DX =    0.0                 !
 ! D87   D(15,16,17,3)        -179.266          -DE/DX =    0.0                 !
 ! D88   D(15,16,17,12)         -1.218          -DE/DX =    0.0                 !
 ! D89   D(19,16,17,3)           1.9528         -DE/DX =    0.0                 !
 ! D90   D(19,16,17,12)       -179.9992         -DE/DX =    0.0                 !
 ! D91   D(22,20,21,23)         -9.133          -DE/DX =    0.0                 !
 ! D92   D(22,20,21,28)       -174.212          -DE/DX =    0.0                 !
 ! D93   D(22,20,21,30)         84.0169         -DE/DX =    0.0                 !
 ! D94   D(29,20,21,23)        172.9719         -DE/DX =    0.0                 !
 ! D95   D(29,20,21,28)          7.8929         -DE/DX =    0.0                 !
 ! D96   D(29,20,21,30)        -93.8783         -DE/DX =    0.0                 !
 ! D97   D(21,20,29,15)         -1.1576         -DE/DX =    0.0                 !
 ! D98   D(22,20,29,15)       -179.0607         -DE/DX =    0.0                 !
 ! D99   D(20,21,28,14)        -10.1662         -DE/DX =    0.0                 !
 ! D100  D(20,21,28,34)        175.2906         -DE/DX =    0.0                 !
 ! D101  D(23,21,28,14)       -176.0141         -DE/DX =    0.0                 !
 ! D102  D(23,21,28,34)          9.4427         -DE/DX =    0.0                 !
 ! D103  D(30,21,28,14)         88.4169         -DE/DX =    0.0                 !
 ! D104  D(30,21,28,34)        -86.1263         -DE/DX =    0.0                 !
 ! D105  D(20,21,30,31)        -59.714          -DE/DX =    0.0                 !
 ! D106  D(20,21,30,32)         62.3392         -DE/DX =    0.0                 !
 ! D107  D(20,21,30,33)       -179.9592         -DE/DX =    0.0                 !
 ! D108  D(23,21,30,31)         63.2566         -DE/DX =    0.0                 !
 ! D109  D(23,21,30,32)       -174.6902         -DE/DX =    0.0                 !
 ! D110  D(23,21,30,33)        -56.9886         -DE/DX =    0.0                 !
 ! D111  D(28,21,30,31)       -178.4685         -DE/DX =    0.0                 !
 ! D112  D(28,21,30,32)        -56.4153         -DE/DX =    0.0                 !
 ! D113  D(28,21,30,33)         61.2863         -DE/DX =    0.0                 !
 --------------------------------------------------------------------------------
 Largest change from initial coordinates is atom   32       0.271 Angstoms.
 GradGradGradGradGradGradGradGradGradGradGradGradGradGradGradGradGradGrad

 Leave Link  103 at Sun Nov 30 19:56:15 2025, MaxMem=   104857600 cpu:               0.0 elap:               0.0
 (Enter /home/zhouoh/g16/l202.exe)
                          Input orientation:                          
 ---------------------------------------------------------------------
 Center     Atomic      Atomic             Coordinates (Angstroms)
 Number     Number       Type             X           Y           Z
 ---------------------------------------------------------------------
      1          6           0       -3.974286   -1.096152   -0.889780
      2          6           0       -2.962802   -1.472791    0.228889
      3          6           0       -3.143331    0.676489    1.196636
      4          6           0       -4.163107    1.130084    0.120546
      5          1           0       -4.945606   -1.506854   -0.600585
      6          1           0       -5.163518    1.046260    0.553722
      7          6           0       -3.436963   -0.797281    1.528869
      8          1           0       -2.852663   -1.133728    2.386467
      9          1           0       -4.492580   -0.979231    1.732432
     10          1           0       -2.850831   -2.554300    0.290871
     11          1           0       -3.169675    1.346306    2.054735
     12          6           0       -1.676233   -0.739621   -0.019735
     13          6           0       -0.555052   -1.128710   -0.699368
     14          6           0        0.499398   -0.207618   -0.779558
     15          6           0        0.413279    1.092367   -0.211186
     16          6           0       -0.771914    1.466529    0.462407
     17          6           0       -1.783703    0.559993    0.562156
     18          1           0       -0.461533   -2.114850   -1.140106
     19          1           0       -0.819578    2.459046    0.890802
     20          6           0        2.543887    1.602939   -0.886169
     21          6           0        2.730932    0.293530   -1.388923
     22          1           0        3.360520    2.311094   -0.949074
     23          1           0        3.600384    0.004391   -1.962796
     24          7           0       -4.097250    0.336123   -1.096647
     25          1           0       -3.382815    0.681772   -1.721899
     26          1           0       -4.006054    2.176014   -0.142227
     27          1           0       -3.691425   -1.558129   -1.835755
     28          7           0        1.673876   -0.522327   -1.406949
     29          7           0        1.432947    1.978765   -0.310996
     30          6           0        3.740487   -0.472122    0.587345
     31          9           0        4.816771    0.226356    0.835696
     32          9           0        2.839249   -0.358403    1.534771
     33          9           0        4.007507   -1.732355    0.320315
     34          1           0        1.762055   -1.440463   -1.827621
 ---------------------------------------------------------------------
                    Distance matrix (angstroms):
                    1          2          3          4          5
     1  C    0.000000
     2  C    1.554471   0.000000
     3  C    2.861097   2.364006   0.000000
     4  C    2.452048   2.868349   1.550375   0.000000
     5  H    1.093514   2.149582   3.353384   2.843549   0.000000
     6  H    2.843923   3.360697   2.152028   1.093384   2.810391
     7  C    2.495577   1.539835   1.539024   2.495074   2.704455
     8  H    3.463127   2.186832   2.185651   3.460709   3.666349
     9  H    2.675499   2.201015   2.202035   2.675059   2.434458
    10  H    2.186844   1.089055   3.368080   3.914814   2.505977
    11  H    3.909370   3.365088   1.088891   2.185120   4.283127
    12  C    2.482971   1.501536   2.374300   3.114486   3.408055
    13  C    3.424687   2.603327   3.681408   4.335029   4.407916
    14  C    4.562400   3.821578   4.237506   4.933416   5.600725
    15  C    4.949832   4.262819   3.847648   4.588549   5.968688
    16  C    4.318672   3.673434   2.605162   3.424946   5.233609
    17  C    3.106379   2.373510   1.504899   2.486280   3.952398
    18  H    3.666039   2.922795   4.521501   5.081386   4.557154
    19  H    5.075637   4.526685   2.944635   3.679487   5.914111
    20  C    7.054905   6.405239   6.127057   6.798591   8.114486
    21  C    6.865880   6.177039   6.429521   7.106764   7.924147
    22  H    8.087782   7.462558   7.041028   7.690503   9.148218
    23  H    7.729048   7.075377   7.477394   8.116606   8.784841
    24  N    1.452352   2.513203   2.506982   1.454741   2.088623
    25  H    2.050189   2.936687   2.928349   2.050474   2.913717
    26  H    3.356623   3.813120   2.187560   1.089810   3.828363
    27  H    1.090092   2.191103   3.806483   3.357988   1.761035
    28  N    5.700743   5.007807   5.605470   6.255723   6.740702
    29  N    6.247262   5.614920   4.991112   5.676470   7.274568
    30  C    7.879660   6.787040   7.005533   8.077857   8.827801
    31  F    9.055881   7.986055   7.980985   9.053529  10.018530
    32  F    7.269593   6.050700   6.080838   7.297165   8.153690
    33  F    8.098031   6.975739   7.596377   8.659815   9.003174
    34  H    5.822688   5.153110   6.139252   6.746155   6.819292
                    6          7          8          9         10
     6  H    0.000000
     7  C    2.707498   0.000000
     8  H    3.667608   1.090907   0.000000
     9  H    2.437648   1.090354   1.772276   0.000000
    10  H    4.287382   2.227848   2.531709   2.693377   0.000000
    11  H    2.513658   2.223273   2.522124   2.694825   4.292739
    12  C    3.959720   2.345564   2.707234   3.325555   2.183854
    13  C    5.247732   3.657909   3.847261   4.630349   2.878104
    14  C    5.951341   4.601247   4.702947   5.641395   4.228093
    15  C    5.629199   4.628491   4.729660   5.668918   4.919823
    16  C    4.412612   3.655770   3.846148   4.630125   4.529722
    17  C    3.414626   2.347337   2.709146   3.328178   3.303207
    18  H    5.913571   4.208634   4.372278   5.078429   2.819496
    19  H    4.580328   4.226286   4.390726   5.101082   5.442384
    20  C    7.860488   6.882153   6.879116   7.939556   6.911660
    21  C    8.164730   6.909870   6.889642   7.971318   6.487521
    22  H    8.747423   7.874513   7.848329   8.926807   7.986889
    23  H    9.177382   7.896750   7.864682   8.950883   7.296855
    24  N    2.089244   2.934948   3.980144   3.144858   3.439958
    25  H    2.912423   3.571838   4.522807   3.990353   3.847911
    26  H    1.760799   3.457876   4.321920   3.702246   4.888557
    27  H    3.828773   3.458950   4.325598   3.702557   2.494293
    28  N    7.283862   5.900449   5.937455   6.934671   5.242564
    29  N    6.717935   5.899793   5.943936   6.930889   6.265914
    30  C    9.032603   7.246240   6.866163   8.327772   6.918731
    31  F   10.017880   8.345804   7.941973   9.429825   8.174412
    32  F    8.184119   6.291540   5.807269   7.360721   6.224649
    33  F    9.585555   7.599677   7.189524   8.649436   6.907478
    34  H    7.734218   6.221695   6.256855   7.211599   5.196860
                   11         12         13         14         15
    11  H    0.000000
    12  C    3.299225   0.000000
    13  C    4.532885   1.367603   0.000000
    14  C    4.889784   2.365107   1.402393   0.000000
    15  C    4.246933   2.785480   2.471674   1.421416   0.000000
    16  C    2.880836   2.432560   2.851669   2.441614   1.413651
    17  C    2.183345   1.427986   2.439825   2.757168   2.389187
    18  H    5.433290   2.149879   1.084190   2.165853   3.451729
    19  H    2.848839   3.434299   3.933270   3.411876   2.145257
    20  C    6.431140   4.903846   4.135242   2.733023   2.292548
    21  C    6.912617   4.729184   3.646361   2.366901   2.719691
    22  H    7.252387   5.961494   5.217883   3.815581   3.273530
    23  H    7.985925   5.672012   4.488632   3.325825   3.795980
    24  N    3.436870   2.859771   3.853665   4.639545   4.658414
    25  H    3.840573   2.798240   3.509938   4.092751   4.106237
    26  H    2.492907   3.734167   4.810512   5.136827   4.550775
    27  H    4.883019   2.833529   3.363423   4.527961   5.149073
    28  N    6.239794   3.632466   2.415883   1.368232   2.371959
    29  N    5.213523   4.140224   3.709363   2.423083   1.354764
    30  C    7.294536   5.457193   4.531930   3.527469   3.762391
    31  F    8.156204   6.619968   5.748835   4.630020   4.608327
    32  F    6.267660   4.790761   4.135943   3.294503   3.322413
    33  F    7.999893   5.779796   4.713924   3.980121   4.602175
    34  H    6.867366   3.947334   2.595982   2.052473   3.293522
                   16         17         18         19         20
    16  C    0.000000
    17  C    1.362158   0.000000
    18  H    3.935817   3.435202   0.000000
    19  H    1.082074   2.154983   5.017301   0.000000
    20  C    3.582151   4.681177   4.787378   3.899159   0.000000
    21  C    4.131983   4.925408   4.006750   4.742650   1.415026
    22  H    4.447761   5.640319   5.850945   4.569491   1.082742
    23  H    5.209266   5.972644   4.654801   5.805551   2.197878
    24  N    3.842698   2.855564   4.384928   4.381769   6.764158
    25  H    3.493400   2.790860   4.085764   4.068796   6.055807
    26  H    3.365800   2.836639   5.654282   3.361679   6.616917
    27  H    4.790996   3.725026   3.350532   5.640861   7.055011
    28  N    3.664960   4.123548   2.677183   4.515037   2.354758
    29  N    2.392060   3.622451   4.586302   2.597856   1.306238
    30  C    4.912814   5.619838   4.831109   5.429367   2.812289
    31  F    5.736792   6.614560   6.102912   6.062703   3.166354
    32  F    4.185790   4.812600   4.597307   4.662588   3.129704
    33  F    5.752905   6.233094   4.717144   6.418258   3.836922
    34  H    4.485067   4.720726   2.423183   5.409327   3.280227
                   21         22         23         24         25
    21  C    0.000000
    22  H    2.158798   0.000000
    23  H    1.081147   2.531017   0.000000
    24  N    6.834567   7.716257   7.753311   0.000000
    25  H    6.135105   6.980295   7.020111   1.010362   0.000000
    26  H    7.105278   7.411859   8.117162   2.074714   2.261979
    27  H    6.698878   8.092405   7.458424   2.073442   2.263926
    28  N    1.335409   3.329068   2.073121   5.842869   5.207608
    29  N    2.384682   2.057455   3.365172   5.822251   5.183089
    30  C    2.347564   3.201757   2.598059   8.057246   7.576643
    31  F    3.050273   3.106800   3.059481   9.121720   8.601274
    32  F    2.997455   3.683399   3.597766   7.451291   7.099433
    33  F    2.941998   4.287123   2.897349   8.483717   8.038377
    34  H    2.034186   4.171465   2.342078   6.166200   5.566395
                   26         27         28         29         30
    26  H    0.000000
    27  H    4.112281   0.000000
    28  N    6.414216   5.481169   0.000000
    29  N    5.445192   6.410437   2.741281   0.000000
    30  C    8.219111   7.892030   2.872388   3.484050   0.000000
    31  F    9.088440   9.094528   3.932909   3.979461   1.306881
    32  F    7.489577   7.446441   3.168388   3.293463   1.312547
    33  F    8.927846   7.997033   3.145385   4.560627   1.315596
    34  H    7.013596   5.454755   1.013762   3.754941   3.268629
                   31         32         33         34
    31  F    0.000000
    32  F    2.177440   0.000000
    33  F    2.181072   2.174275   0.000000
    34  H    4.382104   3.692814   3.121039   0.000000
 Stoichiometry    C14H14F3N3(1+,2)
 Framework group  C1[X(C14H14F3N3)]
 Deg. of freedom    96
 Full point group                 C1      NOp   1
 RotChk:  IX=0 Diff= 1.22D-15
 Largest Abelian subgroup         C1      NOp   1
 Largest concise Abelian subgroup C1      NOp   1
                         Standard orientation:                         
 ---------------------------------------------------------------------
 Center     Atomic      Atomic             Coordinates (Angstroms)
 Number     Number       Type             X           Y           Z
 ---------------------------------------------------------------------
      1          6           0       -3.949243   -1.000680   -0.984601
      2          6           0       -2.933379   -1.486228    0.087146
      3          6           0       -3.108341    0.557060    1.263110
      4          6           0       -4.132265    1.114987    0.241366
      5          1           0       -4.919644   -1.437635   -0.733276
      6          1           0       -5.130923    0.989105    0.668363
      7          6           0       -3.401641   -0.942222    1.449453
      8          1           0       -2.814016   -1.361871    2.267175
      9          1           0       -4.456531   -1.143065    1.638504
     10          1           0       -2.821924   -2.568606    0.041578
     11          1           0       -3.130634    1.138892    2.183250
     12          6           0       -1.647333   -0.732479   -0.093298
     13          6           0       -0.529270   -1.052904   -0.812743
     14          6           0        0.525495   -0.128710   -0.806046
     15          6           0        0.442673    1.108834   -0.111749
     16          6           0       -0.739439    1.415019    0.600481
     17          6           0       -1.751451    0.503367    0.614505
     18          1           0       -0.438292   -1.990739   -1.349077
     19          1           0       -0.784609    2.360406    1.124970
     20          6           0        2.570816    1.682912   -0.741999
     21          6           0        2.754830    0.429482   -1.372355
     22          1           0        3.387685    2.393574   -0.738123
     23          1           0        3.621678    0.198153   -1.975630
     24          7           0       -4.072044    0.445058   -1.048533
     25          1           0       -3.359972    0.850536   -1.639610
     26          1           0       -3.975560    2.181704    0.082480
     27          1           0       -3.670653   -1.367088   -1.972748
     28          7           0        1.697125   -0.380292   -1.466387
     29          7           0        1.462549    2.000449   -0.127856
     30          6           0        3.772058   -0.527848    0.514394
     31          9           0        4.849865    0.142374    0.825954
     32          9           0        2.874853   -0.507954    1.472208
     33          9           0        4.037062   -1.755641    0.123127
     34          1           0        1.782896   -1.252436   -1.976016
 ---------------------------------------------------------------------
 Rotational constants (GHZ):           0.8747017           0.1805498           0.1750634
 Leave Link  202 at Sun Nov 30 19:56:15 2025, MaxMem=   104857600 cpu:               0.0 elap:               0.0
 (Enter /home/zhouoh/g16/l601.exe)
 Leave Link  601 at Sun Nov 30 19:56:15 2025, MaxMem=   104857600 cpu:               0.0 elap:               0.0
 (Enter /home/zhouoh/g16/l716.exe)
 Rotating derivatives to standard orientation.
 Dipole        = 0.00000000D+00 0.00000000D+00 0.00000000D+00
 Full mass-weighted force constant matrix:
 Low frequencies --- -188.7285   -4.4044   -2.3187   -1.4912    2.2595    3.2187
 Low frequencies ---    4.8966   21.8729   38.5873
 ******    1 imaginary frequencies (negative Signs) ****** 
 Diagonal vibrational polarizability:
        0.0000000       0.0000000       0.0000000
 Harmonic frequencies (cm**-1), IR intensities (KM/Mole), Raman scattering
 activities (A**4/AMU), depolarization ratios for plane and unpolarized
 incident light, reduced masses (AMU), force constants (mDyne/A),
 and normal coordinates:
                      1                      2                      3
                      A                      A                      A
 Frequencies --   -188.7284                21.8665                38.5832
 Red. masses --      9.2332                16.2982                 9.4284
 Frc consts  --      0.1938                 0.0046                 0.0083
 IR Inten    --      0.0000                 0.0000                 0.0000
  Atom  AN      X      Y      Z        X      Y      Z        X      Y      Z
     1   6    -0.01   0.00  -0.00    -0.03   0.03   0.04    -0.05   0.07  -0.10
     2   6    -0.00   0.00  -0.01    -0.04   0.04   0.05    -0.14   0.02  -0.04
     3   6     0.01   0.00  -0.01    -0.00   0.07   0.00    -0.13   0.02  -0.04
     4   6     0.00   0.01  -0.01     0.01   0.07  -0.01    -0.04   0.07  -0.10
     5   1    -0.01   0.01   0.00    -0.04   0.06   0.05    -0.08   0.11  -0.17
     6   1     0.01   0.01  -0.00     0.00   0.10  -0.01    -0.07   0.11  -0.17
     7   6     0.00   0.01  -0.01    -0.03   0.08   0.04    -0.20   0.04  -0.07
     8   1     0.01   0.01  -0.01    -0.04   0.09   0.05    -0.27   0.01  -0.03
     9   1     0.00   0.01   0.00    -0.04   0.11   0.04    -0.22   0.08  -0.14
    10   1    -0.01   0.00  -0.00    -0.06   0.04   0.08    -0.18   0.02  -0.04
    11   1     0.01   0.01  -0.01     0.01   0.10  -0.01    -0.16   0.02  -0.04
    12   6     0.00  -0.00  -0.01    -0.03   0.01   0.04    -0.09  -0.03   0.04
    13   6     0.01  -0.00   0.01    -0.03  -0.03   0.04    -0.07  -0.06   0.09
    14   6     0.04  -0.02   0.05    -0.02  -0.04   0.02    -0.06  -0.07   0.11
    15   6     0.02  -0.01   0.01     0.00  -0.02  -0.02    -0.06  -0.07   0.11
    16   6     0.01   0.00  -0.03     0.01   0.01  -0.02    -0.07  -0.05   0.08
    17   6     0.00  -0.01  -0.02    -0.01   0.03   0.00    -0.09  -0.03   0.04
    18   1     0.03  -0.01   0.03    -0.05  -0.04   0.07    -0.08  -0.06   0.09
    19   1    -0.00   0.01  -0.04     0.03   0.03  -0.05    -0.06  -0.05   0.08
    20   6     0.09  -0.09   0.21     0.00  -0.06  -0.05    -0.07  -0.05   0.06
    21   6     0.24  -0.25   0.47    -0.01  -0.08  -0.02    -0.08  -0.05   0.04
    22   1     0.10  -0.10   0.22     0.01  -0.07  -0.08    -0.08  -0.04   0.03
    23   1     0.19  -0.17   0.37    -0.03  -0.10  -0.03    -0.10  -0.03   0.00
    24   7    -0.00   0.00  -0.00    -0.01   0.03   0.00     0.02   0.08  -0.10
    25   1    -0.01   0.00  -0.02     0.00   0.00  -0.01     0.07   0.05  -0.05
    26   1     0.01   0.01  -0.01     0.03   0.06  -0.04     0.02   0.07  -0.09
    27   1    -0.01   0.00  -0.00    -0.04   0.00   0.05     0.00   0.06  -0.09
    28   7     0.09  -0.11   0.17    -0.02  -0.08   0.02    -0.06  -0.07   0.10
    29   7     0.03   0.01   0.02     0.01  -0.04  -0.05    -0.06  -0.07   0.10
    30   6    -0.12   0.09  -0.18     0.04  -0.02  -0.02     0.19   0.02  -0.04
    31   9    -0.12   0.09  -0.19    -0.25   0.30   0.29     0.20   0.10  -0.22
    32   9    -0.08   0.08  -0.15    -0.16  -0.45  -0.19     0.33   0.01   0.08
    33   9    -0.09   0.09  -0.15     0.52   0.13  -0.14     0.21   0.02  -0.03
    34   1     0.09  -0.13   0.20    -0.04  -0.09   0.03    -0.07  -0.07   0.10
                      4                      5                      6
                      A                      A                      A
 Frequencies --     46.3287                77.0724               107.9624
 Red. masses --      5.9698                 5.7283                 7.3407
 Frc consts  --      0.0075                 0.0200                 0.0504
 IR Inten    --      0.0000                 0.0000                 0.0000
  Atom  AN      X      Y      Z        X      Y      Z        X      Y      Z
     1   6    -0.06   0.17  -0.05     0.15   0.04  -0.07    -0.02   0.11  -0.04
     2   6    -0.05   0.01  -0.12    -0.00  -0.02   0.05    -0.03  -0.00  -0.06
     3   6     0.07  -0.10   0.08    -0.01  -0.01   0.03     0.01  -0.06   0.04
     4   6     0.06   0.05   0.17     0.15   0.05  -0.10    -0.01   0.02   0.12
     5   1    -0.07   0.18  -0.07     0.09   0.11  -0.18    -0.02   0.10  -0.08
     6   1     0.07   0.04   0.19     0.09   0.12  -0.22    -0.01  -0.01   0.12
     7   6     0.01  -0.10  -0.06    -0.12   0.01  -0.01    -0.01  -0.06  -0.03
     8   1     0.02  -0.21  -0.12    -0.24  -0.03   0.06    -0.01  -0.11  -0.06
     9   1     0.01  -0.07  -0.05    -0.15   0.07  -0.13    -0.01  -0.05  -0.03
    10   1    -0.11   0.01  -0.23    -0.06  -0.03   0.06    -0.09  -0.01  -0.13
    11   1     0.13  -0.19   0.13    -0.07  -0.01   0.02     0.07  -0.11   0.07
    12   6    -0.02  -0.04  -0.08     0.04  -0.08   0.15     0.00  -0.05  -0.00
    13   6    -0.03  -0.04  -0.11     0.04  -0.08   0.14     0.04  -0.09   0.08
    14   6    -0.00  -0.07  -0.07     0.01  -0.05   0.08     0.03  -0.07   0.05
    15   6     0.03  -0.09  -0.03     0.02  -0.05   0.09    -0.05   0.01  -0.10
    16   6     0.06  -0.11   0.03     0.04  -0.07   0.13    -0.06   0.01  -0.12
    17   6     0.04  -0.09   0.02     0.04  -0.08   0.14    -0.02  -0.04  -0.03
    18   1    -0.07  -0.01  -0.16     0.03  -0.07   0.12     0.07  -0.12   0.14
    19   1     0.09  -0.13   0.08     0.03  -0.07   0.12    -0.10   0.05  -0.20
    20   6     0.01  -0.09  -0.07    -0.06   0.03  -0.09    -0.08   0.06  -0.14
    21   6     0.00  -0.10  -0.06    -0.06   0.04  -0.10     0.03  -0.03   0.07
    22   1     0.01  -0.09  -0.09    -0.09   0.07  -0.15    -0.13   0.12  -0.24
    23   1     0.01  -0.11  -0.04    -0.09   0.06  -0.14     0.05  -0.06   0.12
    24   7    -0.00   0.18   0.10     0.26   0.05  -0.09    -0.02   0.12   0.07
    25   1    -0.00   0.21   0.12     0.37  -0.00  -0.00    -0.02   0.16   0.10
    26   1     0.10   0.06   0.27     0.24   0.04  -0.08    -0.02   0.04   0.19
    27   1    -0.10   0.26  -0.09     0.24   0.02  -0.04    -0.01   0.19  -0.06
    28   7    -0.00  -0.09  -0.06    -0.03  -0.00  -0.01     0.08  -0.11   0.15
    29   7     0.03  -0.09  -0.05    -0.02  -0.01   0.01    -0.11   0.08  -0.22
    30   6    -0.03   0.07   0.04    -0.07   0.05  -0.06     0.06   0.09   0.06
    31   9    -0.07   0.16  -0.02    -0.06  -0.00   0.02     0.14  -0.12   0.22
    32   9    -0.04   0.14   0.03    -0.12   0.07  -0.11     0.06  -0.02   0.07
    33   9     0.04   0.03   0.20    -0.10   0.04  -0.06    -0.08   0.14  -0.22
    34   1    -0.01  -0.09  -0.06    -0.03  -0.00  -0.01     0.15  -0.18   0.28
                      7                      8                      9
                      A                      A                      A
 Frequencies --    117.8831               144.5493               194.3713
 Red. masses --     15.2973                 7.2683                 4.8802
 Frc consts  --      0.1252                 0.0895                 0.1086
 IR Inten    --      0.0000                 0.0000                 0.0000
  Atom  AN      X      Y      Z        X      Y      Z        X      Y      Z
     1   6     0.09   0.00  -0.00    -0.13  -0.07   0.08    -0.02  -0.01   0.09
     2   6     0.05  -0.01   0.03    -0.05   0.02   0.02    -0.04  -0.05   0.08
     3   6     0.06  -0.00   0.02     0.02   0.07  -0.06     0.03  -0.03   0.06
     4   6     0.11   0.02  -0.03     0.02   0.04  -0.08     0.17   0.05  -0.04
     5   1     0.06   0.05  -0.02    -0.12  -0.03   0.20    -0.08   0.17   0.16
     6   1     0.09   0.04  -0.07     0.03   0.15  -0.02     0.11   0.17  -0.14
     7   6     0.03   0.00   0.02     0.01   0.08   0.02    -0.03  -0.01   0.07
     8   1     0.00  -0.00   0.03     0.03   0.12   0.02    -0.05  -0.01   0.09
     9   1     0.02   0.02  -0.00     0.01   0.10   0.06    -0.04   0.02   0.06
    10   1     0.04  -0.01   0.04    -0.03   0.01   0.09    -0.06  -0.05   0.10
    11   1     0.05   0.01   0.01     0.02   0.12  -0.09     0.04  -0.01   0.04
    12   6     0.05  -0.02   0.02    -0.04   0.01  -0.07    -0.04  -0.05  -0.00
    13   6     0.01   0.01  -0.04    -0.06   0.01  -0.10    -0.12   0.06  -0.19
    14   6    -0.01   0.02  -0.08    -0.00  -0.06  -0.04    -0.12   0.06  -0.17
    15   6     0.01   0.02  -0.07     0.09  -0.13   0.09    -0.11   0.04  -0.13
    16   6     0.03   0.00  -0.02     0.11  -0.11   0.11    -0.08   0.01  -0.09
    17   6     0.06  -0.02   0.03     0.03  -0.01  -0.02    -0.00  -0.07   0.03
    18   1    -0.01   0.02  -0.06    -0.11   0.03  -0.16    -0.14   0.10  -0.26
    19   1     0.03   0.01  -0.03     0.18  -0.15   0.20    -0.10   0.01  -0.10
    20   6     0.01   0.00  -0.05     0.07  -0.12   0.03    -0.02  -0.04   0.13
    21   6    -0.00  -0.02   0.00    -0.02  -0.05  -0.10    -0.00  -0.04   0.12
    22   1     0.02  -0.01  -0.04     0.10  -0.15   0.06     0.02  -0.08   0.25
    23   1     0.06  -0.08   0.11    -0.03  -0.06  -0.12     0.03  -0.03   0.16
    24   7     0.15   0.01  -0.02    -0.10  -0.07  -0.03     0.21   0.00  -0.01
    25   1     0.19  -0.02   0.01    -0.14  -0.14  -0.12     0.34  -0.14   0.05
    26   1     0.15   0.01  -0.03     0.09   0.01  -0.18     0.31   0.02  -0.05
    27   1     0.11  -0.02   0.01    -0.24  -0.16   0.08    -0.12  -0.13   0.11
    28   7    -0.02   0.02  -0.09    -0.02  -0.04  -0.10    -0.05   0.04  -0.06
    29   7    -0.01   0.03  -0.09     0.13  -0.17   0.17    -0.08   0.02  -0.02
    30   6    -0.26  -0.00   0.15     0.00   0.17   0.04     0.06   0.01   0.02
    31   9    -0.26   0.19  -0.24     0.07   0.00   0.17     0.07  -0.04   0.07
    32   9     0.17  -0.34   0.55     0.02   0.08   0.06     0.03   0.03  -0.01
    33   9    -0.18   0.10  -0.15    -0.11   0.22  -0.20     0.04   0.01   0.01
    34   1    -0.01   0.01  -0.07    -0.05  -0.00  -0.17    -0.04   0.06  -0.09
                     10                     11                     12
                      A                      A                      A
 Frequencies --    215.7377               235.4278               271.5368
 Red. masses --      3.0758                 4.5540                 2.1374
 Frc consts  --      0.0843                 0.1487                 0.0929
 IR Inten    --      0.0000                 0.0000                 0.0000
  Atom  AN      X      Y      Z        X      Y      Z        X      Y      Z
     1   6     0.18   0.02  -0.09    -0.03  -0.08  -0.02    -0.08   0.05   0.05
     2   6     0.05   0.02   0.02     0.01   0.02  -0.05    -0.01   0.01  -0.02
     3   6    -0.06  -0.00   0.05    -0.02  -0.03   0.04    -0.01   0.00  -0.02
     4   6    -0.13  -0.11   0.05     0.03  -0.05  -0.05    -0.06  -0.07  -0.03
     5   1     0.17  -0.08  -0.30    -0.03  -0.07   0.02    -0.14   0.28   0.24
     6   1    -0.12  -0.38  -0.00     0.03   0.00  -0.06    -0.07  -0.32  -0.13
     7   6     0.00  -0.02   0.02    -0.00  -0.04  -0.03     0.14  -0.02   0.05
     8   1     0.00  -0.03   0.01    -0.00  -0.07  -0.04     0.32   0.05  -0.05
     9   1     0.00  -0.05   0.00    -0.00  -0.06  -0.04     0.19  -0.12   0.23
    10   1     0.10   0.03   0.00     0.13   0.03  -0.04    -0.00   0.01  -0.05
    11   1    -0.10  -0.01   0.05    -0.14  -0.04   0.04    -0.00   0.03  -0.04
    12   6    -0.00   0.07   0.06    -0.04   0.12  -0.04    -0.03   0.02  -0.06
    13   6    -0.06   0.06  -0.01    -0.11   0.17  -0.14    -0.00  -0.01   0.00
    14   6    -0.05   0.03  -0.04    -0.04   0.08   0.01     0.01  -0.02   0.05
    15   6    -0.01   0.03  -0.03     0.03   0.05   0.08     0.01  -0.02   0.04
    16   6    -0.02   0.08  -0.02     0.09  -0.02   0.23    -0.01   0.00   0.00
    17   6    -0.03   0.08   0.04     0.04   0.03   0.14    -0.03   0.03  -0.06
    18   1    -0.11   0.06  -0.00    -0.17   0.24  -0.26     0.01  -0.02   0.02
    19   1     0.02   0.09  -0.05     0.14  -0.07   0.33    -0.01  -0.01   0.02
    20   6     0.05  -0.12   0.01    -0.03   0.04  -0.20    -0.03   0.01  -0.02
    21   6    -0.03  -0.11  -0.03     0.02  -0.09   0.07    -0.02   0.02  -0.02
    22   1     0.10  -0.19   0.06    -0.08   0.10  -0.41    -0.04   0.04  -0.06
    23   1    -0.04  -0.15  -0.03     0.02  -0.18   0.10    -0.03   0.02  -0.04
    24   7     0.07   0.01  -0.00    -0.00  -0.08  -0.04     0.14   0.06  -0.08
    25   1     0.11   0.12   0.13    -0.01  -0.10  -0.07     0.42  -0.07   0.17
    26   1    -0.37  -0.06   0.15     0.07  -0.06  -0.08    -0.25  -0.02   0.11
    27   1     0.39   0.11  -0.07    -0.06  -0.10  -0.02    -0.28  -0.13   0.06
    28   7    -0.07  -0.04  -0.05    -0.02  -0.06   0.12     0.00  -0.02   0.05
    29   7     0.06  -0.06   0.01     0.00   0.09  -0.14    -0.00  -0.02   0.04
    30   6     0.01   0.03   0.01     0.01  -0.02   0.01    -0.01  -0.00  -0.00
    31   9     0.02  -0.00   0.04     0.01  -0.02   0.01    -0.01   0.01  -0.01
    32   9     0.01   0.03   0.00     0.01  -0.02   0.00    -0.01  -0.00  -0.00
    33   9    -0.01   0.04  -0.03     0.02  -0.02   0.02    -0.01  -0.00  -0.00
    34   1    -0.14  -0.04  -0.05    -0.04  -0.12   0.23     0.01  -0.03   0.07
                     13                     14                     15
                      A                      A                      A
 Frequencies --    319.6238               345.9253               379.0499
 Red. masses --      3.4934                 3.4512                 3.3665
 Frc consts  --      0.2103                 0.2433                 0.2850
 IR Inten    --      0.0000                 0.0000                 0.0000
  Atom  AN      X      Y      Z        X      Y      Z        X      Y      Z
     1   6    -0.10  -0.03   0.02     0.13  -0.02  -0.04     0.03   0.03  -0.04
     2   6     0.02  -0.04  -0.09     0.07   0.01  -0.00     0.04   0.04  -0.04
     3   6     0.00  -0.10   0.02     0.07   0.02  -0.01     0.04   0.02  -0.04
     4   6     0.12   0.03  -0.02     0.11   0.07   0.01     0.04   0.02  -0.05
     5   1    -0.08   0.05   0.20     0.16  -0.18  -0.22     0.05  -0.04  -0.08
     6   1     0.08   0.27  -0.04     0.10   0.28   0.06     0.04   0.09  -0.01
     7   6     0.02  -0.13  -0.08     0.14   0.02   0.01     0.18  -0.00   0.03
     8   1     0.02  -0.16  -0.09     0.24   0.06  -0.04     0.42   0.09  -0.10
     9   1     0.02  -0.15  -0.09     0.17  -0.04   0.12     0.25  -0.13   0.26
    10   1     0.10  -0.03  -0.16     0.11   0.01   0.01     0.04   0.04  -0.08
    11   1    -0.06  -0.17   0.06     0.13   0.03  -0.01     0.02   0.05  -0.06
    12   6    -0.00   0.03   0.01    -0.00   0.03  -0.07     0.01   0.02  -0.01
    13   6     0.05   0.03   0.14    -0.06   0.01  -0.11     0.04  -0.09   0.11
    14   6    -0.02   0.08   0.11    -0.04  -0.04   0.05    -0.06  -0.00  -0.01
    15   6    -0.01   0.14   0.01    -0.05  -0.04   0.06    -0.06  -0.00  -0.01
    16   6    -0.07   0.14  -0.06    -0.06   0.05  -0.06     0.04  -0.04   0.15
    17   6     0.00   0.03   0.02    -0.01   0.03  -0.08     0.02   0.01  -0.00
    18   1     0.12   0.02   0.17    -0.09   0.03  -0.15     0.09  -0.15   0.24
    19   1    -0.15   0.15  -0.09    -0.08   0.07  -0.09     0.11  -0.11   0.27
    20   6     0.08  -0.10   0.01    -0.12   0.01  -0.01    -0.06  -0.06   0.08
    21   6    -0.06  -0.08  -0.08    -0.11   0.03  -0.03    -0.05  -0.07   0.10
    22   1     0.17  -0.21   0.04    -0.15   0.04  -0.08    -0.02  -0.10   0.13
    23   1    -0.11  -0.14  -0.13    -0.12   0.04  -0.05    -0.04  -0.05   0.10
    24   7     0.00  -0.02  -0.00    -0.00  -0.02   0.05    -0.07   0.02  -0.06
    25   1    -0.01  -0.10  -0.07    -0.22   0.07  -0.14    -0.18   0.07  -0.16
    26   1     0.37  -0.01  -0.06     0.29   0.03  -0.08     0.10   0.01  -0.05
    27   1    -0.29  -0.08  -0.02     0.32   0.11  -0.04     0.09   0.05  -0.04
    28   7    -0.10  -0.01   0.03    -0.02  -0.10   0.15    -0.12   0.05  -0.12
    29   7     0.11   0.02   0.03    -0.05  -0.07   0.14    -0.12   0.05  -0.10
    30   6    -0.00   0.01  -0.00    -0.00   0.00  -0.01     0.01  -0.00   0.00
    31   9    -0.00   0.01   0.00    -0.01   0.01  -0.02     0.01  -0.02   0.02
    32   9    -0.00   0.01   0.00    -0.01  -0.00  -0.01     0.01   0.01   0.01
    33   9    -0.01   0.01  -0.02    -0.01  -0.00  -0.01     0.02   0.01   0.00
    34   1    -0.22  -0.03   0.05     0.02  -0.15   0.24    -0.19   0.11  -0.24
                     16                     17                     18
                      A                      A                      A
 Frequencies --    417.8548               450.1471               463.0120
 Red. masses --      3.6327                 3.5132                 4.6946
 Frc consts  --      0.3737                 0.4194                 0.5930
 IR Inten    --      0.0000                 0.0000                 0.0000
  Atom  AN      X      Y      Z        X      Y      Z        X      Y      Z
     1   6     0.01   0.00   0.08     0.02  -0.09   0.04     0.12   0.09   0.16
     2   6     0.14   0.05  -0.04     0.06  -0.03  -0.05     0.16  -0.11   0.08
     3   6    -0.14  -0.03   0.06     0.04   0.06  -0.01    -0.16  -0.02  -0.14
     4   6    -0.01   0.07  -0.04    -0.00   0.02   0.10    -0.13   0.17  -0.03
     5   1     0.05   0.04   0.29     0.01  -0.04   0.10     0.14   0.09   0.28
     6   1    -0.07   0.26  -0.12    -0.00  -0.05   0.08    -0.18   0.31  -0.09
     7   6     0.01  -0.10  -0.05    -0.08   0.07  -0.14     0.01  -0.07  -0.02
     8   1    -0.00  -0.04  -0.02    -0.33  -0.02  -0.01     0.01   0.18   0.11
     9   1     0.02  -0.25  -0.15    -0.15   0.20  -0.38     0.03  -0.25  -0.09
    10   1     0.29   0.07  -0.13     0.18  -0.02   0.06     0.04  -0.12  -0.02
    11   1    -0.29  -0.11   0.11     0.18  -0.03   0.05    -0.05  -0.08  -0.10
    12   6     0.04   0.18   0.05    -0.04   0.08  -0.16     0.10  -0.12   0.02
    13   6    -0.01   0.01   0.03     0.04  -0.04   0.05     0.07   0.04  -0.08
    14   6     0.07  -0.11  -0.07    -0.02   0.00  -0.00    -0.01   0.10  -0.03
    15   6    -0.04  -0.12  -0.06    -0.02   0.00   0.00     0.01   0.02   0.12
    16   6     0.00   0.04  -0.00     0.03  -0.02   0.08    -0.08  -0.06   0.06
    17   6    -0.06   0.12   0.12    -0.05   0.09  -0.17    -0.10  -0.06  -0.12
    18   1    -0.21  -0.04   0.10     0.14  -0.16   0.27     0.18   0.07  -0.12
    19   1     0.21   0.09  -0.08     0.13  -0.14   0.30    -0.20  -0.08   0.08
    20   6    -0.05  -0.01   0.04    -0.04  -0.02   0.01    -0.01  -0.02  -0.11
    21   6     0.05   0.05  -0.02    -0.03  -0.02   0.03     0.04  -0.09   0.03
    22   1    -0.10   0.05   0.12    -0.04  -0.02   0.01    -0.05   0.02  -0.25
    23   1     0.10   0.14   0.01    -0.03  -0.01   0.03     0.04  -0.15   0.06
    24   7     0.00  -0.00  -0.00     0.15  -0.07   0.16    -0.01   0.08   0.03
    25   1     0.00  -0.04  -0.02     0.20  -0.10   0.21    -0.02   0.10   0.04
    26   1     0.19   0.03  -0.07    -0.09   0.02   0.01     0.03   0.15  -0.03
    27   1    -0.19  -0.07   0.05    -0.09  -0.03  -0.01    -0.00   0.06   0.14
    28   7     0.11  -0.05  -0.06    -0.04  -0.00  -0.02    -0.04   0.02  -0.02
    29   7    -0.10  -0.10  -0.01    -0.04   0.01  -0.01     0.04   0.00   0.01
    30   6     0.00  -0.00   0.00    -0.00  -0.00   0.00    -0.00  -0.00   0.00
    31   9    -0.00   0.01  -0.01     0.00  -0.01   0.00    -0.00  -0.02   0.01
    32   9    -0.00  -0.00  -0.00    -0.00   0.01   0.00     0.00   0.01   0.01
    33   9    -0.01  -0.00  -0.00     0.01   0.00  -0.00     0.02   0.00   0.00
    34   1     0.19  -0.03  -0.07    -0.07   0.01  -0.05    -0.13  -0.00   0.01
                     19                     20                     21
                      A                      A                      A
 Frequencies --    485.5286               495.3390               512.0404
 Red. masses --      3.3599                 2.9290                17.0123
 Frc consts  --      0.4667                 0.4234                 2.6280
 IR Inten    --      0.0000                 0.0000                 0.0000
  Atom  AN      X      Y      Z        X      Y      Z        X      Y      Z
     1   6    -0.01  -0.02   0.00    -0.01   0.05   0.06     0.01   0.01   0.02
     2   6     0.01   0.01  -0.03     0.12   0.05  -0.03     0.03   0.00   0.00
     3   6     0.02   0.02  -0.00     0.11   0.02  -0.06     0.01   0.01  -0.02
     4   6     0.01  -0.01   0.02    -0.02  -0.06  -0.01    -0.01  -0.00  -0.00
     5   1    -0.00  -0.01   0.03     0.04   0.12   0.38     0.02   0.02   0.08
     6   1     0.01  -0.04   0.03     0.06  -0.36   0.09     0.00  -0.06   0.02
     7   6    -0.00   0.02  -0.04    -0.02   0.06  -0.10    -0.00   0.02  -0.02
     8   1    -0.04  -0.00  -0.02    -0.25  -0.02   0.03    -0.05   0.02   0.01
     9   1    -0.01   0.05  -0.07    -0.08   0.18  -0.34    -0.01   0.03  -0.07
    10   1     0.03   0.01   0.01     0.07   0.04  -0.05     0.01   0.00   0.00
    11   1     0.03  -0.00   0.01     0.06   0.03  -0.07     0.02   0.01  -0.02
    12   6     0.01   0.00   0.01     0.14  -0.04   0.08     0.03  -0.01  -0.00
    13   6    -0.04   0.04  -0.08     0.04  -0.02  -0.05     0.01  -0.01  -0.03
    14   6     0.09  -0.12   0.22    -0.03   0.01  -0.03    -0.01   0.01  -0.00
    15   6     0.08  -0.11   0.20    -0.04   0.02  -0.02    -0.03   0.02  -0.02
    16   6    -0.04   0.06  -0.10     0.03   0.05   0.01    -0.00  -0.01   0.04
    17   6     0.02   0.00   0.01     0.14  -0.04   0.08     0.02  -0.02   0.01
    18   1    -0.18   0.19  -0.37     0.00   0.04  -0.16     0.03  -0.00  -0.03
    19   1    -0.17   0.22  -0.38    -0.01   0.10  -0.09    -0.00  -0.03   0.07
    20   6    -0.01  -0.02   0.03    -0.09  -0.03   0.04    -0.01  -0.03   0.03
    21   6     0.01  -0.04   0.06    -0.10  -0.02   0.01    -0.00  -0.00  -0.01
    22   1    -0.06   0.03  -0.10    -0.05  -0.08   0.05    -0.00  -0.03   0.08
    23   1    -0.05   0.05  -0.06    -0.08   0.00   0.04    -0.06   0.06  -0.11
    24   7     0.02  -0.02   0.03    -0.06   0.03  -0.05    -0.01   0.01  -0.01
    25   1     0.03  -0.03   0.04    -0.03   0.02  -0.02    -0.00   0.01   0.00
    26   1    -0.04  -0.00   0.00    -0.31  -0.01   0.07    -0.07   0.01   0.01
    27   1    -0.04  -0.01  -0.01    -0.30  -0.09   0.03    -0.04  -0.01   0.02
    28   7    -0.06   0.06  -0.11    -0.05  -0.06   0.03    -0.00  -0.01   0.04
    29   7    -0.06   0.05  -0.11    -0.06   0.01   0.05    -0.03   0.01  -0.03
    30   6    -0.01  -0.02  -0.01    -0.01   0.01   0.00     0.21  -0.15  -0.19
    31   9    -0.02  -0.02   0.02     0.01  -0.01  -0.01    -0.25   0.38   0.35
    32   9     0.02   0.03   0.02    -0.02   0.00   0.00     0.44   0.10  -0.13
    33   9     0.03  -0.00  -0.01     0.01   0.01  -0.00    -0.31  -0.39  -0.10
    34   1    -0.21   0.26  -0.47    -0.03  -0.11   0.11    -0.03   0.00   0.01
                     22                     23                     24
                      A                      A                      A
 Frequencies --    519.0787               573.4506               599.7520
 Red. masses --     16.3361                 4.4614                 4.7995
 Frc consts  --      2.5934                 0.8644                 1.0172
 IR Inten    --      0.0000                 0.0000                 0.0000
  Atom  AN      X      Y      Z        X      Y      Z        X      Y      Z
     1   6    -0.01   0.00  -0.02    -0.05  -0.00  -0.05    -0.05  -0.07  -0.06
     2   6    -0.02   0.01   0.00    -0.03   0.02  -0.02    -0.06  -0.05  -0.07
     3   6     0.00  -0.01   0.02     0.05  -0.02   0.03    -0.07   0.08   0.00
     4   6     0.01  -0.02  -0.00     0.06  -0.05   0.01    -0.07   0.09   0.02
     5   1    -0.02  -0.00  -0.03    -0.05   0.02  -0.01    -0.07  -0.09  -0.17
     6   1     0.01  -0.00  -0.01     0.07  -0.06   0.03    -0.09   0.18  -0.01
     7   6    -0.01  -0.01   0.02    -0.00  -0.02  -0.01     0.05   0.04  -0.05
     8   1     0.00  -0.03   0.00    -0.02  -0.09  -0.04     0.30   0.15  -0.18
     9   1    -0.01  -0.00   0.03    -0.01   0.06   0.00     0.12  -0.11   0.21
    10   1    -0.01   0.01  -0.01    -0.02   0.02  -0.03    -0.06  -0.05   0.05
    11   1    -0.02  -0.00   0.01     0.02  -0.01   0.02    -0.05  -0.00   0.06
    12   6    -0.01   0.01   0.01     0.00   0.02   0.07     0.00  -0.03   0.07
    13   6     0.00  -0.02   0.04     0.00  -0.03   0.11     0.06   0.14   0.05
    14   6    -0.02   0.02  -0.07    -0.06   0.05  -0.15     0.12   0.03  -0.05
    15   6    -0.00   0.01  -0.05     0.05  -0.06   0.08     0.08   0.06  -0.04
    16   6     0.01   0.00  -0.01    -0.01   0.07  -0.10     0.05  -0.11  -0.07
    17   6    -0.00   0.01   0.01     0.00   0.06  -0.02    -0.00  -0.07   0.07
    18   1     0.02  -0.06   0.12     0.00  -0.10   0.23     0.03   0.22  -0.08
    19   1     0.06  -0.02   0.03     0.00   0.13  -0.20     0.01  -0.06  -0.17
    20   6    -0.01   0.06  -0.05    -0.13   0.12  -0.21    -0.13  -0.02   0.05
    21   6     0.00   0.03  -0.00     0.06  -0.09   0.19    -0.11  -0.06  -0.02
    22   1    -0.03   0.08  -0.06    -0.26   0.27  -0.54     0.00  -0.17  -0.03
    23   1     0.03   0.00   0.04     0.11  -0.10   0.26    -0.02   0.17   0.03
    24   7    -0.01  -0.00  -0.01    -0.00  -0.01  -0.01     0.04  -0.04   0.08
    25   1    -0.01  -0.00  -0.02    -0.04  -0.01  -0.06     0.22  -0.12   0.24
    26   1     0.03  -0.02   0.00     0.05  -0.05   0.03    -0.03   0.06  -0.11
    27   1     0.00  -0.00  -0.01    -0.08  -0.02  -0.05    -0.01   0.07  -0.10
    28   7     0.03  -0.02   0.03    -0.05   0.04  -0.15     0.04  -0.21  -0.12
    29   7     0.03  -0.03   0.08     0.05  -0.06   0.20    -0.02   0.23   0.12
    30   6    -0.20  -0.24  -0.04     0.01   0.02  -0.02    -0.00   0.00  -0.01
    31   9    -0.36  -0.25   0.07     0.01  -0.00   0.03    -0.00  -0.01   0.01
    32   9     0.06   0.49   0.24     0.04  -0.03  -0.02     0.01  -0.00  -0.00
    33   9     0.41  -0.11  -0.29    -0.02  -0.01   0.04     0.00  -0.00   0.01
    34   1     0.12  -0.10   0.18    -0.01   0.00  -0.08     0.05  -0.25  -0.05
                     25                     26                     27
                      A                      A                      A
 Frequencies --    604.4696               616.3323               651.0383
 Red. masses --      4.1325                 6.0605                 1.3058
 Frc consts  --      0.8896                 1.3564                 0.3261
 IR Inten    --      0.0000                 0.0000                 0.0000
  Atom  AN      X      Y      Z        X      Y      Z        X      Y      Z
     1   6     0.05   0.08   0.07     0.05   0.01   0.06    -0.00  -0.04  -0.01
     2   6     0.02   0.05   0.13     0.05  -0.08   0.01     0.01   0.01   0.02
     3   6     0.04  -0.13   0.03    -0.05  -0.02  -0.07     0.01  -0.02  -0.00
     4   6     0.07  -0.09  -0.03    -0.07   0.06  -0.02    -0.00   0.02   0.03
     5   1     0.05   0.08   0.05     0.06   0.01   0.08     0.01  -0.12  -0.14
     6   1     0.06  -0.09  -0.04    -0.08   0.11  -0.04    -0.01   0.18   0.04
     7   6    -0.10  -0.10   0.16     0.01  -0.11  -0.07    -0.00  -0.01   0.01
     8   1    -0.38  -0.21   0.30     0.03  -0.02  -0.04    -0.04  -0.02   0.03
     9   1    -0.19   0.07  -0.15     0.02  -0.18  -0.08    -0.02   0.02  -0.03
    10   1     0.02   0.06  -0.04     0.12  -0.06  -0.10     0.04   0.02   0.01
    11   1     0.04   0.02  -0.07    -0.11  -0.14  -0.00     0.04  -0.01  -0.01
    12   6    -0.05   0.09  -0.11    -0.07  -0.01   0.09     0.02   0.01  -0.01
    13   6     0.03   0.07  -0.01    -0.21  -0.13   0.00     0.01  -0.02  -0.02
    14   6     0.09  -0.03   0.03    -0.15  -0.13  -0.02    -0.00  -0.00  -0.00
    15   6     0.07   0.02   0.02     0.18  -0.05  -0.09    -0.01  -0.00   0.01
    16   6     0.04  -0.04  -0.04     0.23  -0.05  -0.11     0.01   0.03   0.01
    17   6    -0.04   0.04  -0.14     0.06   0.07  -0.04     0.02   0.01  -0.01
    18   1     0.12  -0.02   0.17    -0.32  -0.15   0.03     0.03  -0.02  -0.01
    19   1     0.13  -0.13   0.13     0.35  -0.01  -0.16     0.02   0.03   0.01
    20   6    -0.07  -0.02   0.05     0.13   0.18   0.05    -0.01  -0.00  -0.00
    21   6    -0.07  -0.03  -0.00    -0.18   0.09   0.12    -0.00  -0.00   0.01
    22   1    -0.01  -0.09  -0.05     0.21   0.09  -0.02    -0.02   0.00  -0.01
    23   1    -0.05   0.14  -0.04    -0.25  -0.01   0.06     0.00  -0.02   0.02
    24   7    -0.06   0.06  -0.12    -0.00   0.02   0.02    -0.11   0.03  -0.06
    25   1    -0.17   0.11  -0.22     0.04   0.01   0.06     0.65  -0.28   0.59
    26   1     0.14  -0.08   0.13    -0.01   0.06  -0.02     0.15  -0.01  -0.02
    27   1     0.14  -0.05   0.14     0.02   0.03   0.04     0.14   0.04   0.00
    28   7     0.02  -0.13  -0.07    -0.14   0.01   0.08    -0.01   0.01   0.00
    29   7    -0.02   0.15   0.04     0.12   0.14  -0.00    -0.01  -0.01  -0.00
    30   6    -0.00   0.00  -0.01     0.00   0.00  -0.01     0.01  -0.01   0.01
    31   9    -0.00  -0.01   0.01     0.00   0.00   0.01     0.00   0.01  -0.00
    32   9     0.01  -0.00  -0.00     0.01  -0.00  -0.01    -0.01   0.00  -0.00
    33   9     0.00   0.00   0.01    -0.00  -0.00   0.01    -0.00  -0.00  -0.01
    34   1    -0.03  -0.06  -0.20     0.03   0.09  -0.03    -0.01   0.01  -0.00
                     28                     29                     30
                      A                      A                      A
 Frequencies --    704.0422               732.5547               749.5935
 Red. masses --     11.1107                 6.1971                 5.4668
 Frc consts  --      3.2448                 1.9594                 1.8098
 IR Inten    --      0.0000                 0.0000                 0.0000
  Atom  AN      X      Y      Z        X      Y      Z        X      Y      Z
     1   6    -0.01   0.01  -0.01    -0.07   0.01  -0.05    -0.08   0.00  -0.03
     2   6    -0.01  -0.03  -0.00    -0.07  -0.21   0.05    -0.11   0.02   0.03
     3   6     0.02  -0.00  -0.02     0.10  -0.05  -0.20    -0.09  -0.05  -0.02
     4   6     0.03  -0.02   0.01     0.07  -0.03   0.04    -0.07   0.01  -0.02
     5   1    -0.02   0.04   0.02    -0.11   0.06  -0.12    -0.12  -0.01  -0.21
     6   1     0.03  -0.05   0.01     0.12  -0.07   0.13    -0.13   0.16  -0.10
     7   6     0.00  -0.01  -0.01     0.01  -0.08  -0.05    -0.06  -0.05   0.07
     8   1     0.00  -0.01  -0.01     0.00  -0.01  -0.01     0.04  -0.00   0.02
     9   1     0.00   0.02   0.02    -0.01   0.14   0.07    -0.04  -0.10   0.18
    10   1    -0.02  -0.03  -0.01    -0.10  -0.22   0.01    -0.17   0.01   0.05
    11   1     0.03  -0.00  -0.02     0.14  -0.08  -0.18    -0.15  -0.07  -0.01
    12   6    -0.01  -0.00   0.06     0.01  -0.08   0.30     0.11  -0.05  -0.07
    13   6    -0.00   0.07   0.05    -0.10   0.16   0.06     0.06  -0.28  -0.17
    14   6    -0.00   0.04  -0.04    -0.00   0.05  -0.07     0.01  -0.10  -0.04
    15   6     0.05  -0.05   0.06     0.00  -0.06   0.09    -0.01   0.10   0.06
    16   6     0.02  -0.03  -0.03     0.08   0.12   0.11     0.02   0.31   0.17
    17   6    -0.02   0.03  -0.05    -0.03   0.21  -0.21     0.09   0.11   0.00
    18   1    -0.01   0.08   0.04    -0.24   0.21  -0.04     0.03  -0.24  -0.27
    19   1     0.02   0.01  -0.10     0.20   0.11   0.15     0.02   0.33   0.14
    20   6    -0.02  -0.02   0.01    -0.03  -0.06   0.08    -0.01  -0.01  -0.00
    21   6    -0.04  -0.01   0.03     0.05   0.04  -0.08    -0.01  -0.00   0.00
    22   1    -0.03  -0.01  -0.05    -0.07  -0.02   0.19     0.06  -0.09  -0.02
    23   1     0.15  -0.19   0.39     0.10   0.14  -0.04     0.07   0.08   0.08
    24   7     0.02  -0.00   0.01    -0.01   0.04   0.02     0.08  -0.04   0.08
    25   1    -0.15   0.07  -0.13     0.00   0.02   0.02    -0.15   0.05  -0.11
    26   1     0.00  -0.01   0.03     0.05  -0.01   0.11     0.09  -0.02  -0.05
    27   1    -0.05  -0.01  -0.02    -0.06   0.08  -0.07     0.07   0.07  -0.01
    28   7     0.01   0.01  -0.04     0.09  -0.05   0.00     0.04  -0.08  -0.08
    29   7    -0.02   0.01  -0.02    -0.10  -0.03  -0.09     0.02   0.11   0.04
    30   6     0.23  -0.25   0.44    -0.02   0.02  -0.04     0.01  -0.01   0.02
    31   9     0.19   0.28  -0.09    -0.02  -0.03   0.00     0.02   0.02  -0.00
    32   9    -0.31   0.11   0.06     0.03  -0.01  -0.01    -0.02   0.01   0.00
    33   9    -0.02  -0.21  -0.27     0.00   0.02   0.02    -0.00  -0.02  -0.01
    34   1     0.07  -0.06   0.09     0.14  -0.11   0.12     0.15  -0.12   0.01
                     31                     32                     33
                      A                      A                      A
 Frequencies --    777.9692               790.0503               805.1113
 Red. masses --      1.2888                 5.0668                 3.0375
 Frc consts  --      0.4596                 1.8634                 1.1601
 IR Inten    --      0.0000                 0.0000                 0.0000
  Atom  AN      X      Y      Z        X      Y      Z        X      Y      Z
     1   6     0.01   0.00   0.00     0.05  -0.00   0.13    -0.03  -0.00   0.06
     2   6     0.01   0.03  -0.01    -0.04  -0.13   0.04    -0.07  -0.07   0.04
     3   6    -0.01  -0.00   0.01     0.08  -0.01  -0.15     0.02  -0.02  -0.08
     4   6     0.01  -0.02   0.01    -0.00   0.07  -0.05    -0.06   0.08  -0.07
     5   1     0.01  -0.00   0.02     0.01  -0.05  -0.13    -0.09  -0.06  -0.26
     6   1    -0.01   0.03  -0.01     0.09  -0.23   0.09    -0.02  -0.07  -0.02
     7   6    -0.00   0.00   0.01     0.02  -0.05  -0.07    -0.03  -0.08   0.03
     8   1    -0.02  -0.02   0.01     0.01   0.07  -0.00    -0.03  -0.01   0.08
     9   1    -0.01   0.00  -0.02     0.02   0.01  -0.05    -0.03  -0.06   0.05
    10   1     0.02   0.04  -0.01     0.03  -0.12  -0.04     0.00  -0.06  -0.07
    11   1     0.02   0.02  -0.00     0.02  -0.10  -0.10    -0.04  -0.07  -0.05
    12   6     0.00   0.01  -0.01    -0.14   0.04  -0.05    -0.05   0.06  -0.14
    13   6     0.02  -0.01   0.02    -0.10   0.03   0.06     0.07   0.07   0.02
    14   6     0.01  -0.01   0.03     0.10  -0.13   0.22    -0.01   0.09  -0.05
    15   6     0.02  -0.02   0.03    -0.13   0.14  -0.21     0.05  -0.08   0.07
    16   6    -0.00  -0.03  -0.00    -0.01   0.06   0.05     0.10   0.05  -0.05
    17   6    -0.02   0.00  -0.03     0.08  -0.04   0.07     0.15  -0.04   0.11
    18   1    -0.09   0.11  -0.21    -0.31   0.17  -0.22     0.36  -0.08   0.33
    19   1    -0.03  -0.00  -0.05     0.05  -0.07   0.29     0.09   0.24  -0.40
    20   6     0.01   0.00   0.00    -0.07   0.03  -0.10    -0.05  -0.05   0.04
    21   6    -0.03   0.01  -0.01     0.10  -0.04   0.04    -0.03   0.01  -0.01
    22   1     0.08  -0.08   0.18    -0.05   0.01   0.04    -0.09  -0.00   0.07
    23   1     0.12  -0.17   0.29     0.14   0.02   0.07    -0.00  -0.04   0.05
    24   7     0.00  -0.01  -0.00    -0.02   0.05   0.01     0.03   0.01   0.04
    25   1     0.01  -0.00   0.00     0.03  -0.02   0.02    -0.03  -0.01  -0.04
    26   1     0.05  -0.02   0.00    -0.29   0.13   0.04    -0.22   0.10  -0.04
    27   1    -0.00  -0.01   0.00     0.27   0.09   0.15     0.26   0.14   0.09
    28   7    -0.05   0.05  -0.09     0.01   0.03  -0.14    -0.02   0.05   0.03
    29   7    -0.00   0.01  -0.02     0.03  -0.04   0.12    -0.07  -0.07  -0.04
    30   6    -0.01   0.01  -0.01     0.01  -0.01   0.02    -0.00   0.01  -0.01
    31   9    -0.01  -0.01   0.00     0.01   0.01  -0.00    -0.01  -0.01   0.00
    32   9     0.02  -0.00  -0.01    -0.01   0.00   0.01     0.01  -0.00  -0.00
    33   9     0.00   0.00   0.01     0.00  -0.01  -0.01    -0.00   0.00   0.00
    34   1     0.26  -0.39   0.71     0.07  -0.06   0.02    -0.01  -0.06   0.21
                     34                     35                     36
                      A                      A                      A
 Frequencies --    809.2529               832.7080               861.4968
 Red. masses --      3.2897                 3.5064                 2.4634
 Frc consts  --      1.2693                 1.4325                 1.0772
 IR Inten    --      0.0000                 0.0000                 0.0000
  Atom  AN      X      Y      Z        X      Y      Z        X      Y      Z
     1   6     0.07  -0.00   0.08     0.06   0.08   0.16     0.07  -0.02   0.11
     2   6     0.01  -0.01   0.00    -0.12   0.23  -0.01    -0.10   0.09  -0.04
     3   6     0.04   0.01  -0.04    -0.07  -0.11  -0.18     0.10   0.05   0.14
     4   6     0.06  -0.00   0.01     0.06  -0.15   0.00    -0.09   0.11  -0.06
     5   1     0.09  -0.02   0.08     0.09  -0.07   0.01     0.08  -0.09   0.05
     6   1     0.12  -0.18   0.09     0.06   0.05   0.05    -0.09  -0.02  -0.12
     7   6     0.04   0.03  -0.10    -0.04   0.04  -0.10     0.01  -0.11  -0.04
     8   1     0.06   0.07  -0.10     0.22   0.10  -0.26     0.01  -0.44  -0.21
     9   1     0.05   0.03  -0.08     0.02  -0.07   0.12     0.00  -0.09  -0.07
    10   1     0.02  -0.00  -0.01    -0.31   0.22  -0.08    -0.25   0.08  -0.14
    11   1     0.00  -0.05  -0.01    -0.22  -0.07  -0.21     0.32  -0.03   0.20
    12   6    -0.12   0.03  -0.05     0.02   0.02   0.02    -0.00  -0.04   0.04
    13   6    -0.13  -0.07   0.03     0.03   0.02   0.04     0.01  -0.03   0.04
    14   6    -0.06  -0.01  -0.12    -0.01   0.03  -0.01    -0.02   0.03  -0.03
    15   6     0.03   0.00   0.17    -0.01  -0.01  -0.02     0.00  -0.00   0.03
    16   6    -0.13   0.03   0.05     0.03  -0.04  -0.01     0.01   0.02  -0.01
    17   6    -0.02  -0.07   0.08     0.01  -0.02  -0.03    -0.00   0.02  -0.07
    18   1    -0.14  -0.29   0.42    -0.06   0.13  -0.17    -0.12   0.15  -0.28
    19   1    -0.48   0.13  -0.16     0.01   0.00  -0.08     0.04  -0.06   0.13
    20   6     0.07   0.00   0.04    -0.01  -0.00   0.00    -0.02  -0.03   0.02
    21   6     0.05   0.02  -0.06    -0.00  -0.01  -0.00     0.03  -0.01  -0.02
    22   1     0.10  -0.03  -0.00    -0.03   0.02  -0.01    -0.06   0.02  -0.05
    23   1     0.12   0.07   0.02    -0.04   0.01  -0.06     0.00   0.06  -0.10
    24   7    -0.04   0.02  -0.03     0.02  -0.07   0.11     0.00  -0.05  -0.05
    25   1     0.06  -0.04   0.04     0.07  -0.09   0.15    -0.00  -0.10  -0.09
    26   1    -0.12   0.03   0.07     0.28  -0.19   0.01    -0.24   0.12  -0.17
    27   1     0.10  -0.03   0.10     0.27   0.10   0.22     0.18  -0.11   0.17
    28   7     0.08  -0.08  -0.06     0.00   0.00   0.03     0.02   0.00   0.02
    29   7     0.03   0.12  -0.03    -0.00  -0.02  -0.00    -0.02   0.01  -0.01
    30   6    -0.00   0.00  -0.00     0.00  -0.00   0.00     0.00  -0.00   0.00
    31   9    -0.00  -0.00  -0.00    -0.00  -0.00  -0.00     0.00   0.00  -0.00
    32   9     0.00   0.00  -0.00     0.00  -0.00  -0.00    -0.00   0.00   0.00
    33   9     0.00  -0.00   0.00    -0.00   0.00   0.00     0.00   0.00  -0.00
    34   1     0.21  -0.15   0.07    -0.07   0.07  -0.10    -0.01   0.01  -0.00
                     37                     38                     39
                      A                      A                      A
 Frequencies --    878.7629               896.1144               912.3900
 Red. masses --      1.9282                 1.9183                 1.3314
 Frc consts  --      0.8773                 0.9076                 0.6530
 IR Inten    --      0.0000                 0.0000                 0.0000
  Atom  AN      X      Y      Z        X      Y      Z        X      Y      Z
     1   6    -0.06   0.03  -0.03    -0.01   0.07  -0.01     0.00  -0.02   0.01
     2   6     0.07   0.02  -0.04     0.01   0.06  -0.05    -0.02   0.00   0.00
     3   6     0.04   0.02  -0.08     0.06   0.03  -0.01     0.01  -0.00   0.01
     4   6    -0.03   0.00  -0.05    -0.06  -0.02  -0.06     0.01   0.02   0.01
     5   1    -0.05  -0.05  -0.13     0.03  -0.01   0.03    -0.00  -0.02  -0.01
     6   1    -0.02   0.05   0.01    -0.06   0.14  -0.03     0.01  -0.05  -0.00
     7   6    -0.00  -0.06   0.13     0.00  -0.05   0.05    -0.01  -0.01  -0.01
     8   1    -0.18  -0.06   0.25    -0.07  -0.19   0.03     0.02  -0.03  -0.03
     9   1    -0.06   0.04  -0.07    -0.02   0.02  -0.03    -0.00  -0.02   0.01
    10   1     0.30   0.06  -0.26    -0.04   0.07  -0.26    -0.02   0.00   0.03
    11   1     0.16   0.23  -0.21     0.17   0.19  -0.11     0.06  -0.03   0.03
    12   6    -0.02   0.06  -0.01     0.02  -0.02   0.09     0.01   0.01  -0.00
    13   6     0.01  -0.05   0.11    -0.09   0.07  -0.11     0.03   0.02   0.01
    14   6    -0.04   0.01  -0.06     0.02  -0.04   0.07     0.01  -0.00  -0.01
    15   6    -0.01   0.01   0.01    -0.02   0.02  -0.02    -0.00  -0.00   0.01
    16   6    -0.03  -0.04   0.02    -0.00  -0.02   0.03    -0.01  -0.00   0.04
    17   6     0.01  -0.05  -0.00     0.01  -0.02  -0.02    -0.01   0.01  -0.02
    18   1    -0.36   0.22  -0.41     0.20  -0.32   0.63     0.01   0.05  -0.05
    19   1    -0.22   0.03  -0.11    -0.13   0.02  -0.06    -0.13   0.10  -0.15
    20   6     0.02   0.01   0.00    -0.01   0.01  -0.02    -0.00   0.07  -0.08
    21   6     0.02  -0.00  -0.01     0.02  -0.00  -0.01    -0.07   0.03  -0.00
    22   1     0.01   0.02  -0.03     0.04  -0.04   0.12     0.22  -0.19   0.49
    23   1    -0.02   0.04  -0.07     0.06  -0.05   0.08     0.19  -0.31   0.52
    24   7     0.03  -0.02   0.07     0.02  -0.06   0.06     0.00   0.01  -0.02
    25   1     0.03  -0.03   0.07     0.05  -0.06   0.11    -0.01  -0.01  -0.04
    26   1    -0.01  -0.01  -0.12     0.05  -0.06  -0.24    -0.05   0.04   0.04
    27   1     0.00   0.17  -0.07    -0.03   0.12  -0.04     0.03  -0.04   0.03
    28   7     0.02  -0.02   0.02     0.00   0.01  -0.03     0.02  -0.05   0.02
    29   7     0.01   0.01  -0.00     0.00   0.00   0.02     0.01  -0.03  -0.00
    30   6     0.00  -0.00   0.00    -0.00   0.00  -0.00    -0.01   0.00  -0.01
    31   9     0.00   0.00  -0.00     0.00   0.00   0.00    -0.01  -0.00  -0.00
    32   9    -0.00  -0.00   0.00    -0.00   0.00   0.00     0.01   0.00  -0.01
    33   9    -0.00   0.00  -0.00     0.00  -0.00  -0.00    -0.00   0.00   0.00
    34   1    -0.02   0.06  -0.13     0.03  -0.03   0.04    -0.08   0.16  -0.36
                     40                     41                     42
                      A                      A                      A
 Frequencies --    929.5955               936.5712               942.5779
 Red. masses --      1.8086                 1.9853                 1.8922
 Frc consts  --      0.9208                 1.0260                 0.9905
 IR Inten    --      0.0000                 0.0000                 0.0000
  Atom  AN      X      Y      Z        X      Y      Z        X      Y      Z
     1   6    -0.10   0.05   0.05     0.00   0.09   0.02     0.13   0.02  -0.01
     2   6     0.02  -0.01   0.01    -0.01  -0.07   0.02    -0.02  -0.05  -0.08
     3   6    -0.01   0.04   0.02     0.01  -0.02   0.06     0.02   0.01  -0.03
     4   6     0.07  -0.01  -0.07    -0.10  -0.10  -0.05    -0.03  -0.02   0.00
     5   1    -0.10  -0.16  -0.30    -0.03   0.12  -0.03     0.16   0.14   0.33
     6   1     0.12  -0.25  -0.04    -0.18   0.33  -0.12    -0.02   0.13   0.08
     7   6     0.04  -0.02  -0.03     0.16   0.07  -0.04    -0.09   0.01   0.06
     8   1    -0.06   0.00   0.06    -0.24  -0.11   0.14     0.11   0.06  -0.05
     9   1     0.03  -0.07  -0.18     0.04   0.37  -0.38    -0.04   0.04   0.33
    10   1    -0.04  -0.01  -0.04    -0.21  -0.09   0.04    -0.06  -0.05  -0.22
    11   1    -0.16   0.08  -0.01    -0.16  -0.07   0.08     0.04   0.11  -0.09
    12   6     0.05  -0.01   0.03    -0.06  -0.04  -0.04    -0.04  -0.01  -0.03
    13   6     0.04   0.01  -0.03    -0.01  -0.01   0.04     0.01   0.03   0.03
    14   6     0.02  -0.01  -0.01    -0.01   0.02  -0.01     0.00   0.00  -0.01
    15   6     0.01  -0.03   0.03     0.02  -0.01   0.02     0.02  -0.02   0.04
    16   6    -0.09   0.03  -0.07     0.01   0.02  -0.02    -0.04   0.10  -0.07
    17   6    -0.05   0.01   0.04     0.02   0.01   0.04     0.05  -0.04   0.04
    18   1     0.07  -0.01   0.01    -0.03   0.07  -0.10     0.02   0.06  -0.02
    19   1     0.17  -0.28   0.51     0.09  -0.01   0.05     0.21  -0.20   0.50
    20   6     0.06   0.03   0.02    -0.03  -0.01  -0.02     0.02   0.02   0.02
    21   6    -0.07   0.02   0.02     0.02   0.00  -0.02    -0.05   0.03   0.01
    22   1     0.03   0.07  -0.12     0.03  -0.08   0.15    -0.01   0.06  -0.04
    23   1    -0.02  -0.07   0.14     0.08  -0.04   0.08     0.06  -0.05   0.20
    24   7    -0.01  -0.00   0.04     0.00  -0.02   0.01    -0.02  -0.02   0.02
    25   1     0.04  -0.17  -0.02    -0.02   0.09   0.06     0.03   0.08   0.15
    26   1    -0.19   0.03  -0.04     0.34  -0.18  -0.16     0.07  -0.05  -0.11
    27   1     0.26   0.29   0.06     0.04   0.09   0.03    -0.27  -0.10  -0.08
    28   7    -0.01  -0.03  -0.01     0.01   0.00   0.01     0.01  -0.04  -0.02
    29   7     0.02  -0.02  -0.03    -0.02   0.01   0.01    -0.00  -0.04  -0.03
    30   6    -0.00   0.00  -0.00    -0.00   0.00  -0.00    -0.00   0.00  -0.00
    31   9    -0.00  -0.00   0.00     0.00   0.00   0.00    -0.00  -0.00  -0.00
    32   9     0.00   0.00  -0.00     0.00  -0.00  -0.00     0.01   0.00  -0.01
    33   9    -0.00   0.00   0.00     0.00  -0.00  -0.00    -0.00   0.00   0.00
    34   1     0.04  -0.02  -0.03    -0.03   0.04  -0.06     0.04  -0.00  -0.07
                     43                     44                     45
                      A                      A                      A
 Frequencies --    950.7779               956.6539               986.4235
 Red. masses --      2.8002                 2.4180                 1.4297
 Frc consts  --      1.4914                 1.3038                 0.8197
 IR Inten    --      0.0000                 0.0000                 0.0000
  Atom  AN      X      Y      Z        X      Y      Z        X      Y      Z
     1   6     0.02   0.04   0.02    -0.07  -0.06  -0.06     0.00  -0.00   0.00
     2   6     0.03  -0.05  -0.05     0.03   0.12   0.08    -0.00  -0.00  -0.01
     3   6    -0.06   0.11   0.03     0.03  -0.13  -0.07     0.01  -0.01  -0.00
     4   6     0.11  -0.04  -0.01    -0.09   0.07   0.02    -0.00   0.01  -0.00
     5   1     0.06  -0.03   0.04    -0.09  -0.03  -0.08     0.00  -0.01   0.00
     6   1     0.16  -0.20   0.05    -0.10   0.10  -0.01    -0.00  -0.01  -0.00
     7   6    -0.06  -0.03   0.02     0.01   0.01  -0.02    -0.01   0.01   0.00
     8   1     0.05   0.07   0.00     0.04   0.05  -0.02     0.01   0.01  -0.00
     9   1    -0.01  -0.20   0.08     0.02  -0.01  -0.01    -0.00   0.03   0.03
    10   1     0.02  -0.05  -0.21     0.25   0.14   0.29    -0.02  -0.00  -0.01
    11   1    -0.27   0.25  -0.06     0.17  -0.27   0.03     0.02  -0.02   0.00
    12   6    -0.02  -0.03  -0.01     0.02   0.05   0.05     0.01  -0.00  -0.01
    13   6    -0.03  -0.10  -0.03    -0.05  -0.01   0.00     0.02   0.02   0.01
    14   6    -0.03   0.03   0.00    -0.03   0.00   0.00     0.00   0.00  -0.02
    15   6     0.04  -0.01   0.04     0.02  -0.01   0.06     0.01  -0.03   0.03
    16   6     0.05  -0.02  -0.08    -0.03   0.01  -0.12    -0.02   0.02  -0.00
    17   6    -0.01   0.04   0.01     0.07  -0.07   0.00    -0.00  -0.01   0.01
    18   1    -0.05  -0.07  -0.08    -0.14  -0.09   0.13     0.05   0.03   0.00
    19   1     0.28  -0.09   0.05     0.16  -0.32   0.49     0.01  -0.03   0.09
    20   6    -0.12  -0.07  -0.08    -0.05  -0.02  -0.03    -0.00   0.10  -0.08
    21   6     0.12  -0.05  -0.09     0.06  -0.02  -0.06     0.02  -0.03   0.07
    22   1     0.08  -0.32   0.44     0.03  -0.12   0.21     0.22  -0.16   0.59
    23   1     0.16  -0.14  -0.01     0.14  -0.15   0.10    -0.31   0.32  -0.55
    24   7    -0.04  -0.00   0.03     0.05   0.01  -0.00    -0.00  -0.00  -0.00
    25   1     0.06  -0.09   0.08    -0.05   0.06  -0.08     0.01  -0.01   0.00
    26   1    -0.11  -0.01  -0.02     0.01   0.06   0.07    -0.01   0.01  -0.00
    27   1    -0.02   0.13  -0.03    -0.01  -0.09  -0.03     0.00   0.00   0.00
    28   7     0.02   0.10   0.07     0.02   0.04   0.03    -0.03  -0.04  -0.02
    29   7    -0.04   0.11   0.06    -0.02   0.05   0.02     0.01  -0.03  -0.02
    30   6    -0.00   0.00  -0.00    -0.00   0.00  -0.00    -0.00   0.01  -0.02
    31   9     0.00   0.00  -0.00    -0.00  -0.00  -0.00     0.03   0.01   0.01
    32   9    -0.00  -0.00   0.00     0.00   0.00  -0.00    -0.03  -0.00   0.03
    33   9     0.00  -0.00  -0.00     0.00  -0.00  -0.00     0.01  -0.02  -0.01
    34   1    -0.15   0.11   0.03    -0.05   0.05  -0.01     0.00  -0.12   0.11
                     46                     47                     48
                      A                      A                      A
 Frequencies --   1025.3666              1032.5560              1052.7073
 Red. masses --      1.5478                 9.8657                 1.9177
 Frc consts  --      0.9588                 6.1973                 1.2521
 IR Inten    --      0.0000                 0.0000                 0.0000
  Atom  AN      X      Y      Z        X      Y      Z        X      Y      Z
     1   6    -0.00  -0.01   0.06    -0.01   0.01   0.01    -0.01   0.12  -0.03
     2   6     0.00  -0.03  -0.11     0.01  -0.01  -0.01     0.07  -0.04   0.08
     3   6     0.00  -0.11   0.02    -0.00  -0.01   0.01     0.06  -0.06   0.09
     4   6    -0.00   0.05  -0.02    -0.00   0.00  -0.00     0.00  -0.03  -0.12
     5   1     0.03  -0.15  -0.05    -0.01  -0.01  -0.02     0.01   0.10   0.02
     6   1    -0.02  -0.10  -0.10    -0.02  -0.01  -0.04     0.01  -0.07  -0.11
     7   6    -0.00   0.09   0.05     0.00   0.01   0.01    -0.10   0.03  -0.06
     8   1    -0.03   0.24   0.16    -0.01   0.03   0.03     0.22   0.16  -0.21
     9   1    -0.04   0.50   0.26    -0.00   0.05   0.02     0.00  -0.13   0.32
    10   1     0.03  -0.01  -0.47     0.01  -0.01  -0.04     0.14  -0.03   0.29
    11   1     0.00  -0.39   0.20     0.00  -0.06   0.04     0.16  -0.30   0.24
    12   6     0.03   0.01   0.03     0.01   0.00   0.00    -0.01   0.03  -0.02
    13   6     0.00  -0.01  -0.02     0.00  -0.00  -0.01     0.01  -0.00   0.01
    14   6     0.00  -0.01  -0.00    -0.03   0.01   0.01    -0.01  -0.00   0.00
    15   6    -0.00  -0.01  -0.01    -0.01  -0.02   0.02    -0.01   0.00   0.00
    16   6    -0.00  -0.02   0.00    -0.00   0.02  -0.00     0.02  -0.01   0.02
    17   6    -0.04   0.03  -0.00     0.00  -0.00  -0.00    -0.00  -0.00  -0.04
    18   1    -0.04  -0.04   0.03     0.05  -0.01   0.01    -0.05   0.03  -0.06
    19   1     0.04   0.01  -0.05     0.02  -0.01   0.04    -0.07   0.05  -0.10
    20   6     0.00  -0.01   0.00    -0.02   0.03  -0.05     0.01   0.02   0.01
    21   6     0.01  -0.01  -0.01     0.01  -0.02   0.05     0.01  -0.01  -0.01
    22   1     0.00  -0.01  -0.03     0.13  -0.14   0.28    -0.02   0.05   0.01
    23   1     0.00  -0.07   0.00    -0.17   0.27  -0.31     0.00  -0.05  -0.01
    24   7     0.00  -0.01  -0.02     0.00  -0.00  -0.00    -0.04  -0.04   0.05
    25   1     0.01  -0.13  -0.09    -0.03  -0.01  -0.05     0.05  -0.09   0.13
    26   1    -0.09   0.08   0.09    -0.02   0.01  -0.00    -0.13  -0.05  -0.38
    27   1     0.10   0.08   0.05     0.01   0.03   0.00    -0.14   0.34  -0.14
    28   7    -0.00   0.02   0.01     0.01  -0.01  -0.02    -0.00  -0.01  -0.00
    29   7     0.00   0.02   0.01     0.03   0.00  -0.01    -0.00   0.00   0.00
    30   6    -0.00   0.00  -0.01     0.23  -0.32   0.47    -0.00  -0.00   0.00
    31   9     0.00   0.00   0.00    -0.24  -0.11  -0.10     0.00   0.00   0.00
    32   9    -0.00  -0.00   0.00     0.17   0.02  -0.23    -0.00  -0.00   0.00
    33   9     0.00  -0.00  -0.00    -0.08   0.29   0.05     0.00  -0.00  -0.00
    34   1    -0.02   0.02   0.01     0.06  -0.06   0.08    -0.02  -0.01  -0.00
                     49                     50                     51
                      A                      A                      A
 Frequencies --   1053.6202              1078.1042              1112.3348
 Red. masses --      2.4105                 2.3664                 1.8186
 Frc consts  --      1.5766                 1.6206                 1.3258
 IR Inten    --      0.0000                 0.0000                 0.0000
  Atom  AN      X      Y      Z        X      Y      Z        X      Y      Z
     1   6     0.01  -0.02   0.00     0.04  -0.05   0.03    -0.07  -0.00   0.11
     2   6    -0.01  -0.01  -0.01    -0.07  -0.07   0.01     0.04  -0.07  -0.04
     3   6    -0.00   0.01  -0.01     0.08  -0.02  -0.05     0.02   0.07   0.05
     4   6    -0.00  -0.00   0.01    -0.03  -0.02  -0.07    -0.06  -0.10   0.05
     5   1    -0.01   0.01  -0.00    -0.04   0.12  -0.00    -0.15  -0.02  -0.26
     6   1    -0.00   0.02   0.02     0.02   0.06   0.08    -0.17   0.22  -0.13
     7   6     0.01  -0.01   0.01     0.00  -0.04  -0.02    -0.09   0.03  -0.06
     8   1    -0.02  -0.06   0.01     0.04  -0.41  -0.25     0.15   0.11  -0.19
     9   1    -0.00   0.02  -0.03    -0.04   0.42   0.25    -0.01  -0.13   0.20
    10   1    -0.04  -0.01   0.03    -0.01  -0.08   0.32     0.32  -0.04  -0.15
    11   1    -0.01   0.07  -0.05     0.04   0.21  -0.20     0.29   0.22  -0.04
    12   6     0.01   0.00  -0.01     0.09   0.12   0.01     0.02   0.02   0.02
    13   6     0.02   0.00  -0.01     0.06  -0.03  -0.05     0.00   0.00  -0.01
    14   6    -0.04   0.01   0.03     0.05  -0.03  -0.04    -0.00  -0.01  -0.00
    15   6    -0.07  -0.06  -0.00    -0.02  -0.04  -0.01    -0.00   0.01   0.01
    16   6     0.01   0.01   0.00    -0.07  -0.06  -0.00     0.01   0.01  -0.01
    17   6    -0.01   0.01   0.01    -0.11   0.05   0.09     0.03  -0.03  -0.01
    18   1     0.13   0.03  -0.04    -0.15  -0.09   0.02    -0.06  -0.03   0.04
    19   1     0.21   0.06  -0.07     0.07  -0.03  -0.05    -0.06  -0.03   0.05
    20   6     0.07   0.20   0.10     0.02  -0.02  -0.02    -0.00   0.00   0.00
    21   6     0.10  -0.12  -0.13    -0.03  -0.02   0.01    -0.00  -0.00  -0.00
    22   1    -0.17   0.50   0.14     0.13  -0.15  -0.09    -0.01   0.01   0.01
    23   1    -0.01  -0.60  -0.14    -0.13  -0.15  -0.08    -0.01  -0.02  -0.01
    24   7     0.00   0.01  -0.00    -0.01   0.07   0.04     0.03   0.05  -0.07
    25   1    -0.01   0.03  -0.00    -0.01   0.15   0.10    -0.08   0.09  -0.17
    26   1     0.02   0.00   0.03     0.07  -0.02  -0.02     0.34  -0.15   0.12
    27   1    -0.00  -0.03   0.01    -0.09   0.01  -0.03     0.32   0.02   0.21
    28   7    -0.04  -0.08  -0.03    -0.01   0.06   0.04     0.00   0.00   0.00
    29   7    -0.05   0.05   0.04     0.01   0.06   0.02    -0.00  -0.00  -0.00
    30   6     0.00  -0.01   0.02     0.00   0.00   0.00    -0.00   0.00  -0.00
    31   9    -0.00  -0.00  -0.00    -0.00  -0.00  -0.00     0.00   0.00   0.00
    32   9     0.00   0.00  -0.00     0.00   0.00  -0.00    -0.00  -0.00   0.00
    33   9    -0.00   0.01  -0.00    -0.00   0.00   0.00     0.00  -0.00  -0.00
    34   1    -0.30  -0.14   0.02     0.02   0.06   0.05     0.00   0.00   0.00
                     52                     53                     54
                      A                      A                      A
 Frequencies --   1123.4347              1160.1088              1176.7776
 Red. masses --      1.7857                 1.2897                 1.4553
 Frc consts  --      1.3278                 1.0226                 1.1874
 IR Inten    --      0.0000                 0.0000                 0.0000
  Atom  AN      X      Y      Z        X      Y      Z        X      Y      Z
     1   6     0.01  -0.08   0.04     0.00   0.01   0.01    -0.01   0.01  -0.00
     2   6     0.03   0.02  -0.07     0.03  -0.02  -0.06     0.02   0.04   0.02
     3   6    -0.03  -0.05   0.05    -0.02  -0.07   0.01     0.03  -0.02  -0.03
     4   6     0.00   0.00  -0.09    -0.00   0.01  -0.01    -0.01  -0.00  -0.00
     5   1     0.09  -0.26   0.05     0.08  -0.17   0.03    -0.01   0.01   0.01
     6   1    -0.06  -0.11  -0.26    -0.06  -0.07  -0.17     0.02   0.01   0.07
     7   6    -0.00   0.04   0.03    -0.00   0.06   0.03    -0.00  -0.00  -0.02
     8   1     0.03  -0.38  -0.21    -0.01   0.08   0.04     0.03   0.00  -0.04
     9   1    -0.02   0.19   0.10     0.03  -0.31  -0.18    -0.00   0.06   0.03
    10   1     0.27   0.03   0.32    -0.40  -0.07   0.22     0.30   0.08  -0.06
    11   1    -0.29   0.23  -0.14     0.46   0.20  -0.15     0.23   0.01  -0.05
    12   6    -0.03  -0.06   0.01     0.00  -0.01  -0.02    -0.07  -0.06   0.01
    13   6    -0.04   0.01   0.01    -0.01   0.03   0.02    -0.00  -0.02  -0.01
    14   6    -0.04   0.02   0.03     0.01  -0.02  -0.02    -0.06   0.02   0.04
    15   6     0.01   0.03   0.01    -0.02  -0.03  -0.01    -0.05  -0.04   0.00
    16   6     0.04   0.02  -0.00    -0.00   0.04   0.02    -0.02   0.00   0.01
    17   6     0.04  -0.02  -0.06    -0.02  -0.02   0.02    -0.09   0.01   0.06
    18   1     0.10   0.03  -0.00    -0.18  -0.01   0.08     0.53   0.13  -0.18
    19   1    -0.07   0.01   0.00     0.28   0.12  -0.08     0.53   0.14  -0.17
    20   6    -0.02   0.00   0.01     0.00  -0.01  -0.01     0.01  -0.01  -0.01
    21   6     0.02   0.02  -0.00    -0.02  -0.01   0.00    -0.00   0.01   0.00
    22   1    -0.07   0.06   0.05     0.07  -0.08  -0.06     0.12  -0.13  -0.09
    23   1     0.10   0.15   0.07    -0.07  -0.10  -0.03     0.11   0.22   0.08
    24   7    -0.01   0.10   0.06     0.00  -0.01  -0.00     0.01  -0.00  -0.00
    25   1     0.00  -0.03  -0.01     0.01  -0.13  -0.07    -0.00   0.02   0.00
    26   1     0.04   0.05   0.26     0.04   0.03   0.18     0.03  -0.01  -0.02
    27   1    -0.09   0.24  -0.10    -0.06   0.18  -0.07     0.05  -0.03   0.03
    28   7     0.01  -0.03  -0.02     0.01   0.03   0.01     0.03  -0.01  -0.02
    29   7     0.00  -0.03  -0.02     0.01   0.03   0.01     0.03   0.03  -0.00
    30   6    -0.00  -0.00  -0.00    -0.00   0.00   0.00    -0.01   0.00  -0.00
    31   9     0.00   0.00   0.00    -0.00  -0.00  -0.00     0.00   0.00   0.00
    32   9    -0.00  -0.00   0.00     0.00   0.00  -0.00     0.00  -0.00   0.00
    33   9     0.00  -0.00  -0.00     0.00  -0.00  -0.00     0.00  -0.01  -0.00
    34   1    -0.01  -0.03  -0.03     0.06   0.04   0.00     0.09   0.00  -0.04
                     55                     56                     57
                      A                      A                      A
 Frequencies --   1200.7723              1206.2078              1239.4729
 Red. masses --      1.9225                 1.6332                 4.0448
 Frc consts  --      1.6332                 1.4000                 3.6612
 IR Inten    --      0.0000                 0.0000                 0.0000
  Atom  AN      X      Y      Z        X      Y      Z        X      Y      Z
     1   6     0.02  -0.11   0.01     0.00  -0.07   0.01    -0.06  -0.04  -0.04
     2   6    -0.04   0.02  -0.04    -0.01  -0.01  -0.04     0.09   0.07   0.08
     3   6     0.02  -0.01   0.05     0.02  -0.03   0.01     0.11  -0.02  -0.03
     4   6     0.01  -0.05  -0.10    -0.00  -0.03  -0.06    -0.05  -0.01  -0.04
     5   1    -0.08   0.09  -0.04    -0.07   0.05  -0.05     0.18  -0.43   0.20
     6   1     0.06   0.01   0.05     0.05   0.01   0.08    -0.02   0.03   0.03
     7   6     0.01   0.03   0.02    -0.01   0.01   0.01    -0.05   0.01  -0.02
     8   1    -0.04   0.27   0.18    -0.02   0.25   0.14     0.10   0.03  -0.12
     9   1     0.03  -0.30  -0.20     0.01  -0.21  -0.10    -0.00  -0.12   0.08
    10   1     0.16   0.05  -0.12    -0.24  -0.04  -0.01    -0.02   0.08  -0.31
    11   1    -0.09  -0.13   0.12     0.22  -0.03   0.01    -0.03  -0.02  -0.03
    12   6    -0.02  -0.04   0.03     0.06   0.03  -0.00    -0.10  -0.17  -0.05
    13   6     0.00   0.04   0.01    -0.01  -0.04  -0.02    -0.05   0.00   0.03
    14   6     0.01  -0.03  -0.02    -0.02   0.05   0.03     0.21  -0.03  -0.11
    15   6    -0.04  -0.05  -0.00     0.03   0.05   0.01     0.17  -0.00  -0.08
    16   6     0.00   0.04   0.02     0.00  -0.04  -0.02    -0.08   0.03   0.06
    17   6     0.02  -0.03  -0.06    -0.04   0.03   0.03    -0.05   0.11   0.08
    18   1     0.06   0.04   0.02    -0.17  -0.09   0.04     0.13   0.06  -0.06
    19   1    -0.01   0.05   0.01     0.12  -0.01  -0.07    -0.10   0.04   0.04
    20   6    -0.01   0.00  -0.00     0.00   0.00   0.00     0.06  -0.04  -0.03
    21   6    -0.04  -0.03   0.01     0.05   0.04  -0.01     0.04   0.07   0.02
    22   1     0.09  -0.11  -0.06    -0.09   0.11   0.07    -0.03   0.06  -0.00
    23   1    -0.22  -0.30  -0.14     0.31   0.45   0.20    -0.11  -0.29  -0.07
    24   7    -0.02   0.12   0.07    -0.01   0.07   0.04     0.03   0.07   0.03
    25   1    -0.03   0.32   0.18    -0.02   0.20   0.11     0.02   0.03  -0.00
    26   1    -0.05  -0.07  -0.29    -0.01  -0.04  -0.17     0.14  -0.02   0.10
    27   1     0.06  -0.26   0.08     0.03  -0.15   0.05     0.06  -0.07   0.01
    28   7     0.05   0.05   0.00    -0.06  -0.06  -0.01    -0.11   0.00   0.05
    29   7     0.01   0.03   0.01     0.01  -0.03  -0.02    -0.12   0.00   0.05
    30   6    -0.00   0.01   0.01     0.00  -0.02  -0.01     0.03  -0.03  -0.00
    31   9    -0.00  -0.00  -0.00     0.00   0.00   0.00    -0.01  -0.00  -0.00
    32   9     0.00  -0.00  -0.00    -0.00   0.00   0.00    -0.00   0.00   0.00
    33   9     0.00  -0.01  -0.00    -0.00   0.01   0.00    -0.01   0.02   0.00
    34   1     0.28   0.10  -0.03    -0.36  -0.13   0.04    -0.35  -0.05   0.10
                     58                     59                     60
                      A                      A                      A
 Frequencies --   1251.0998              1255.8442              1266.5560
 Red. masses --      1.5635                 1.5641                 1.5369
 Frc consts  --      1.4419                 1.4534                 1.4526
 IR Inten    --      0.0000                 0.0000                 0.0000
  Atom  AN      X      Y      Z        X      Y      Z        X      Y      Z
     1   6     0.02   0.05   0.04     0.06   0.01   0.02     0.01   0.01   0.03
     2   6    -0.02   0.01  -0.09    -0.11  -0.00  -0.03     0.00  -0.03  -0.07
     3   6    -0.01  -0.06   0.02    -0.09   0.04  -0.04     0.05  -0.08   0.02
     4   6    -0.00   0.04   0.02     0.06  -0.03   0.00    -0.04   0.03  -0.01
     5   1    -0.18   0.37  -0.18    -0.01   0.14   0.00    -0.06   0.10  -0.08
     6   1     0.14   0.01   0.35    -0.09  -0.10  -0.36     0.08   0.02   0.27
     7   6     0.00   0.04   0.04     0.04  -0.02   0.01    -0.01   0.04   0.02
     8   1    -0.01  -0.10  -0.03    -0.08   0.02   0.11     0.01   0.12   0.05
     9   1     0.00  -0.06  -0.06     0.01   0.03  -0.14     0.02  -0.23  -0.10
    10   1     0.44   0.04   0.32     0.42   0.04   0.15    -0.13  -0.05   0.17
    11   1    -0.15   0.10  -0.09     0.59  -0.17   0.11    -0.05   0.17  -0.15
    12   6    -0.00  -0.08  -0.01    -0.01   0.01   0.03    -0.01   0.05   0.04
    13   6    -0.02   0.01   0.01    -0.00  -0.02  -0.02    -0.01  -0.01  -0.00
    14   6     0.08   0.02  -0.03     0.04  -0.01  -0.03    -0.06  -0.05  -0.00
    15   6     0.02   0.01  -0.01     0.07   0.02  -0.02     0.06  -0.01  -0.03
    16   6    -0.02   0.02   0.02    -0.00   0.01  -0.00     0.02  -0.02  -0.01
    17   6    -0.01  -0.01  -0.02    -0.00   0.02   0.04    -0.02   0.08   0.03
    18   1    -0.25  -0.07   0.11     0.20   0.02  -0.06     0.55   0.14  -0.18
    19   1     0.21   0.09  -0.06    -0.16  -0.05   0.10    -0.49  -0.13   0.14
    20   6     0.01  -0.00  -0.00    -0.00  -0.01  -0.00    -0.02  -0.02  -0.00
    21   6    -0.00   0.02   0.01     0.01   0.01   0.00     0.03  -0.00  -0.01
    22   1     0.01   0.01  -0.01    -0.10   0.09   0.07    -0.08   0.05   0.05
    23   1    -0.01  -0.02   0.01    -0.04  -0.09  -0.03     0.01  -0.03  -0.02
    24   7    -0.00  -0.07  -0.04    -0.04   0.00   0.02     0.01  -0.03  -0.02
    25   1    -0.01   0.04   0.02    -0.02  -0.05   0.00     0.01   0.00  -0.01
    26   1    -0.13   0.04  -0.16     0.01  -0.03   0.02     0.01   0.03   0.04
    27   1     0.13  -0.04   0.11    -0.12   0.11  -0.07     0.01   0.04   0.01
    28   7    -0.03  -0.00   0.01    -0.03   0.00   0.01    -0.01   0.00   0.00
    29   7    -0.02  -0.01   0.00    -0.02  -0.01   0.00    -0.01   0.01   0.01
    30   6     0.01  -0.01  -0.01     0.01  -0.01  -0.01    -0.00   0.01   0.01
    31   9    -0.00   0.00   0.00    -0.00  -0.00  -0.00    -0.00  -0.00  -0.00
    32   9    -0.00   0.00   0.00    -0.00   0.00   0.00     0.00  -0.00  -0.00
    33   9    -0.00   0.01   0.00    -0.00   0.01   0.00     0.00  -0.01  -0.00
    34   1    -0.17  -0.04   0.04    -0.06  -0.01   0.02     0.14   0.04  -0.03
                     61                     62                     63
                      A                      A                      A
 Frequencies --   1284.9734              1290.0946              1298.2729
 Red. masses --      1.8497                 8.5374                 1.7685
 Frc consts  --      1.7995                 8.3718                 1.7563
 IR Inten    --      0.0000                 0.0000                 0.0000
  Atom  AN      X      Y      Z        X      Y      Z        X      Y      Z
     1   6    -0.01   0.00  -0.03     0.01  -0.00   0.03    -0.01  -0.00   0.05
     2   6     0.03   0.00   0.04    -0.01   0.02  -0.05     0.03   0.03  -0.10
     3   6    -0.03  -0.06   0.03     0.02   0.06  -0.04     0.05   0.09  -0.07
     4   6     0.01   0.02  -0.02    -0.00  -0.03   0.02    -0.03  -0.05   0.03
     5   1    -0.02   0.06   0.02     0.04  -0.08   0.01     0.11  -0.28   0.04
     6   1     0.05  -0.05   0.08    -0.02   0.04  -0.01     0.04   0.12   0.22
     7   6     0.01   0.01  -0.04    -0.01  -0.02   0.04    -0.02  -0.06   0.06
     8   1     0.04   0.03  -0.06    -0.04  -0.01   0.07    -0.06   0.05   0.15
     9   1     0.01   0.13   0.03    -0.01  -0.07  -0.00    -0.04  -0.03   0.06
    10   1    -0.01   0.01  -0.19     0.07   0.01   0.24    -0.11  -0.01   0.49
    11   1     0.20   0.26  -0.17    -0.03  -0.26   0.16    -0.09  -0.41   0.24
    12   6    -0.02  -0.01   0.00     0.01  -0.04  -0.02    -0.01  -0.03  -0.01
    13   6    -0.01  -0.05  -0.02    -0.01   0.00   0.01    -0.02  -0.03  -0.01
    14   6     0.02   0.05   0.02     0.04   0.02  -0.01     0.00   0.05   0.02
    15   6     0.07   0.14   0.04     0.01  -0.05  -0.03     0.01   0.05   0.02
    16   6     0.03  -0.02  -0.02    -0.03   0.00   0.01    -0.01  -0.03  -0.01
    17   6    -0.06  -0.00   0.03     0.01   0.03   0.01    -0.04   0.03   0.04
    18   1    -0.11  -0.08  -0.00    -0.08  -0.02   0.04    -0.04  -0.04   0.01
    19   1     0.16   0.02  -0.07    -0.05  -0.02   0.04     0.10  -0.01  -0.04
    20   6    -0.06  -0.02   0.02     0.03   0.01  -0.00    -0.03  -0.00   0.01
    21   6    -0.05  -0.02   0.02     0.03   0.01  -0.00    -0.03  -0.02   0.01
    22   1    -0.37   0.33   0.30     0.11  -0.08  -0.07    -0.13   0.12   0.11
    23   1    -0.23  -0.29  -0.13     0.05   0.24  -0.06    -0.11  -0.14  -0.05
    24   7    -0.00  -0.01   0.02     0.01   0.01  -0.02     0.04   0.03  -0.05
    25   1     0.00   0.03   0.06     0.00  -0.02  -0.05     0.01   0.02  -0.10
    26   1    -0.05   0.03  -0.01     0.05  -0.04  -0.03     0.08  -0.08  -0.12
    27   1     0.08  -0.17   0.06    -0.04   0.14  -0.04    -0.04   0.26  -0.06
    28   7     0.04  -0.00  -0.02    -0.04  -0.01   0.01     0.04  -0.00  -0.02
    29   7     0.02  -0.06  -0.04    -0.02   0.01   0.01     0.02  -0.02  -0.02
    30   6    -0.01   0.06   0.04    -0.35   0.40   0.44     0.04  -0.01  -0.03
    31   9    -0.01  -0.01  -0.01     0.01  -0.02  -0.02    -0.01  -0.00  -0.00
    32   9     0.01  -0.00  -0.02     0.15  -0.02  -0.18    -0.01  -0.00   0.01
    33   9     0.01  -0.03  -0.01     0.07  -0.21  -0.06    -0.00   0.01   0.00
    34   1     0.34   0.07  -0.09    -0.28  -0.04   0.03     0.21   0.04  -0.05
                     64                     65                     66
                      A                      A                      A
 Frequencies --   1303.6013              1316.5812              1318.8958
 Red. masses --      1.5402                 9.8382                 1.3836
 Frc consts  --      1.5422                10.0476                 1.4180
 IR Inten    --      0.0000                 0.0000                 0.0000
  Atom  AN      X      Y      Z        X      Y      Z        X      Y      Z
     1   6     0.05  -0.01   0.01     0.01  -0.01   0.00    -0.00   0.03  -0.01
     2   6    -0.11  -0.00   0.04     0.00  -0.02   0.02    -0.02   0.03  -0.04
     3   6     0.11  -0.00   0.02    -0.01   0.01  -0.02     0.02  -0.02   0.06
     4   6    -0.06   0.02  -0.03     0.00   0.00  -0.01    -0.00   0.01   0.03
     5   1     0.04   0.01   0.01    -0.06   0.09  -0.07     0.10  -0.12   0.11
     6   1    -0.05  -0.02  -0.02     0.01  -0.02   0.01    -0.09   0.02  -0.18
     7   6     0.00   0.01  -0.02    -0.00   0.06   0.03     0.01  -0.12  -0.08
     8   1    -0.00   0.30   0.13     0.02  -0.25  -0.14    -0.05   0.58   0.33
     9   1     0.04  -0.31  -0.19     0.01  -0.15  -0.09    -0.03   0.31   0.18
    10   1     0.29   0.05  -0.18    -0.01  -0.01  -0.17     0.05   0.03   0.32
    11   1    -0.29   0.06  -0.03    -0.02  -0.13   0.07    -0.08   0.34  -0.18
    12   6     0.00   0.01   0.02     0.01   0.01  -0.00    -0.00  -0.01  -0.01
    13   6     0.02  -0.03  -0.03     0.01   0.01   0.01    -0.01   0.01   0.01
    14   6     0.03   0.04   0.01    -0.02  -0.02  -0.00     0.01  -0.00  -0.00
    15   6    -0.03   0.03   0.03    -0.02  -0.03  -0.00    -0.00  -0.02  -0.01
    16   6    -0.01  -0.04  -0.01    -0.01  -0.00   0.01     0.00   0.01   0.01
    17   6    -0.01   0.01  -0.00     0.01  -0.01  -0.01     0.01  -0.01  -0.01
    18   1    -0.11  -0.08   0.02    -0.01   0.02  -0.00     0.00   0.01   0.01
    19   1     0.11  -0.00  -0.07     0.04   0.01  -0.01    -0.03   0.01   0.01
    20   6     0.00   0.01   0.00     0.03   0.01  -0.01     0.00   0.00  -0.00
    21   6    -0.02  -0.01   0.01     0.02   0.01   0.00     0.00   0.00  -0.00
    22   1     0.01   0.00   0.00     0.09  -0.06  -0.03     0.05  -0.04  -0.03
    23   1    -0.04  -0.01  -0.01     0.12   0.13   0.10     0.01   0.01   0.01
    24   7    -0.00  -0.03  -0.01    -0.00  -0.01   0.00    -0.00   0.01   0.01
    25   1     0.01  -0.14  -0.06    -0.01   0.01   0.01     0.00  -0.04  -0.02
    26   1     0.24   0.04   0.44     0.02   0.01   0.06    -0.07   0.00  -0.10
    27   1    -0.27   0.28  -0.19    -0.04   0.03  -0.03     0.08  -0.11   0.06
    28   7     0.01  -0.00  -0.01    -0.02  -0.01  -0.00    -0.00   0.00   0.00
    29   7     0.01  -0.01  -0.01    -0.01   0.02   0.01    -0.00   0.00   0.00
    30   6    -0.00  -0.00  -0.00     0.58   0.48   0.02     0.03   0.03   0.00
    31   9     0.00   0.00   0.00    -0.26  -0.15  -0.08    -0.01  -0.01  -0.00
    32   9     0.00   0.00  -0.00    -0.11  -0.03   0.10    -0.01  -0.00   0.01
    33   9    -0.00   0.00   0.00    -0.00  -0.13  -0.02    -0.00  -0.01  -0.00
    34   1    -0.04  -0.02   0.01    -0.19  -0.03  -0.00    -0.05  -0.01   0.01
                     67                     68                     69
                      A                      A                      A
 Frequencies --   1355.5230              1360.6785              1368.9025
 Red. masses --      1.9407                 2.1973                 1.5262
 Frc consts  --      2.1010                 2.3969                 1.6850
 IR Inten    --      0.0000                 0.0000                 0.0000
  Atom  AN      X      Y      Z        X      Y      Z        X      Y      Z
     1   6    -0.01  -0.01   0.03     0.01   0.02  -0.02     0.02  -0.07   0.04
     2   6    -0.08  -0.03   0.04     0.03  -0.00  -0.05     0.06   0.06   0.02
     3   6    -0.06  -0.02   0.04     0.07   0.04  -0.03    -0.05   0.05   0.03
     4   6    -0.01  -0.02   0.02     0.01   0.01   0.01    -0.01  -0.01  -0.08
     5   1     0.22  -0.45   0.14    -0.11   0.25  -0.07    -0.24   0.36  -0.24
     6   1     0.15   0.13   0.45    -0.16  -0.08  -0.43     0.16  -0.02   0.33
     7   6     0.03   0.01  -0.02    -0.02  -0.01   0.03     0.00  -0.08  -0.04
     8   1    -0.02   0.02   0.01    -0.00  -0.01   0.02    -0.01   0.16   0.10
     9   1     0.02   0.04  -0.06    -0.01  -0.09   0.02    -0.03   0.27   0.16
    10   1     0.14   0.00  -0.11    -0.12  -0.03   0.18    -0.21   0.04  -0.03
    11   1     0.07   0.11  -0.04    -0.26  -0.14   0.07     0.16  -0.03   0.09
    12   6     0.01   0.06   0.03     0.02   0.03   0.01     0.01  -0.03  -0.02
    13   6     0.04   0.04  -0.00     0.01   0.04   0.01    -0.02   0.03   0.03
    14   6    -0.02  -0.10  -0.05    -0.05  -0.10  -0.03    -0.01  -0.04  -0.02
    15   6    -0.02   0.08   0.05    -0.02   0.13   0.08     0.02  -0.00  -0.01
    16   6     0.02   0.00  -0.01    -0.01  -0.05  -0.02     0.00   0.03   0.01
    17   6     0.01  -0.07  -0.05     0.01  -0.02  -0.02     0.00  -0.04  -0.02
    18   1     0.07   0.05  -0.01     0.12   0.07  -0.02     0.03   0.05   0.02
    19   1     0.19   0.04  -0.07     0.34   0.03  -0.14     0.03   0.04   0.01
    20   6     0.05  -0.04  -0.04     0.09  -0.06  -0.06     0.01  -0.02  -0.01
    21   6     0.05   0.05   0.01     0.07   0.08   0.02     0.02   0.02  -0.00
    22   1    -0.00   0.03   0.01     0.02   0.03  -0.00    -0.03   0.02   0.02
    23   1     0.02  -0.02  -0.01    -0.03  -0.12  -0.06     0.02  -0.01   0.00
    24   7     0.05   0.04  -0.06    -0.04  -0.02   0.04    -0.00  -0.03  -0.01
    25   1     0.02   0.04  -0.09    -0.00  -0.06   0.05    -0.01   0.12   0.08
    26   1    -0.14  -0.06  -0.34     0.08   0.03   0.18     0.15   0.04   0.40
    27   1    -0.17   0.30  -0.13     0.16  -0.28   0.13    -0.16   0.29  -0.15
    28   7    -0.06  -0.02   0.01    -0.07  -0.04   0.00    -0.02  -0.00   0.01
    29   7    -0.05   0.00   0.02    -0.10  -0.00   0.04    -0.01   0.01   0.01
    30   6    -0.00   0.00   0.01    -0.01  -0.00   0.01    -0.00  -0.00   0.00
    31   9    -0.00  -0.00  -0.00     0.00   0.00  -0.00    -0.00   0.00  -0.00
    32   9     0.00   0.00  -0.00     0.00   0.00  -0.00     0.00   0.00  -0.00
    33   9     0.00  -0.00  -0.00     0.00   0.00  -0.00     0.00   0.00  -0.00
    34   1     0.06   0.01  -0.02     0.31   0.05  -0.10     0.06   0.02  -0.01
                     70                     71                     72
                      A                      A                      A
 Frequencies --   1390.5704              1393.8865              1452.3923
 Red. masses --      2.1081                 1.4106                 2.7439
 Frc consts  --      2.4017                 1.6147                 3.4103
 IR Inten    --      0.0000                 0.0000                 0.0000
  Atom  AN      X      Y      Z        X      Y      Z        X      Y      Z
     1   6     0.01  -0.04   0.02    -0.03   0.08  -0.05     0.00   0.03  -0.01
     2   6     0.03   0.01   0.00    -0.02  -0.03  -0.03    -0.07  -0.01   0.03
     3   6    -0.04  -0.04   0.01    -0.04   0.03   0.01    -0.02  -0.01   0.01
     4   6     0.01  -0.00   0.01    -0.03   0.00  -0.11    -0.01   0.00  -0.01
     5   1    -0.08   0.09  -0.10     0.18  -0.21   0.27     0.08  -0.15  -0.01
     6   1     0.01   0.04   0.03     0.19  -0.10   0.37     0.04  -0.04   0.09
     7   6     0.00  -0.00  -0.01     0.01  -0.00  -0.00     0.00   0.01  -0.02
     8   1     0.01   0.01  -0.01    -0.07  -0.03   0.04    -0.07  -0.02   0.02
     9   1    -0.00   0.06   0.01     0.01  -0.02   0.06     0.02  -0.05   0.06
    10   1    -0.13  -0.00  -0.05     0.12  -0.03   0.16     0.23   0.02  -0.06
    11   1     0.15   0.09  -0.06     0.20  -0.10   0.11     0.09   0.04  -0.01
    12   6    -0.02   0.00   0.01    -0.02   0.01   0.01     0.16  -0.08  -0.12
    13   6    -0.06  -0.07  -0.01     0.03  -0.01  -0.01    -0.03   0.05   0.04
    14   6     0.03   0.12   0.05    -0.00  -0.00   0.00    -0.13   0.10   0.11
    15   6    -0.03   0.07   0.05    -0.03   0.02   0.02     0.10  -0.08  -0.09
    16   6     0.04  -0.06  -0.05     0.04   0.00  -0.02    -0.08  -0.02   0.02
    17   6     0.06   0.07   0.02     0.01  -0.00  -0.00     0.04   0.08   0.03
    18   1     0.05  -0.05  -0.05    -0.06  -0.03   0.01    -0.27  -0.00   0.13
    19   1    -0.08  -0.10  -0.01    -0.09  -0.03   0.02    -0.01  -0.01   0.00
    20   6     0.05   0.06   0.01     0.01   0.02   0.01     0.05  -0.02  -0.03
    21   6     0.01   0.03   0.02     0.00  -0.00  -0.00     0.04  -0.01  -0.02
    22   1     0.51  -0.44  -0.41     0.12  -0.11  -0.10     0.02   0.02  -0.00
    23   1    -0.16  -0.25  -0.12    -0.01  -0.01  -0.01     0.08   0.05  -0.02
    24   7     0.00   0.00  -0.02     0.00  -0.02   0.03     0.00   0.00   0.00
    25   1    -0.01   0.06   0.00     0.04  -0.02   0.08     0.01  -0.02  -0.01
    26   1    -0.10  -0.00  -0.12     0.23   0.04   0.43     0.04  -0.00   0.00
    27   1    -0.08   0.15  -0.07     0.26  -0.33   0.19    -0.08  -0.09   0.01
    28   7     0.05  -0.04  -0.04     0.01  -0.00  -0.00    -0.04  -0.05  -0.01
    29   7    -0.13  -0.07   0.02    -0.02  -0.01   0.00    -0.07   0.02   0.04
    30   6     0.00   0.00  -0.00     0.00   0.00  -0.00     0.00  -0.00  -0.00
    31   9    -0.00  -0.00  -0.00    -0.00  -0.00  -0.00    -0.00  -0.00   0.00
    32   9    -0.00  -0.00   0.00    -0.00  -0.00   0.00    -0.00  -0.00   0.00
    33   9    -0.00   0.00   0.00    -0.00   0.00   0.00    -0.00   0.00   0.00
    34   1    -0.01  -0.06  -0.02    -0.07  -0.02   0.02     0.74   0.15  -0.21
                     73                     74                     75
                      A                      A                      A
 Frequencies --   1476.5055              1481.6276              1487.8831
 Red. masses --      1.0987                 1.1084                 2.1733
 Frc consts  --      1.4112                 1.4336                 2.8347
 IR Inten    --      0.0000                 0.0000                 0.0000
  Atom  AN      X      Y      Z        X      Y      Z        X      Y      Z
     1   6    -0.02  -0.05  -0.04     0.02   0.05   0.01    -0.00  -0.03  -0.01
     2   6    -0.01  -0.00  -0.00     0.01  -0.01  -0.00     0.00   0.03   0.01
     3   6     0.00  -0.00   0.00     0.01   0.00   0.00     0.03  -0.01  -0.02
     4   6     0.02  -0.04  -0.01     0.03  -0.05  -0.04    -0.01   0.01   0.02
     5   1    -0.02   0.28   0.49     0.03  -0.18  -0.29    -0.04   0.15   0.16
     6   1    -0.04   0.43   0.01    -0.03   0.49   0.01    -0.02  -0.12  -0.04
     7   6     0.00   0.01  -0.00    -0.02  -0.02   0.03    -0.02  -0.03   0.05
     8   1    -0.06  -0.01   0.03     0.30   0.11  -0.14     0.39   0.14  -0.18
     9   1     0.02  -0.06   0.03    -0.10   0.15  -0.29    -0.13   0.20  -0.38
    10   1     0.00  -0.00  -0.02     0.02  -0.01   0.03     0.09   0.04  -0.02
    11   1     0.01  -0.00  -0.00     0.02  -0.02   0.02     0.03  -0.01  -0.02
    12   6     0.01   0.00  -0.00    -0.00  -0.00  -0.00    -0.05  -0.10  -0.03
    13   6    -0.00  -0.00   0.00    -0.00  -0.00   0.00     0.15   0.07  -0.03
    14   6     0.00   0.01   0.01     0.00   0.00  -0.00    -0.09  -0.07   0.01
    15   6    -0.01  -0.01  -0.00    -0.00  -0.00   0.00     0.00   0.03   0.02
    16   6    -0.01  -0.01   0.00    -0.00  -0.00  -0.00     0.12   0.04  -0.04
    17   6     0.01   0.01   0.00     0.00   0.01   0.00    -0.12   0.03   0.07
    18   1    -0.01  -0.00  -0.00     0.00  -0.00   0.00    -0.39  -0.08   0.14
    19   1     0.01  -0.01  -0.01     0.00  -0.00   0.00    -0.27  -0.05   0.10
    20   6     0.01  -0.01  -0.01     0.00  -0.00  -0.00    -0.02   0.04   0.02
    21   6    -0.00  -0.00  -0.00    -0.00  -0.00   0.00     0.03  -0.02  -0.02
    22   1    -0.03   0.04   0.03    -0.01   0.01   0.01     0.14  -0.13  -0.12
    23   1     0.01   0.02   0.01    -0.00   0.00   0.00     0.08   0.05   0.00
    24   7    -0.00   0.00  -0.00     0.00  -0.01   0.01    -0.00   0.01  -0.00
    25   1     0.01  -0.07  -0.05     0.01  -0.03   0.01    -0.00  -0.05  -0.05
    26   1    -0.37   0.06   0.19    -0.42   0.08   0.29     0.10  -0.03  -0.12
    27   1     0.44   0.32  -0.03    -0.26  -0.25   0.04     0.15   0.16  -0.03
    28   7    -0.00  -0.00   0.00     0.00   0.00  -0.00    -0.02  -0.00   0.01
    29   7    -0.00   0.01   0.00     0.00   0.00   0.00    -0.02  -0.02  -0.00
    30   6     0.00  -0.00  -0.00    -0.00   0.00  -0.00     0.00  -0.00   0.00
    31   9     0.00   0.00   0.00     0.00   0.00   0.00    -0.00  -0.00  -0.00
    32   9    -0.00   0.00   0.00    -0.00  -0.00   0.00    -0.00  -0.00   0.00
    33   9    -0.00   0.00   0.00     0.00  -0.00   0.00    -0.00   0.00   0.00
    34   1     0.05   0.01  -0.01     0.00   0.00   0.00     0.12   0.04  -0.03
                     76                     77                     78
                      A                      A                      A
 Frequencies --   1497.7790              1506.5662              1509.3167
 Red. masses --      1.2172                 1.7267                 2.3183
 Frc consts  --      1.6088                 2.3090                 3.1116
 IR Inten    --      0.0000                 0.0000                 0.0000
  Atom  AN      X      Y      Z        X      Y      Z        X      Y      Z
     1   6    -0.04   0.01   0.02    -0.01  -0.01  -0.02    -0.02  -0.00  -0.02
     2   6    -0.01  -0.00  -0.00     0.00  -0.01  -0.00    -0.03  -0.03  -0.00
     3   6     0.00  -0.01  -0.00    -0.04  -0.00   0.02     0.01   0.03   0.01
     4   6     0.04   0.03   0.00    -0.03   0.02  -0.00    -0.01   0.02  -0.00
     5   1     0.06  -0.19   0.10    -0.01   0.09   0.15     0.03   0.02   0.24
     6   1    -0.04  -0.05  -0.21     0.06  -0.26   0.11     0.01  -0.14   0.00
     7   6    -0.00  -0.00   0.01    -0.03  -0.03   0.05    -0.02  -0.03   0.05
     8   1     0.05   0.01  -0.03     0.45   0.16  -0.20     0.38   0.13  -0.17
     9   1    -0.02   0.01  -0.06    -0.16   0.25  -0.42    -0.13   0.18  -0.38
    10   1     0.03  -0.00   0.01    -0.04  -0.02   0.01    -0.02  -0.04   0.01
    11   1    -0.01   0.01  -0.01     0.06   0.02   0.01    -0.13  -0.03   0.05
    12   6    -0.01  -0.00   0.00     0.00   0.01   0.01     0.08   0.09   0.01
    13   6     0.01  -0.00  -0.00    -0.05  -0.03   0.01    -0.07  -0.02   0.02
    14   6     0.01   0.00  -0.00     0.07   0.05  -0.01    -0.04   0.01   0.03
    15   6    -0.02  -0.01   0.01    -0.10  -0.04   0.02     0.17   0.02  -0.07
    16   6     0.00  -0.01  -0.01    -0.02  -0.05  -0.01    -0.10   0.03   0.06
    17   6     0.01   0.02   0.00     0.10   0.05  -0.02    -0.02  -0.11  -0.05
    18   1    -0.02  -0.01   0.01     0.10   0.01  -0.04     0.18   0.05  -0.06
    19   1    -0.02  -0.02  -0.00     0.01  -0.05  -0.03     0.24   0.13  -0.05
    20   6     0.02  -0.01  -0.01     0.08  -0.05  -0.06    -0.10   0.04   0.06
    21   6    -0.01  -0.01   0.00    -0.04  -0.01   0.01     0.05   0.04   0.00
    22   1    -0.03   0.05   0.04    -0.16   0.23   0.17     0.14  -0.24  -0.17
    23   1     0.01   0.04   0.01     0.01   0.12   0.05    -0.08  -0.23  -0.09
    24   7     0.01  -0.08  -0.05    -0.00   0.02   0.01     0.00  -0.01  -0.01
    25   1    -0.07   0.78   0.45     0.01  -0.14  -0.08    -0.01   0.09   0.05
    26   1    -0.03   0.06   0.11     0.25  -0.05  -0.13     0.14  -0.01  -0.01
    27   1     0.04   0.16  -0.00     0.15   0.06  -0.00     0.20   0.11   0.01
    28   7    -0.00   0.00   0.00    -0.00   0.00   0.00     0.02  -0.01  -0.02
    29   7    -0.00   0.01   0.01    -0.00   0.04   0.02     0.01  -0.05  -0.03
    30   6    -0.00   0.00  -0.00    -0.00  -0.00  -0.00    -0.00   0.00   0.00
    31   9     0.00   0.00   0.00     0.00   0.00   0.00    -0.00  -0.00  -0.00
    32   9    -0.00   0.00  -0.00    -0.00   0.00  -0.00     0.00  -0.00  -0.00
    33   9    -0.00   0.00   0.00    -0.00   0.00   0.00     0.00  -0.00  -0.00
    34   1     0.03   0.01  -0.01     0.07   0.02  -0.02    -0.13  -0.05   0.03
                     79                     80                     81
                      A                      A                      A
 Frequencies --   1557.8724              1610.5654              1653.7351
 Red. masses --      3.3136                 4.6734                 5.1298
 Frc consts  --      4.7382                 7.1423                 8.2658
 IR Inten    --      0.0000                 0.0000                 0.0000
  Atom  AN      X      Y      Z        X      Y      Z        X      Y      Z
     1   6    -0.00   0.00  -0.00     0.00  -0.01   0.01    -0.00  -0.00  -0.00
     2   6    -0.02   0.00   0.01     0.02   0.01  -0.01    -0.04  -0.00   0.02
     3   6    -0.01  -0.01  -0.00     0.02   0.01  -0.00    -0.01  -0.01   0.00
     4   6     0.00   0.00   0.00    -0.00  -0.00  -0.00    -0.00   0.00  -0.00
     5   1     0.01  -0.01   0.03    -0.02   0.02  -0.03     0.01  -0.00   0.03
     6   1     0.00  -0.00   0.00     0.00   0.01   0.00     0.00  -0.01   0.01
     7   6    -0.01   0.00   0.00     0.01  -0.00  -0.00    -0.01  -0.00   0.00
     8   1     0.01   0.00  -0.01    -0.02   0.00   0.02     0.02   0.01  -0.01
     9   1    -0.01  -0.01  -0.00     0.01   0.01   0.01    -0.01  -0.00   0.00
    10   1     0.09   0.01  -0.03    -0.06  -0.00   0.02     0.10   0.01  -0.03
    11   1     0.07   0.02  -0.01    -0.05  -0.01   0.01     0.05   0.02  -0.01
    12   6     0.08  -0.07  -0.07    -0.09   0.06   0.08     0.17  -0.11  -0.14
    13   6    -0.01   0.05   0.03     0.12  -0.02  -0.06    -0.10   0.10   0.11
    14   6    -0.09  -0.02   0.03    -0.17   0.07   0.12    -0.13  -0.22  -0.06
    15   6    -0.12  -0.05   0.03     0.12  -0.07  -0.10     0.04   0.17   0.07
    16   6     0.02  -0.04  -0.03     0.02   0.08   0.03    -0.06  -0.09  -0.02
    17   6     0.02   0.09   0.04    -0.06  -0.11  -0.03     0.06   0.14   0.04
    18   1    -0.05   0.05   0.05    -0.19  -0.11   0.03     0.15   0.19   0.03
    19   1    -0.09  -0.08   0.00    -0.03   0.08   0.05     0.13  -0.05  -0.09
    20   6    -0.08  -0.11  -0.01     0.19  -0.14  -0.15     0.04   0.05   0.00
    21   6     0.09   0.27   0.10    -0.09   0.05   0.08    -0.14  -0.17  -0.02
    22   1    -0.16  -0.04   0.05    -0.19   0.28   0.21     0.02   0.08   0.03
    23   1    -0.33  -0.59  -0.17    -0.24  -0.07  -0.05    -0.01   0.20   0.05
    24   7     0.00  -0.00  -0.00    -0.00   0.00   0.00     0.00   0.00   0.00
    25   1    -0.00   0.01   0.00     0.00  -0.01  -0.01    -0.00  -0.00  -0.00
    26   1    -0.00  -0.00  -0.01    -0.00   0.00   0.01     0.01  -0.00  -0.01
    27   1     0.01   0.01  -0.00    -0.01  -0.00  -0.00     0.02   0.02  -0.00
    28   7     0.03  -0.08  -0.06     0.20   0.01  -0.07     0.23   0.13  -0.02
    29   7     0.14   0.05  -0.03    -0.17   0.04   0.09    -0.05  -0.04   0.00
    30   6    -0.01   0.00  -0.00    -0.01   0.00  -0.01    -0.00  -0.00  -0.00
    31   9     0.00   0.00   0.00     0.00   0.00   0.00    -0.00  -0.00  -0.00
    32   9    -0.00  -0.00   0.00     0.00   0.00  -0.00     0.00   0.00  -0.00
    33   9     0.00  -0.00  -0.00     0.00  -0.00   0.00    -0.00   0.00   0.00
    34   1    -0.44  -0.20   0.05    -0.59  -0.18   0.13    -0.65  -0.10   0.22
                     82                     83                     84
                      A                      A                      A
 Frequencies --   1692.4233              3053.2500              3053.9139
 Red. masses --      7.5553                 1.0645                 1.0655
 Frc consts  --     12.7503                 5.8471                 5.8547
 IR Inten    --      0.0000                 0.0000                 0.0000
  Atom  AN      X      Y      Z        X      Y      Z        X      Y      Z
     1   6    -0.01   0.01  -0.01     0.03   0.02   0.01    -0.05  -0.03  -0.01
     2   6    -0.04  -0.01   0.03     0.00  -0.00  -0.00    -0.00   0.00   0.00
     3   6     0.06   0.03  -0.02    -0.00  -0.00  -0.00    -0.00  -0.00  -0.00
     4   6     0.01  -0.00   0.02    -0.05   0.02   0.02    -0.04   0.01   0.01
     5   1     0.03  -0.04   0.06    -0.44  -0.19   0.12     0.67   0.29  -0.18
     6   1    -0.03   0.03  -0.07     0.69   0.10  -0.29     0.46   0.06  -0.20
     7   6     0.00   0.01   0.01     0.00   0.00  -0.00     0.00   0.00  -0.00
     8   1     0.00  -0.04  -0.02     0.01  -0.00   0.01     0.03  -0.02   0.03
     9   1     0.01  -0.03  -0.02    -0.02  -0.00   0.00    -0.07  -0.01   0.01
    10   1     0.10   0.00  -0.05    -0.00   0.04   0.00     0.00  -0.05  -0.01
    11   1    -0.12  -0.06   0.02    -0.00   0.03   0.04    -0.00   0.02   0.02
    12   6     0.29   0.01  -0.14    -0.00  -0.00  -0.00     0.00   0.00   0.00
    13   6    -0.31  -0.05   0.12     0.00  -0.00  -0.00    -0.00  -0.00   0.00
    14   6     0.12   0.08  -0.01     0.00   0.00   0.00     0.00   0.00   0.00
    15   6    -0.11  -0.02   0.04     0.00  -0.00  -0.00     0.00  -0.00  -0.00
    16   6     0.35   0.17  -0.07    -0.00   0.00   0.00    -0.00   0.00   0.00
    17   6    -0.33  -0.22   0.04     0.00  -0.00  -0.00     0.00  -0.00  -0.00
    18   1     0.35   0.15  -0.08     0.00   0.00   0.00    -0.00  -0.00  -0.00
    19   1    -0.39   0.02   0.19    -0.00   0.00   0.00     0.00  -0.00  -0.00
    20   6     0.09  -0.04  -0.05     0.00   0.00  -0.00    -0.00   0.00   0.00
    21   6    -0.04   0.00   0.01     0.00   0.00  -0.00     0.00  -0.00  -0.00
    22   1    -0.01   0.09   0.04     0.00   0.00   0.00    -0.00  -0.00  -0.00
    23   1    -0.02   0.05   0.04    -0.00   0.00   0.00    -0.00   0.00   0.00
    24   7     0.00  -0.01  -0.00     0.00   0.00   0.00     0.00  -0.00  -0.00
    25   1    -0.00   0.01   0.01    -0.00  -0.00   0.00    -0.01  -0.00   0.00
    26   1    -0.03   0.00   0.00    -0.06  -0.32   0.05    -0.04  -0.20   0.03
    27   1     0.03   0.00   0.00     0.07  -0.08  -0.22    -0.10   0.11   0.31
    28   7     0.01  -0.00  -0.01     0.00  -0.00  -0.00     0.00  -0.00  -0.00
    29   7    -0.07   0.01   0.03    -0.00  -0.00   0.00     0.00   0.00  -0.00
    30   6     0.00  -0.00   0.00     0.00  -0.00   0.00     0.00  -0.00   0.00
    31   9     0.00   0.00  -0.00    -0.00  -0.00  -0.00    -0.00  -0.00  -0.00
    32   9    -0.00   0.00  -0.00    -0.00   0.00  -0.00    -0.00   0.00  -0.00
    33   9    -0.00   0.00  -0.00    -0.00   0.00  -0.00    -0.00   0.00  -0.00
    34   1     0.02   0.00  -0.01     0.00  -0.00   0.00    -0.00   0.00   0.00
                     85                     86                     87
                      A                      A                      A
 Frequencies --   3072.0881              3108.2702              3113.1615
 Red. masses --      1.0611                 1.1017                 1.1000
 Frc consts  --      5.9005                 6.2715                 6.2814
 IR Inten    --      0.0000                 0.0000                 0.0000
  Atom  AN      X      Y      Z        X      Y      Z        X      Y      Z
     1   6     0.00   0.00   0.00     0.05  -0.01  -0.07     0.00   0.00  -0.00
     2   6     0.00  -0.01   0.00    -0.00   0.02   0.00    -0.00   0.00   0.00
     3   6    -0.00   0.00   0.01    -0.00   0.00   0.00    -0.00   0.01   0.02
     4   6     0.00  -0.00  -0.00    -0.00   0.00   0.00    -0.04  -0.07   0.02
     5   1    -0.03  -0.01   0.01    -0.37  -0.16   0.09    -0.01  -0.00   0.00
     6   1    -0.04  -0.01   0.02     0.00   0.00  -0.00     0.34   0.03  -0.14
     7   6     0.01   0.03  -0.06    -0.01   0.00  -0.00     0.01  -0.00   0.01
     8   1     0.44  -0.30   0.59     0.04  -0.03   0.06    -0.05   0.04  -0.08
     9   1    -0.57  -0.10   0.09     0.05   0.01  -0.01    -0.08  -0.01   0.01
    10   1    -0.01   0.10   0.00     0.02  -0.21  -0.01     0.01  -0.05  -0.00
    11   1     0.00  -0.05  -0.08     0.00  -0.01  -0.01     0.01  -0.16  -0.26
    12   6    -0.00  -0.00   0.00    -0.00  -0.00  -0.00    -0.00  -0.00  -0.00
    13   6     0.00   0.00  -0.00    -0.00   0.00   0.00    -0.00  -0.00  -0.00
    14   6    -0.00  -0.00  -0.00     0.00   0.00   0.00     0.00  -0.00  -0.00
    15   6    -0.00   0.00   0.00    -0.00  -0.00   0.00    -0.00   0.00   0.00
    16   6     0.00   0.00  -0.00     0.00  -0.00  -0.00     0.00   0.00  -0.00
    17   6    -0.00  -0.00   0.00    -0.00  -0.00  -0.00     0.00   0.00   0.00
    18   1    -0.00   0.00   0.00    -0.00  -0.00  -0.00    -0.00   0.00   0.00
    19   1    -0.00  -0.00   0.00    -0.00   0.00   0.00     0.00  -0.00   0.00
    20   6     0.00  -0.00  -0.00    -0.00   0.00   0.00     0.00  -0.00  -0.00
    21   6    -0.00   0.00   0.00    -0.00  -0.00  -0.00     0.00   0.00   0.00
    22   1     0.00  -0.00   0.00     0.00   0.00  -0.00    -0.00  -0.00   0.00
    23   1     0.00  -0.00  -0.00     0.00  -0.00  -0.00     0.00  -0.00  -0.00
    24   7    -0.00   0.00  -0.00    -0.00  -0.00   0.00     0.00   0.00  -0.00
    25   1     0.00   0.00  -0.00     0.02   0.00  -0.01    -0.01  -0.01   0.00
    26   1     0.00   0.03  -0.01    -0.00  -0.01   0.00     0.13   0.84  -0.13
    27   1     0.01  -0.01  -0.03    -0.23   0.29   0.79     0.00   0.00   0.00
    28   7    -0.00   0.00   0.00     0.00  -0.00  -0.00    -0.00  -0.00   0.00
    29   7    -0.00  -0.00   0.00     0.00   0.00  -0.00    -0.00   0.00   0.00
    30   6    -0.00   0.00  -0.00     0.00  -0.00  -0.00    -0.00  -0.00   0.00
    31   9     0.00   0.00   0.00     0.00  -0.00   0.00    -0.00   0.00  -0.00
    32   9    -0.00  -0.00   0.00    -0.00  -0.00   0.00     0.00   0.00  -0.00
    33   9     0.00  -0.00   0.00     0.00  -0.00   0.00    -0.00   0.00  -0.00
    34   1    -0.00  -0.00  -0.00    -0.00   0.00   0.00    -0.00   0.00   0.00
                     88                     89                     90
                      A                      A                      A
 Frequencies --   3118.0616              3119.7838              3122.2847
 Red. masses --      1.0884                 1.0972                 1.0968
 Frc consts  --      6.2346                 6.2917                 6.3000
 IR Inten    --      0.0000                 0.0000                 0.0000
  Atom  AN      X      Y      Z        X      Y      Z        X      Y      Z
     1   6     0.01  -0.01  -0.02    -0.01   0.00   0.01    -0.00   0.00   0.01
     2   6     0.01  -0.08  -0.00    -0.00   0.00  -0.00    -0.00   0.02   0.00
     3   6     0.00  -0.01  -0.01    -0.00   0.03   0.05     0.00  -0.03  -0.05
     4   6    -0.01  -0.01   0.00     0.00   0.01  -0.00    -0.01  -0.02   0.01
     5   1    -0.01  -0.01   0.00     0.05   0.02  -0.01     0.03   0.02  -0.01
     6   1     0.05   0.00  -0.02     0.01   0.00  -0.00     0.08   0.01  -0.03
     7   6    -0.02  -0.00  -0.00    -0.07   0.00  -0.01    -0.05   0.01  -0.02
     8   1     0.04  -0.03   0.06     0.20  -0.15   0.28     0.23  -0.17   0.32
     9   1     0.23   0.04  -0.04     0.60   0.12  -0.11     0.43   0.08  -0.08
    10   1    -0.09   0.92   0.04     0.01  -0.05  -0.00     0.03  -0.28  -0.01
    11   1    -0.00   0.08   0.13     0.02  -0.35  -0.56    -0.01   0.35   0.56
    12   6     0.00   0.00  -0.00     0.00  -0.00  -0.00    -0.00  -0.00  -0.00
    13   6    -0.00   0.00   0.00     0.00   0.00  -0.00     0.00  -0.00  -0.00
    14   6    -0.00  -0.00   0.00    -0.00  -0.00   0.00     0.00  -0.00  -0.00
    15   6    -0.00   0.00   0.00    -0.00  -0.00   0.00     0.00   0.00   0.00
    16   6     0.00   0.00   0.00     0.00  -0.00  -0.00     0.00   0.00   0.00
    17   6     0.00   0.00   0.00     0.00   0.00  -0.00    -0.00   0.00   0.00
    18   1    -0.00  -0.01  -0.00    -0.00   0.00   0.00     0.00   0.00   0.00
    19   1     0.00  -0.00  -0.00    -0.00   0.00   0.00     0.00  -0.00  -0.00
    20   6    -0.00   0.00   0.00    -0.00   0.00   0.00     0.00  -0.00  -0.00
    21   6     0.00  -0.00  -0.00     0.00  -0.00  -0.00     0.00   0.00   0.00
    22   1     0.00   0.00  -0.00    -0.00  -0.00  -0.00     0.00   0.00   0.00
    23   1    -0.00   0.00   0.00    -0.00   0.00   0.00     0.00  -0.00  -0.00
    24   7    -0.00   0.00   0.00     0.00  -0.00  -0.00     0.00   0.00   0.00
    25   1     0.00  -0.00  -0.00    -0.00   0.00   0.00    -0.01  -0.00   0.00
    26   1     0.02   0.12  -0.02    -0.02  -0.13   0.02     0.04   0.27  -0.04
    27   1    -0.05   0.07   0.18     0.02  -0.02  -0.07     0.03  -0.03  -0.10
    28   7     0.00  -0.00  -0.00     0.00  -0.00  -0.00    -0.00   0.00   0.00
    29   7     0.00   0.00  -0.00     0.00   0.00  -0.00    -0.00  -0.00   0.00
    30   6     0.00  -0.00   0.00     0.00  -0.00   0.00    -0.00   0.00  -0.00
    31   9    -0.00   0.00  -0.00    -0.00  -0.00  -0.00     0.00   0.00   0.00
    32   9     0.00   0.00  -0.00    -0.00   0.00  -0.00    -0.00  -0.00   0.00
    33   9    -0.00   0.00  -0.00    -0.00   0.00  -0.00     0.00  -0.00   0.00
    34   1    -0.00   0.00   0.00     0.00   0.00   0.00    -0.00  -0.00  -0.00
                     91                     92                     93
                      A                      A                      A
 Frequencies --   3183.6712              3216.9206              3222.4169
 Red. masses --      1.0925                 1.0931                 1.0919
 Frc consts  --      6.5240                 6.6649                 6.6802
 IR Inten    --      0.0000                 0.0000                 0.0000
  Atom  AN      X      Y      Z        X      Y      Z        X      Y      Z
     1   6     0.00  -0.00  -0.00    -0.00  -0.00   0.00     0.00   0.00  -0.00
     2   6     0.00  -0.00  -0.00     0.00  -0.00  -0.00     0.00   0.00   0.00
     3   6    -0.00  -0.00  -0.00     0.00  -0.00  -0.00    -0.00   0.00  -0.00
     4   6     0.00   0.00  -0.00    -0.00  -0.00   0.00     0.00  -0.00   0.00
     5   1     0.00  -0.00   0.00     0.00   0.00  -0.00     0.00  -0.00   0.00
     6   1    -0.00  -0.00   0.00     0.00   0.00  -0.00    -0.00   0.00  -0.00
     7   6     0.00  -0.00   0.00    -0.00  -0.00   0.00    -0.00   0.00  -0.00
     8   1    -0.00   0.00  -0.00     0.00  -0.00   0.00     0.00  -0.00   0.00
     9   1     0.00   0.00  -0.00    -0.00  -0.00   0.00    -0.00  -0.00  -0.00
    10   1     0.00   0.01   0.00    -0.00   0.00   0.00     0.00  -0.00  -0.00
    11   1     0.00   0.00  -0.00    -0.00   0.00   0.00     0.00  -0.00  -0.00
    12   6    -0.00   0.00   0.00     0.00   0.00   0.00    -0.00   0.00   0.00
    13   6     0.01  -0.08  -0.04    -0.00   0.00   0.00     0.00   0.00   0.00
    14   6     0.00   0.00  -0.00    -0.00   0.00   0.00    -0.00  -0.00   0.00
    15   6    -0.00   0.00   0.00    -0.00   0.00   0.00     0.00   0.00  -0.00
    16   6     0.00  -0.00  -0.00     0.00  -0.08  -0.04    -0.00   0.00   0.00
    17   6     0.00   0.00   0.00     0.00   0.00  -0.00    -0.00  -0.00   0.00
    18   1    -0.08   0.86   0.49     0.00  -0.01  -0.00     0.00  -0.01  -0.00
    19   1    -0.00   0.01   0.00    -0.05   0.87   0.48     0.00  -0.04  -0.02
    20   6    -0.00  -0.00   0.00    -0.00  -0.00  -0.00    -0.06  -0.05  -0.00
    21   6     0.00  -0.00  -0.00     0.00  -0.00  -0.00     0.03  -0.00  -0.02
    22   1     0.00   0.00   0.00     0.03   0.03   0.00     0.69   0.61   0.01
    23   1    -0.01   0.00   0.00    -0.02   0.00   0.01    -0.29   0.07   0.20
    24   7     0.00   0.00   0.00    -0.00   0.00   0.00    -0.00  -0.00  -0.00
    25   1    -0.00  -0.00  -0.00     0.00  -0.00  -0.00     0.00   0.00  -0.00
    26   1    -0.00  -0.00   0.00     0.00   0.00  -0.00     0.00   0.00  -0.00
    27   1    -0.00   0.00   0.00     0.00  -0.00  -0.00     0.00  -0.00  -0.00
    28   7     0.00  -0.00  -0.00    -0.00   0.00   0.00    -0.00   0.00   0.00
    29   7     0.00  -0.00  -0.00     0.00  -0.00  -0.00     0.00   0.00  -0.00
    30   6     0.00  -0.00   0.00    -0.00   0.00  -0.00    -0.00  -0.00  -0.00
    31   9    -0.00   0.00  -0.00     0.00   0.00   0.00     0.00   0.00   0.00
    32   9     0.00   0.00  -0.00    -0.00  -0.00   0.00    -0.00  -0.00   0.00
    33   9    -0.00   0.00   0.00    -0.00  -0.00   0.00     0.00   0.00   0.00
    34   1    -0.01   0.00   0.00     0.00  -0.00  -0.00     0.00  -0.01  -0.00
                     94                     95                     96
                      A                      A                      A
 Frequencies --   3239.5799              3539.8661              3563.1651
 Red. masses --      1.0972                 1.0786                 1.0751
 Frc consts  --      6.7847                 7.9632                 8.0421
 IR Inten    --      0.0000                 0.0000                 0.0000
  Atom  AN      X      Y      Z        X      Y      Z        X      Y      Z
     1   6    -0.00  -0.00  -0.00     0.00  -0.00   0.00    -0.00   0.00   0.00
     2   6     0.00  -0.00   0.00    -0.00   0.00  -0.00    -0.00   0.00  -0.00
     3   6     0.00   0.00   0.00     0.00  -0.00  -0.00    -0.00  -0.00  -0.00
     4   6    -0.00   0.00  -0.00     0.00  -0.00   0.00    -0.00  -0.00  -0.00
     5   1     0.00   0.00  -0.00    -0.00  -0.00  -0.00     0.01   0.01  -0.01
     6   1     0.00   0.00  -0.00    -0.00   0.00   0.00     0.01   0.00  -0.01
     7   6    -0.00  -0.00   0.00     0.00  -0.00  -0.00    -0.00  -0.00   0.00
     8   1    -0.00   0.00   0.00     0.00  -0.00   0.00     0.00  -0.00   0.00
     9   1     0.00   0.00  -0.00    -0.00  -0.00   0.00     0.00   0.00  -0.00
    10   1    -0.00   0.00  -0.00     0.00  -0.00   0.00    -0.00   0.00  -0.00
    11   1     0.00  -0.00  -0.00     0.00   0.00   0.00    -0.00  -0.00  -0.00
    12   6     0.00  -0.00  -0.00     0.00  -0.00  -0.00     0.00   0.00  -0.00
    13   6    -0.00  -0.00  -0.00    -0.00   0.00   0.00     0.00   0.00   0.00
    14   6     0.00  -0.00  -0.00    -0.00   0.00   0.00     0.00   0.00   0.00
    15   6     0.00   0.00  -0.00    -0.00   0.00   0.00     0.00  -0.00  -0.00
    16   6     0.00  -0.00  -0.00    -0.00  -0.00  -0.00     0.00   0.00  -0.00
    17   6    -0.00   0.00   0.00     0.00   0.00   0.00     0.00   0.00  -0.00
    18   1    -0.00   0.00   0.00     0.00  -0.00  -0.00    -0.00   0.00   0.00
    19   1    -0.00   0.01   0.00     0.00   0.00   0.00    -0.00  -0.00  -0.00
    20   6    -0.02  -0.02  -0.00    -0.00   0.00   0.00    -0.00   0.00   0.00
    21   6    -0.07   0.02   0.05     0.00   0.00  -0.00    -0.00  -0.00  -0.00
    22   1     0.27   0.24   0.00     0.00   0.00  -0.00    -0.00   0.00  -0.00
    23   1     0.74  -0.20  -0.51    -0.01   0.00   0.01     0.00  -0.00  -0.00
    24   7     0.00   0.00  -0.00    -0.00  -0.00   0.00    -0.05  -0.03   0.04
    25   1    -0.00  -0.00   0.00     0.00   0.00  -0.00     0.69   0.41  -0.60
    26   1    -0.00  -0.00   0.00     0.00   0.00  -0.00     0.00   0.01   0.00
    27   1    -0.00   0.00   0.00     0.00  -0.00  -0.00     0.00  -0.01  -0.01
    28   7     0.00   0.00  -0.00     0.01  -0.06  -0.04    -0.00   0.00   0.00
    29   7     0.00  -0.00  -0.00     0.00  -0.00  -0.00     0.00  -0.00   0.00
    30   6    -0.00  -0.00  -0.00    -0.00   0.00   0.00     0.00  -0.00   0.00
    31   9     0.00   0.00   0.00     0.00   0.00   0.00    -0.00  -0.00  -0.00
    32   9     0.00   0.00  -0.00    -0.00  -0.00   0.00     0.00   0.00  -0.00
    33   9     0.00  -0.00   0.00     0.00  -0.00  -0.00    -0.00   0.00  -0.00
    34   1    -0.01   0.01   0.01    -0.09   0.86   0.50     0.00  -0.00  -0.00

 -------------------
 - Thermochemistry -
 -------------------
 Temperature   298.150 Kelvin.  Pressure   1.00000 Atm.
 Atom     1 has atomic number  6 and mass  12.00000
 Atom     2 has atomic number  6 and mass  12.00000
 Atom     3 has atomic number  6 and mass  12.00000
 Atom     4 has atomic number  6 and mass  12.00000
 Atom     5 has atomic number  1 and mass   1.00783
 Atom     6 has atomic number  1 and mass   1.00783
 Atom     7 has atomic number  6 and mass  12.00000
 Atom     8 has atomic number  1 and mass   1.00783
 Atom     9 has atomic number  1 and mass   1.00783
 Atom    10 has atomic number  1 and mass   1.00783
 Atom    11 has atomic number  1 and mass   1.00783
 Atom    12 has atomic number  6 and mass  12.00000
 Atom    13 has atomic number  6 and mass  12.00000
 Atom    14 has atomic number  6 and mass  12.00000
 Atom    15 has atomic number  6 and mass  12.00000
 Atom    16 has atomic number  6 and mass  12.00000
 Atom    17 has atomic number  6 and mass  12.00000
 Atom    18 has atomic number  1 and mass   1.00783
 Atom    19 has atomic number  1 and mass   1.00783
 Atom    20 has atomic number  6 and mass  12.00000
 Atom    21 has atomic number  6 and mass  12.00000
 Atom    22 has atomic number  1 and mass   1.00783
 Atom    23 has atomic number  1 and mass   1.00783
 Atom    24 has atomic number  7 and mass  14.00307
 Atom    25 has atomic number  1 and mass   1.00783
 Atom    26 has atomic number  1 and mass   1.00783
 Atom    27 has atomic number  1 and mass   1.00783
 Atom    28 has atomic number  7 and mass  14.00307
 Atom    29 has atomic number  7 and mass  14.00307
 Atom    30 has atomic number  6 and mass  12.00000
 Atom    31 has atomic number  9 and mass  18.99840
 Atom    32 has atomic number  9 and mass  18.99840
 Atom    33 has atomic number  9 and mass  18.99840
 Atom    34 has atomic number  1 and mass   1.00783
 Molecular mass:   281.11398 amu.
 Principal axes and moments of inertia in atomic units:
                           1         2         3
     Eigenvalues --  2063.264839995.80811**********
           X            0.99987   0.01058  -0.01199
           Y           -0.00962   0.99694   0.07752
           Z            0.01277  -0.07739   0.99692
 This molecule is an asymmetric top.
 Rotational symmetry number  1.
 Warning -- assumption of classical behavior for rotation
           may cause significant error
 Rotational temperatures (Kelvin)      0.04198     0.00867     0.00840
 Rotational constants (GHZ):           0.87470     0.18055     0.17506
    1 imaginary frequencies ignored.
 Zero-point vibrational energy     705358.0 (Joules/Mol)
                                  168.58461 (Kcal/Mol)
 Warning -- explicit consideration of  25 degrees of freedom as
           vibrations may cause significant error
 Vibrational temperatures:     31.46    55.51    66.66   110.89   155.33
          (Kelvin)            169.61   207.97   279.66   310.40   338.73
                              390.68   459.87   497.71   545.37   601.20
                              647.66   666.17   698.57   712.68   736.71
                              746.84   825.07   862.91   869.70   886.76
                              936.70  1012.96  1053.98  1078.50  1119.32
                             1136.71  1158.38  1164.33  1198.08  1239.50
                             1264.34  1289.31  1312.73  1337.48  1347.52
                             1356.16  1367.96  1376.41  1419.24  1475.27
                             1485.62  1514.61  1515.92  1551.15  1600.40
                             1616.37  1669.14  1693.12  1727.64  1735.46
                             1783.33  1800.05  1806.88  1822.29  1848.79
                             1856.16  1867.93  1875.59  1894.27  1897.60
                             1950.30  1957.71  1969.55  2000.72  2005.49
                             2089.67  2124.36  2131.73  2140.73  2154.97
                             2167.61  2171.57  2241.43  2317.24  2379.36
                             2435.02  4392.95  4393.90  4420.05  4472.11
                             4479.15  4486.20  4488.67  4492.27  4580.59
                             4628.43  4636.34  4661.03  5093.08  5126.60
 
 Zero-point correction=                           0.268657 (Hartree/Particle)
 Thermal correction to Energy=                    0.284247
 Thermal correction to Enthalpy=                  0.285191
 Thermal correction to Gibbs Free Energy=         0.223188
 Sum of electronic and zero-point Energies=          -1005.193823
 Sum of electronic and thermal Energies=             -1005.178232
 Sum of electronic and thermal Enthalpies=           -1005.177288
 Sum of electronic and thermal Free Energies=        -1005.239291
 
                     E (Thermal)             CV                S
                      KCal/Mol        Cal/Mol-Kelvin    Cal/Mol-Kelvin
 Total                  178.368             61.897            130.496
 Electronic               0.000              0.000              1.377
 Translational            0.889              2.981             42.799
 Rotational               0.889              2.981             33.719
 Vibrational            176.590             55.935             52.601
 Vibration     1          0.593              1.985              6.457
 Vibration     2          0.594              1.981              5.331
 Vibration     3          0.595              1.979              4.968
 Vibration     4          0.599              1.964              3.964
 Vibration     5          0.606              1.943              3.305
 Vibration     6          0.608              1.934              3.135
 Vibration     7          0.616              1.909              2.743
 Vibration     8          0.635              1.848              2.186
 Vibration     9          0.645              1.817              1.995
 Vibration    10          0.655              1.787              1.837
 Vibration    11          0.675              1.726              1.586
 Vibration    12          0.706              1.636              1.312
 Vibration    13          0.724              1.584              1.185
 Vibration    14          0.749              1.515              1.043
 Vibration    15          0.781              1.431              0.899
 Vibration    16          0.809              1.361              0.795
 Vibration    17          0.821              1.332              0.757
 Vibration    18          0.842              1.282              0.695
 Vibration    19          0.851              1.260              0.670
 Vibration    20          0.867              1.223              0.629
 Vibration    21          0.874              1.208              0.612
 Vibration    22          0.930              1.089              0.498
 Vibration    23          0.958              1.032              0.450
 Vibration    24          0.963              1.022              0.442
 Vibration    25          0.976              0.997              0.422
                       Q            Log10(Q)             Ln(Q)
 Total Bot       0.219071-102       -102.659416       -236.382041
 Total V=0       0.820293D+21         20.913969         48.156193
 Vib (Bot)       0.113275-117       -117.945865       -271.580391
 Vib (Bot)    1  0.947242D+01          0.976461          2.248384
 Vib (Bot)    2  0.536310D+01          0.729416          1.679542
 Vib (Bot)    3  0.446362D+01          0.649687          1.495960
 Vib (Bot)    4  0.267327D+01          0.427042          0.983301
 Vib (Bot)    5  0.189788D+01          0.278268          0.640736
 Vib (Bot)    6  0.173440D+01          0.239150          0.550663
 Vib (Bot)    7  0.140493D+01          0.147656          0.339990
 Vib (Bot)    8  0.102803D+01          0.012004          0.027640
 Vib (Bot)    9  0.918495D+00         -0.036923         -0.085019
 Vib (Bot)   10  0.834590D+00         -0.078527         -0.180814
 Vib (Bot)   11  0.711173D+00         -0.148025         -0.340840
 Vib (Bot)   12  0.588268D+00         -0.230425         -0.530572
 Vib (Bot)   13  0.534755D+00         -0.271845         -0.625947
 Vib (Bot)   14  0.477313D+00         -0.321197         -0.739583
 Vib (Bot)   15  0.420903D+00         -0.375817         -0.865352
 Vib (Bot)   16  0.380912D+00         -0.419175         -0.965186
 Vib (Bot)   17  0.366434D+00         -0.436004         -1.003936
 Vib (Bot)   18  0.342825D+00         -0.464927         -1.070535
 Vib (Bot)   19  0.333169D+00         -0.477336         -1.099106
 Vib (Bot)   20  0.317530D+00         -0.498215         -1.147182
 Vib (Bot)   21  0.311224D+00         -0.506927         -1.167242
 Vib (Bot)   22  0.267469D+00         -0.572727         -1.318752
 Vib (Bot)   23  0.249032D+00         -0.603745         -1.390173
 Vib (Bot)   24  0.245889D+00         -0.609260         -1.402874
 Vib (Bot)   25  0.238193D+00         -0.623071         -1.434674
 Vib (V=0)       0.424150D+06          5.627520         12.957843
 Vib (V=0)    1  0.998561D+01          0.999375          2.301145
 Vib (V=0)    2  0.588636D+01          0.769847          1.772637
 Vib (V=0)    3  0.499154D+01          0.698234          1.607744
 Vib (V=0)    4  0.321962D+01          0.507805          1.169264
 Vib (V=0)    5  0.246264D+01          0.391400          0.901232
 Vib (V=0)    6  0.230503D+01          0.362677          0.835096
 Vib (V=0)    7  0.199125D+01          0.299127          0.688765
 Vib (V=0)    8  0.164317D+01          0.215682          0.496627
 Vib (V=0)    9  0.154577D+01          0.189145          0.435521
 Vib (V=0)   10  0.147290D+01          0.168174          0.387236
 Vib (V=0)   11  0.136935D+01          0.136514          0.314335
 Vib (V=0)   12  0.127205D+01          0.104504          0.240629
 Vib (V=0)   13  0.123209D+01          0.090644          0.208716
 Vib (V=0)   14  0.119125D+01          0.076003          0.175004
 Vib (V=0)   15  0.115357D+01          0.062046          0.142865
 Vib (V=0)   16  0.112857D+01          0.052527          0.120947
 Vib (V=0)   17  0.111990D+01          0.049179          0.113238
 Vib (V=0)   18  0.110624D+01          0.043850          0.100968
 Vib (V=0)   19  0.110083D+01          0.041722          0.096068
 Vib (V=0)   20  0.109231D+01          0.038344          0.088290
 Vib (V=0)   21  0.108895D+01          0.037007          0.085213
 Vib (V=0)   22  0.106704D+01          0.028183          0.064893
 Vib (V=0)   23  0.105858D+01          0.024726          0.056933
 Vib (V=0)   24  0.105719D+01          0.024153          0.055615
 Vib (V=0)   25  0.105384D+01          0.022774          0.052438
 Electronic      0.200000D+01          0.301030          0.693147
 Translational   0.185258D+09          8.267778         19.037261
 Rotational      0.521965D+07          6.717642         15.467942
 ***** Axes restored to original set *****
 -------------------------------------------------------------------
 Center     Atomic                   Forces (Hartrees/Bohr)
 Number     Number              X              Y              Z
 -------------------------------------------------------------------
      1        6           0.000000212    0.000000059    0.000000110
      2        6           0.000000113   -0.000000091   -0.000000000
      3        6          -0.000000068    0.000000055   -0.000000122
      4        6           0.000000234   -0.000000046    0.000000023
      5        1          -0.000000130   -0.000000008    0.000000037
      6        1          -0.000000113    0.000000023    0.000000027
      7        6           0.000000044    0.000000068   -0.000000056
      8        1           0.000000193   -0.000000159   -0.000000190
      9        1          -0.000000157   -0.000000004    0.000000043
     10        1          -0.000000020    0.000000053    0.000000076
     11        1           0.000000016   -0.000000001   -0.000000036
     12        6          -0.000000125   -0.000000108    0.000000056
     13        6          -0.000000057   -0.000000144    0.000000005
     14        6           0.000000237    0.000000035   -0.000000103
     15        6          -0.000000111    0.000000056    0.000000044
     16        6           0.000000189    0.000000109    0.000000011
     17        6          -0.000000292   -0.000000061    0.000000183
     18        1          -0.000000019    0.000000039    0.000000035
     19        1           0.000000020   -0.000000054    0.000000012
     20        6           0.000000096    0.000000091    0.000000003
     21        6          -0.000000003   -0.000000160    0.000000112
     22        1          -0.000000013   -0.000000073   -0.000000002
     23        1           0.000000011   -0.000000024   -0.000000010
     24        7          -0.000000139    0.000000033   -0.000000056
     25        1           0.000000165    0.000000011   -0.000000053
     26        1          -0.000000018    0.000000014   -0.000000016
     27        1           0.000000046   -0.000000016   -0.000000044
     28        7          -0.000000374    0.000000023    0.000000053
     29        7           0.000000032    0.000000231    0.000000043
     30        6           0.000000031    0.000000268   -0.000000349
     31        9          -0.000000010   -0.000000033    0.000000013
     32        9          -0.000000038   -0.000000094    0.000000040
     33        9          -0.000000040   -0.000000061    0.000000143
     34        1           0.000000082   -0.000000032   -0.000000031
 -------------------------------------------------------------------
 Cartesian Forces:  Max     0.000000374 RMS     0.000000109
 Red2BG is reusing G-inverse.
 Leave Link  716 at Sun Nov 30 19:56:15 2025, MaxMem=   104857600 cpu:               0.0 elap:               0.0
 (Enter /home/zhouoh/g16/l9999.exe)
 1\1\GINC-ZHOUOH-B650M\Freq\UExternal='python ../GauUMA_client.py'\ZDO\
 C14H14F3N3(1+,2)\ZHOUOH\30-Nov-2025\0\\#p opt=(calcall,ts,noeigen,nomi
 cro) external='python ../GauUMA_client.py'\\t\\1,2\C,-3.9742861329,-1.
 0961522101,-0.8897803008\C,-2.9628015865,-1.4727909673,0.2288893639\C,
 -3.1433306666,0.6764886625,1.1966356318\C,-4.1631072369,1.1300837418,0
 .1205456632\H,-4.945606346,-1.5068535176,-0.6005851177\H,-5.1635176671
 ,1.0462597109,0.55372239\C,-3.4369628768,-0.7972805794,1.5288691114\H,
 -2.8526627445,-1.1337278779,2.3864671143\H,-4.4925804096,-0.979230943,
 1.7324319889\H,-2.8508308902,-2.5543001615,0.2908712545\H,-3.169674616
 8,1.3463058304,2.0547351537\C,-1.6762325485,-0.7396213926,-0.019734955
 1\C,-0.5550516908,-1.1287103675,-0.6993679536\C,0.4993984684,-0.207617
 6197,-0.7795576426\C,0.4132794541,1.0923672655,-0.2111860246\C,-0.7719
 143362,1.4665285834,0.4624070484\C,-1.7837032601,0.5599925932,0.562156
 1323\H,-0.4615332696,-2.1148500088,-1.1401059919\H,-0.8195775849,2.459
 0458867,0.8908024655\C,2.5438874431,1.6029386467,-0.8861685875\C,2.730
 9321251,0.2935304762,-1.3889230886\H,3.3605195215,2.3110941976,-0.9490
 739448\H,3.6003840926,0.0043907151,-1.9627963196\N,-4.097249932,0.3361
 226301,-1.0966474089\H,-3.3828154946,0.6817724986,-1.7218993838\H,-4.0
 060535004,2.1760142402,-0.142226783\H,-3.6914249341,-1.5581288393,-1.8
 357551065\N,1.6738758601,-0.5223267816,-1.4069494433\N,1.4329472393,1.
 9787650906,-0.3109961189\C,3.7404872788,-0.4721218715,0.5873445271\F,4
 .8167713442,0.2263558859,0.8356959175\F,2.8392487919,-0.3584032955,1.5
 347708398\F,4.0075065903,-1.7323550793,0.3203151049\H,1.7620545158,-1.
 4404631429,-1.827620536\\Version=ES64L-G16RevA.03\HF=-1005.4624793\S2=
 0.\S2-1=0.\S2A=0.\RMSD=0.000e+00\RMSF=1.093e-07\ZeroPoint=0.2686567\Th
 ermal=0.284247\Dipole=0.,0.,0.\PG=C01 [X(C14H14F3N3)]\NImag=1\\0.52589
 129,0.05081608,0.49984059,-0.09325268,0.06170749,0.56053124,-0.0996584
 0,-0.00756863,-0.02380313,0.41956305,0.00884201,-0.07910876,0.00813921
 ,0.01162276,0.67170279,-0.03950770,-0.00068044,-0.10968497,-0.01458149
 ,0.00939704,0.40325213,0.00068741,0.00072680,-0.00140319,-0.00003259,0
 .00225641,-0.00116884,0.43378537,-0.00186092,0.00351690,-0.00094459,0.
 00549679,-0.03348168,-0.00814244,-0.02186955,0.53113321,-0.00145134,0.
 00370035,-0.00007066,0.00198253,-0.03154075,0.00048407,-0.03677665,0.1
 2676225,0.54723106,-0.00228487,0.00735011,0.00010577,0.00112217,0.0016
 6179,0.00095260,-0.10727166,0.02244937,-0.03757866,0.53361443,0.000928
 78,-0.02891301,-0.03409908,-0.00005745,0.00328566,-0.00066893,0.020488
 21,-0.08842635,0.01740836,0.02801037,0.60587624,-0.00437610,-0.0090986
 7,0.00895889,-0.00187420,0.00424448,0.00057552,-0.01853716,0.01337028,
 -0.10299146,-0.08756788,-0.03640275,0.45649118,-0.25649078,-0.08335431
 ,0.06422349,-0.02300201,-0.00681578,0.00243093,-0.00006050,-0.00001835
 ,0.00002559,0.00045257,-0.00015062,-0.00045458,0.27557307,-0.07797568,
 -0.07718535,0.01940178,0.00600545,0.00422068,-0.00133035,0.00007210,-0
 .00032561,-0.00030562,-0.00137026,0.00114038,0.00150248,0.08961244,0.0
 9512079,0.06469510,0.01919335,-0.06637696,-0.02565291,-0.00780854,0.00
 007156,-0.00005429,0.00012900,0.00002231,-0.00084120,-0.00017286,-0.00
 046169,-0.06505462,-0.03170026,0.07234554,0.00019566,0.00027653,-0.000
 10567,-0.00002177,-0.00000128,-0.00002551,-0.02365475,-0.00109273,0.00
 533754,-0.26655715,-0.02280129,0.09233845,-0.00035448,0.00058585,0.000
 27803,0.28771101,0.00136862,0.00123098,0.00002674,-0.00005070,-0.00015
 187,0.00008410,0.01191953,-0.00047585,-0.00033940,-0.02639139,-0.05462
 990,0.01043125,-0.00069919,0.00017789,0.00032904,0.02206509,0.05248281
 ,0.00025385,0.00182501,-0.00020802,0.00006834,-0.00041076,-0.00004972,
 -0.02331024,0.00136818,0.00620428,0.08882621,0.01004512,-0.07906936,-0
 .00021101,-0.00068903,0.00052531,-0.09865549,-0.00707550,0.10251091,0.
 00757428,-0.00842903,-0.02066984,-0.07812834,0.01065906,0.02585078,-0.
 07335893,-0.01575567,0.00567187,0.00433495,0.02344192,-0.00827109,0.00
 076265,-0.00038898,-0.00129084,0.00084753,0.00123812,-0.00040155,0.633
 17107,-0.00398559,0.00645400,0.00261381,0.01461532,-0.09382184,-0.0343
 8008,-0.01908587,-0.16271153,0.02282640,0.00230670,-0.01671314,0.01222
 047,0.00005019,-0.00017126,0.00000464,-0.00126275,0.00087228,-0.001202
 38,0.01336328,0.41837568,0.00380314,-0.00942709,-0.03462026,0.02518098
 ,-0.03102161,-0.14337719,0.00248019,0.01856699,-0.08244188,0.00290732,
 0.02797589,-0.00828556,0.00207298,-0.00008162,0.00205870,0.00146648,-0
 .00081851,0.00092361,0.01761532,-0.06961111,0.54112082,-0.00099591,0.0
 0060958,0.00073443,0.00469496,-0.00419943,0.00915068,0.00225486,-0.002
 01078,0.00599894,-0.00043800,-0.00014051,-0.00001827,0.00048411,0.0001
 0073,0.00021343,0.00053098,-0.00016344,0.00011400,-0.13004079,0.043717
 67,-0.11309164,0.13468903,0.00175102,-0.00182663,-0.00353781,-0.009649
 38,0.00561701,-0.01381614,0.01723514,-0.00987158,0.02586428,-0.0031169
 3,-0.00690581,0.00035466,0.00029877,0.00001846,0.00020680,-0.00021192,
 0.00014581,-0.00025334,0.04276145,-0.06987212,0.06473005,-0.04756254,0
 .07844955,0.00363156,-0.00330515,-0.00359670,-0.01334541,0.00808715,-0
 .01995916,-0.00154765,0.00113408,-0.00266471,0.00090573,0.00046782,0.0
 0092863,0.00010332,-0.00006166,0.00023311,-0.00013668,0.00002296,0.000
 04280,-0.11110181,0.06487365,-0.20967946,0.12103950,-0.06906903,0.2274
 1242,-0.00015519,-0.00007689,-0.00182540,-0.00674723,-0.00143883,0.000
 60628,-0.00317625,0.00013221,0.00028977,-0.00002716,0.00104919,-0.0010
 5556,0.00084396,-0.00010508,0.00041171,0.00069879,-0.00008602,0.000337
 51,-0.29999740,-0.04277022,0.04701201,-0.01502758,-0.00255212,0.002896
 27,0.32357656,0.00043522,0.00059255,0.00129928,0.01542380,0.00308905,-
 0.00280170,-0.02813171,-0.00264602,0.00648284,-0.00177008,0.00217067,-
 0.00044865,-0.00039643,0.00001061,0.00006417,0.00097978,-0.00025321,0.
 00008173,-0.04089773,-0.05433246,0.00880512,0.00946695,0.00153692,-0.0
 0238396,0.04640525,0.05681130,0.00166215,0.00102541,0.00151501,0.02247
 956,0.00611762,-0.00454803,0.00305193,0.00001597,-0.00180114,0.0008743
 9,0.00005121,-0.00008974,-0.00076743,-0.00032797,-0.00037951,-0.000208
 29,0.00032138,0.00001186,0.04260103,0.00830618,-0.05689374,-0.02372303
 ,-0.00474678,0.00562688,-0.05097253,-0.00975428,0.06061264,-0.00004245
 ,0.02070752,0.00044745,-0.05062574,0.03020216,0.00166021,-0.00054527,-
 0.00036687,0.00266812,0.00003224,-0.00085599,-0.00092488,0.00005824,-0
 .00047146,0.00089572,0.00002402,0.00006102,0.00009638,-0.00141924,0.01
 016555,-0.00236293,0.00050017,-0.00076067,-0.00036998,-0.00025244,0.00
 007444,-0.00007151,0.05301102,-0.00043833,-0.00583928,-0.00049997,0.02
 677022,-0.31584223,0.01642437,0.00008598,0.00010100,-0.00193720,-0.000
 23223,0.00040302,0.00011514,0.00040331,0.00009158,0.00008970,0.0000049
 3,0.00002267,-0.00003758,0.00029461,-0.00783915,0.00164406,-0.00028941
 ,0.00055740,-0.00026487,0.00023043,-0.00018289,-0.00031082,-0.02894902
 ,0.33933870,-0.00096280,0.02345775,-0.00122074,0.00304103,0.01810792,-
 0.04601239,0.00203095,-0.00320508,-0.00524976,-0.00033560,-0.00064679,
 -0.00144322,0.00014468,-0.00060161,0.00086231,-0.00003042,0.00000229,0
 .00013825,0.00045717,-0.02591115,0.00511714,-0.00075053,0.00066298,0.0
 0110945,0.00029507,0.00037195,0.00023515,0.00203974,-0.01727176,0.0494
 8456,-0.00016476,0.00132606,0.00003655,-0.00029024,-0.00125843,0.00169
 274,-0.04749135,0.00052055,0.00534137,0.00266642,-0.01428198,-0.015643
 22,0.00004045,-0.00011539,0.00004714,0.00007616,-0.00034113,0.00094480
 ,-0.00050552,-0.00382017,-0.00668134,0.00024973,0.00066222,0.00027490,
 -0.00015252,0.00004744,-0.00013153,0.00037323,-0.00005541,-0.00035929,
 0.05056717,0.00038339,-0.00079855,0.00056541,-0.00088733,-0.00575695,0
 .00186329,0.00161545,-0.14820589,-0.13188470,-0.00078591,0.00647388,0.
 00890067,-0.00000036,0.00006623,-0.00005090,-0.00029279,0.00019291,-0.
 00065865,0.00232142,-0.01345514,-0.02290063,0.00061311,0.00131817,0.00
 028680,-0.00042518,-0.00000289,0.00005980,0.00055123,-0.00048528,-0.00
 158611,-0.00544769,0.15967607,-0.00019649,0.00151947,-0.00019625,0.000
 83827,0.00306105,0.00060373,0.00875205,-0.13344651,-0.21802489,0.00232
 728,-0.01334731,-0.01573985,0.00001328,-0.00010734,0.00011302,-0.00023
 804,-0.00008485,0.00068667,-0.00123335,0.00546818,0.00952680,-0.000173
 85,-0.00077181,0.00064783,0.00007994,-0.00048874,-0.00002870,-0.000298
 11,0.00037970,0.00052792,-0.00604867,0.14273594,0.23274225,-0.03682493
 ,0.00049907,-0.01010267,-0.15117318,-0.05169498,0.02833944,-0.00916314
 ,0.02362000,0.01892672,-0.00258915,0.00125377,0.00174188,-0.00082483,0
 .00065853,-0.00101928,-0.00020747,-0.00019955,-0.00076223,-0.02645320,
 0.00577087,0.01741019,0.00116184,-0.00075311,-0.00193973,-0.00062095,-
 0.00002273,0.00228165,0.00414113,0.00219563,-0.00379439,-0.00516365,-0
 .00105359,0.00143325,0.65864469,-0.00094078,0.01253154,-0.01141764,-0.
 04895264,-0.12202457,0.01698567,0.01389193,-0.00838665,-0.01398315,-0.
 00106453,0.00031090,0.00085822,0.00300904,-0.00022767,0.00328587,-0.00
 031991,-0.00004075,0.00015049,0.00336601,0.00472988,0.00197330,-0.0001
 2579,-0.00032410,-0.00039973,0.00098344,-0.00176791,-0.00202807,-0.029
 09708,-0.01031524,0.00442693,0.00080304,-0.00049221,-0.00011610,0.0006
 8946,0.51837930,-0.01974954,-0.01623231,0.00895037,0.01368545,0.005536
 84,-0.07875362,0.01541891,-0.01417629,-0.00519571,0.00128997,-0.000417
 23,-0.00435362,-0.00342770,0.00158578,-0.00387311,0.00020838,-0.000458
 33,0.00066446,0.03560631,0.00432591,-0.01447156,0.00039698,0.00031458,
 0.00035146,0.00132763,-0.00320436,-0.00427989,0.00090355,0.00025049,-0
 .00131255,0.00265631,-0.00054749,-0.00053685,-0.21307644,0.13879822,0.
 34326328,0.00230894,-0.00405670,0.00596754,-0.02140605,0.00741299,0.00
 933250,0.00174480,-0.00065470,0.00202785,0.00101800,-0.00055279,-0.000
 57627,-0.00071501,0.00040422,-0.00088125,0.00006864,-0.00007350,0.0004
 8278,-0.00191197,-0.00355450,-0.00125196,-0.00005854,0.00010094,0.0010
 8651,0.00033659,0.00070808,0.00099354,0.00131126,0.00073616,0.00029463
 ,0.00055861,0.00043098,-0.00041537,-0.29251479,0.03176060,0.11838771,0
 .60461333,-0.00097074,-0.00235228,0.00282189,-0.01090939,0.01203865,0.
 00646956,-0.00158866,-0.00429526,-0.00325743,-0.00005907,-0.00032263,-
 0.00025718,-0.00074406,0.00017771,-0.00077047,0.00003782,0.00000692,0.
 00014051,-0.00356993,-0.00192231,0.00046258,0.00012062,0.00002330,0.00
 007695,-0.00036112,0.00078573,0.00104365,0.00057282,0.00074633,0.00014
 528,0.00160251,0.00009248,-0.00040687,0.08172179,-0.14784914,-0.075029
 66,0.02918630,0.65410584,-0.00119658,0.00307898,-0.00359164,0.00830843
 ,0.00024520,0.00676253,0.00046383,-0.00286199,0.00162241,0.00008351,-0
 .00029008,-0.00099778,0.00018948,-0.00009370,0.00086421,0.00014988,0.0
 0005830,0.00012225,-0.00090899,-0.00021324,0.00056703,-0.00025136,0.00
 004820,-0.00006058,0.00000203,0.00015108,0.00008016,-0.00103763,-0.000
 62190,-0.00010305,-0.00012504,-0.00017696,0.00019693,0.14059877,-0.051
 28822,-0.14617058,-0.20241627,0.20733589,0.29897057,0.00012413,0.00238
 202,-0.00215753,0.00475946,0.00251277,0.00623579,-0.00195394,-0.000354
 52,-0.00231789,-0.00033482,-0.00009223,0.00210030,0.00042089,-0.000243
 78,0.00024732,-0.00019695,0.00013817,-0.00062124,-0.00210009,0.0001731
 4,0.00012948,0.00015310,0.00003289,-0.00036887,-0.00043543,-0.00008549
 ,0.00029561,-0.00034657,-0.00074176,-0.00008966,-0.00030691,-0.0003813
 3,0.00029499,-0.06469029,0.01857004,0.03868969,-0.18056140,-0.12348330
 ,0.00023254,0.63121944,-0.00188966,0.00238651,-0.00334827,0.00463227,0
 .00016749,-0.00101514,0.00130937,-0.00154185,0.00042136,-0.00079351,0.
 00084105,-0.00149809,0.00061706,-0.00033015,0.00032471,0.00032906,0.00
 004967,0.00006476,0.00029456,0.00128304,0.00036560,-0.00003956,-0.0000
 2354,-0.00046513,0.00003876,-0.00030004,-0.00043091,0.00036357,-0.0000
 3034,-0.00058039,-0.00007947,0.00003472,-0.00004348,-0.02746522,0.0417
 8943,0.02952586,-0.07997465,-0.21592532,-0.03002720,0.09753638,0.60647
 507,0.00110727,0.00139128,-0.00174371,0.00389339,-0.00407871,0.0063382
 7,0.00141701,-0.00017510,0.00011281,-0.00058983,0.00053957,-0.00090011
 ,0.00049655,-0.00010689,0.00058733,0.00017606,0.00002577,0.00018086,-0
 .00042141,-0.00049265,0.00004966,-0.00013226,-0.00000854,-0.00009216,0
 .00010264,0.00025150,-0.00003993,-0.00043728,-0.00010670,-0.00015337,0
 .00018907,0.00021529,-0.00016609,0.01936527,0.00866890,-0.00289801,0.0
 1658653,-0.01027413,-0.07544578,-0.16010500,0.14395468,0.28755463,-0.0
 0036057,-0.00332911,0.00296475,-0.00338356,0.00185063,-0.00307193,0.00
 655949,-0.00488095,0.00340752,0.00050717,0.00011117,-0.00425928,-0.000
 59477,0.00046825,-0.00090536,0.00060245,-0.00006819,0.00063300,-0.0016
 7896,-0.00107064,-0.00076549,0.00010966,0.00032443,-0.00025256,-0.0004
 3749,0.00010194,0.00029651,-0.00050363,0.00010945,0.00077593,-0.000304
 69,0.00068891,0.00026550,-0.01223027,0.02361521,0.01529189,0.02379416,
 -0.01491052,-0.01246989,-0.13142212,0.01086322,0.02289689,0.63859809,0
 .00102888,-0.00195830,0.00316504,-0.00321277,-0.00040963,-0.00233002,-
 0.00381970,-0.00059948,-0.00404606,0.00008764,-0.00100950,0.00234312,-
 0.00070387,0.00029266,-0.00045167,-0.00057904,0.00011369,-0.00048166,-
 0.00025579,-0.00036129,-0.00024453,0.00020535,-0.00010793,0.00026794,-
 0.00020474,-0.00015462,0.00027784,-0.00033184,0.00009581,0.00050264,0.
 00006963,-0.00020698,0.00026130,0.01596481,-0.01314506,-0.00944845,-0.
 03602927,-0.02596893,0.00248066,0.00079201,-0.21029698,-0.05699672,0.0
 5624563,0.57038199,0.00048497,0.00004108,0.00039761,-0.00011663,-0.000
 60496,-0.00058109,0.00017404,-0.00298054,0.00609887,0.00200851,-0.0001
 4850,0.00131753,-0.00007034,-0.00009103,0.00009712,-0.00004000,-0.0002
 3046,-0.00001130,-0.00105169,0.00060606,0.00086771,-0.00002472,-0.0001
 0115,0.00012689,0.00008208,-0.00057848,-0.00013167,0.00020222,-0.00000
 782,-0.00012182,-0.00059081,-0.00018750,0.00032658,0.00797736,-0.01269
 201,-0.01678074,-0.01998710,-0.00806146,0.01520717,0.01997427,-0.05955
 122,-0.11317036,-0.18204669,0.13625469,0.30660198,0.00090205,0.0020237
 6,-0.00115432,0.00215246,-0.00044018,0.00353376,-0.01965837,-0.0166723
 8,-0.00133683,0.00157636,-0.00147358,0.00711489,0.00032166,-0.00040545
 ,0.00071387,-0.00074110,0.00033809,-0.00100639,-0.00240482,0.00287015,
 0.00217751,0.00000481,-0.00084339,0.00065104,0.00060606,-0.00153428,0.
 00002683,0.00094670,0.00015302,-0.00079407,0.00149942,-0.00054516,-0.0
 0032058,0.02966340,-0.04663471,-0.03290782,-0.04253375,-0.01348430,0.0
 1309235,0.02465993,0.04136497,0.01206504,-0.20027631,0.04639172,0.0768
 8695,0.59334308,0.00004571,-0.00054284,0.00007454,0.00173687,-0.004122
 47,-0.00274737,-0.00244052,0.01033687,0.00041049,0.00177515,0.00024523
 ,0.00185015,-0.00010771,0.00007802,-0.00000172,0.00030754,0.00011136,-
 0.00006552,0.00297564,0.00032098,-0.00108417,0.00000938,-0.00005721,0.
 00019836,0.00022138,0.00073262,-0.00003641,-0.00082955,-0.00031970,-0.
 00019669,0.00072907,0.00014299,-0.00011840,-0.01860188,-0.03625110,-0.
 00969414,-0.00882721,-0.00357600,0.00326070,0.02899836,0.00009501,-0.0
 1572851,0.07470617,-0.13213761,-0.05856733,0.11794698,0.71191842,0.000
 24909,0.00005334,-0.00004525,0.00182744,-0.00304629,0.00130883,0.01101
 427,0.00784339,0.00632007,0.00013206,0.00064422,-0.00519120,0.00003919
 ,0.00002657,-0.00007078,0.00057578,-0.00054073,0.00080895,0.00238969,-
 0.00060336,-0.00106396,-0.00023438,-0.00001083,-0.00005888,0.00021808,
 0.00102757,-0.00003929,-0.00131325,-0.00039880,0.00039881,-0.00102619,
 0.00062617,0.00054614,-0.01937369,0.00406657,0.01796145,0.01603417,0.0
 0559983,-0.00619057,0.00420241,-0.02304204,-0.00403357,0.08876602,-0.0
 4466097,-0.12433914,-0.15680266,0.18059959,0.27849859,-0.00154487,-0.0
 0228868,0.00061188,-0.00145461,-0.02742782,-0.00566426,-0.16311944,0.0
 0303977,0.05552354,-0.03676588,0.00250447,-0.00796983,-0.00029406,0.00
 067433,-0.00028003,-0.00068777,0.00011742,-0.00138289,-0.02228588,-0.0
 1948435,0.00562982,0.00080682,0.00190333,-0.00045515,-0.00043577,-0.00
 090943,0.00173878,-0.00502402,-0.00094093,0.00170667,0.00031363,0.0018
 0901,-0.00214115,-0.10574588,0.03131974,0.02792856,0.01812562,0.031140
 89,0.00735669,-0.01031346,-0.01442562,-0.00460681,-0.05330409,-0.01293
 949,0.02025154,-0.27024902,-0.16824828,0.02601343,0.64009265,-0.000555
 79,-0.00377849,0.00244005,-0.01924652,-0.02558649,-0.00621221,0.014807
 24,-0.08272265,-0.01623233,0.01142773,-0.00106929,-0.00385900,-0.00021
 026,0.00049027,-0.00090687,0.00056567,0.00034870,0.00134547,-0.0326574
 9,-0.01001516,0.00944478,-0.00004143,0.00044412,-0.00014379,-0.0011225
 9,-0.00588671,0.00079853,-0.00311081,-0.00111720,0.00021131,0.01921540
 ,-0.00007031,-0.00561785,-0.01890958,-0.22030427,-0.04603064,0.0605643
 3,0.00595728,-0.02881540,-0.03332662,-0.03483742,0.00084553,-0.0534355
 6,0.02179916,0.03164453,-0.11777146,-0.25152299,-0.02356153,0.16406459
 ,0.60326218,0.00120674,0.00347992,-0.00187505,0.00021929,-0.00554395,0
 .00801572,0.04602764,-0.00753717,-0.10521174,-0.01600766,0.00036526,0.
 02074761,0.00034587,-0.00003497,0.00051946,-0.00437734,0.00215829,-0.0
 0421221,0.01875700,0.00976197,-0.00557832,0.00039262,-0.00064690,0.000
 13716,-0.00008158,0.00146066,-0.00018267,0.00057400,0.00029918,0.00014
 369,0.02291363,0.00105476,-0.00774481,0.00730376,-0.07751515,-0.107395
 74,0.01765318,-0.01558039,-0.00687592,-0.00936944,-0.00430947,-0.00304
 642,0.00542996,0.01204588,0.00676689,0.04471391,0.00034204,-0.08182816
 ,-0.13947043,0.09515440,0.28129527,-0.00032178,-0.00016050,0.00059220,
 0.00027539,0.00100097,-0.00257134,0.00017268,0.00117479,0.00038393,-0.
 00004412,-0.00002013,0.00029792,-0.00010067,-0.00001265,-0.00021760,-0
 .00001823,0.00000117,-0.00007600,0.00028737,0.00002772,0.00006470,0.00
 003807,-0.00000501,0.00000218,-0.00000489,-0.00010973,-0.00002558,0.00
 006648,-0.00047051,0.00015311,-0.00038824,0.00003413,0.00009875,0.0048
 9054,0.02539209,0.00997072,-0.05811202,0.01783962,0.01818691,0.0044546
 7,-0.02206074,-0.00973310,-0.00326003,-0.00207419,0.00272506,-0.000835
 04,0.00008008,-0.00002984,-0.00274131,-0.00072390,0.00461835,0.0536360
 8,0.00036105,0.00022650,-0.00037684,0.00011248,0.00014194,0.00161686,0
 .00004041,-0.00022871,0.00003633,0.00001084,-0.00000964,-0.00014045,0.
 00005834,-0.00000978,0.00014648,-0.00001077,0.00000472,0.00004691,-0.0
 0015712,-0.00022528,-0.00004233,-0.00000879,0.00000281,-0.00000747,-0.
 00000431,0.00005977,0.00001411,0.00036324,-0.00009309,-0.00007548,0.00
 008058,-0.00000474,-0.00000042,0.00015905,-0.00357761,-0.00325822,0.01
 741688,-0.28590092,-0.10983711,0.00320911,-0.01402786,-0.00808468,-0.0
 0379313,0.00056856,-0.00014481,0.00025548,0.00004609,0.00027264,-0.000
 34439,0.00220793,-0.00225312,-0.01879274,0.30121200,-0.00053463,-0.000
 67965,0.00079094,-0.00296083,0.00108787,-0.00319169,-0.00061701,-0.000
 75863,-0.00039113,0.00000462,-0.00002756,-0.00001294,-0.00013328,0.000
 01831,-0.00033474,0.00002910,0.00001619,0.00000839,0.00043529,0.000252
 00,-0.00005336,0.00006477,0.00001135,-0.00004296,0.00004329,-0.0000521
 0,-0.00005912,0.00055552,0.00069159,-0.00003419,0.00022687,0.00004592,
 -0.00009824,0.00095462,-0.01445476,-0.00165952,0.01720205,-0.10958830,
 -0.08566213,0.00058556,0.00300313,0.00381740,0.00190684,-0.00072368,0.
 00367493,0.00009450,0.00056732,-0.00082076,0.00534600,-0.00238830,0.00
 478473,-0.02135968,0.12111746,0.08124699,-0.00003584,-0.00025151,0.000
 16274,0.00005750,-0.00083842,-0.00061905,0.00012235,0.00125439,-0.0024
 2283,-0.00031627,-0.00034139,0.00043072,-0.00001805,0.00005134,-0.0000
 4142,-0.00011437,0.00016093,-0.00011755,0.00035390,-0.00007275,0.00005
 185,0.00002394,0.00000006,0.00000160,-0.00001510,0.00008713,0.00004170
 ,-0.00028166,-0.00011762,-0.00000449,0.00006015,0.00015040,0.00034959,
 -0.00184625,-0.00346800,0.00351941,-0.00065218,-0.00025008,-0.00025151
 ,-0.00396677,-0.00039432,0.00351963,0.00137734,0.02457135,0.01117793,-
 0.05611336,0.00826403,0.01165755,0.00819467,-0.02131181,-0.01000587,-0
 .00005258,0.00013228,-0.00034839,0.05096762,0.00004116,-0.00007060,0.0
 0004871,0.00064018,-0.00074511,-0.00019336,0.00191284,-0.00009151,0.00
 145913,0.00005204,0.00002562,-0.00037439,0.00000840,0.00002131,0.00001
 213,0.00006289,-0.00006347,0.00007373,-0.00016521,-0.00000520,0.000094
 46,-0.00003647,-0.00003226,0.00002301,-0.00000887,-0.00001549,0.000032
 34,-0.00025419,-0.00006676,0.00006940,-0.00067240,0.00014346,0.0003748
 8,-0.00375606,0.00030704,-0.00194087,-0.00035445,0.00011499,0.00061902
 ,0.00057580,0.00122071,-0.00146679,-0.00052907,-0.00399479,-0.00293851
 ,0.01150958,-0.29631845,-0.11067740,0.00192746,-0.01158874,-0.00841667
 ,0.00016104,-0.00013990,0.00026228,-0.00992071,0.31110435,-0.00015451,
 -0.00018131,0.00008183,-0.00060999,0.00067957,-0.00027658,-0.00231886,
 0.00188317,-0.00296416,-0.00066746,-0.00024943,0.00069439,0.00000935,0
 .00004137,-0.00006232,-0.00012335,0.00019115,-0.00019345,0.00049302,-0
 .00011957,-0.00020945,0.00004640,0.00000519,-0.00001012,0.00000831,0.0
 0009229,0.00003894,0.00013482,0.00005228,-0.00010671,0.00014007,-0.000
 34729,-0.00032761,0.00391595,-0.00150460,0.00672598,-0.00020897,0.0004
 9837,-0.00078315,0.00381286,-0.00131885,0.00234294,0.00072376,-0.01397
 873,-0.00195887,0.01246832,-0.11037472,-0.08969891,0.00079205,0.002518
 40,0.00669105,-0.00034507,0.00026446,-0.00063711,-0.01539742,0.1214127
 4,0.08241150,0.00013339,-0.00197977,0.00216996,-0.00205520,0.00044046,
 -0.00195296,0.00050642,-0.00035179,-0.00005356,0.00017210,-0.00015650,
 -0.00069982,-0.00049540,0.00028146,-0.00049137,-0.00004443,-0.00002773
 ,0.00005494,-0.00035583,-0.00051380,-0.00049308,0.00011370,0.00013931,
 -0.00003886,-0.00022871,0.00013373,0.00018042,-0.00040914,0.00001935,0
 .00047736,-0.00008475,0.00009782,0.00015932,0.00029887,0.00691818,0.00
 407235,-0.00391664,0.00103918,0.00267595,-0.01085555,0.02389433,0.0097
 6971,-0.09075032,-0.03134040,0.02644517,0.02215012,-0.00373773,-0.0079
 3942,-0.00706729,-0.01773160,-0.00325500,0.00016994,-0.00018974,-0.000
 07017,0.00001371,0.00027696,-0.00001219,0.71680548,-0.00029808,0.00145
 602,-0.00174395,0.00159186,-0.00056618,0.00159016,-0.00004728,-0.00040
 670,0.00053889,-0.00021512,0.00018556,-0.00010773,0.00039653,-0.000203
 28,0.00039129,0.00015614,-0.00001499,0.00007538,0.00031796,0.00023522,
 0.00038538,-0.00011001,-0.00012567,0.00003654,0.00023819,-0.00004649,-
 0.00016378,0.00031823,0.00011353,-0.00040736,0.00013504,0.00003438,-0.
 00024640,0.00329727,-0.01126448,-0.00759602,-0.00702835,-0.00279072,0.
 00164956,0.02569896,-0.02561326,-0.01724844,0.01012420,0.04262168,0.01
 118652,-0.02252329,-0.00375181,0.00576595,0.00573756,0.02051591,0.0045
 5299,0.00018698,0.00065118,0.00041381,-0.00007381,-0.00014143,0.000174
 51,0.12301623,0.60896159,-0.00010991,0.00122014,-0.00149405,0.00145247
 ,-0.00047022,0.00147654,-0.00054347,0.00046297,-0.00075588,-0.00037349
 ,0.00012575,0.00039583,0.00033395,-0.00016149,0.00036711,0.00000799,0.
 00001124,-0.00005771,0.00050715,0.00023157,0.00028706,-0.00007253,-0.0
 0006691,0.00002109,0.00017955,-0.00003329,-0.00010700,0.00025032,0.000
 05417,-0.00033250,0.00013649,-0.00003551,-0.00018863,0.00235162,-0.008
 03114,-0.00518517,-0.00392540,-0.00271610,0.00023452,0.01512216,-0.016
 46192,-0.02220284,0.04253391,0.02996855,-0.00508609,-0.01470866,-0.003
 33074,0.01399670,0.00511745,0.01561745,0.00322243,0.00002767,0.0003197
 9,0.00015630,-0.00016987,0.00003276,-0.00021411,-0.17586887,0.11391895
 ,0.25954833,0.00055863,-0.00003633,0.00055586,-0.00126088,0.00019309,-
 0.00047492,-0.00091366,0.00007229,-0.00041338,0.00059247,-0.00039957,0
 .00110561,-0.00002597,-0.00002607,-0.00015149,-0.00012498,0.00013315,-
 0.00012679,-0.00011448,-0.00002831,-0.00018736,-0.00001363,-0.00007349
 ,0.00004311,-0.00007236,-0.00008266,-0.00002270,0.00016622,-0.00021249
 ,0.00022990,0.00005414,-0.00011782,0.00023604,-0.00568363,0.00758753,0
 .00650765,0.01285012,0.00733215,-0.00085991,-0.07131875,-0.00776986,0.
 02417184,-0.00420932,-0.01132953,-0.00605380,0.00125611,-0.00144379,-0
 .00118960,0.00024265,-0.00677805,-0.00264707,-0.00031858,-0.00080983,-
 0.00038087,0.00020839,0.00004003,-0.00023087,-0.11422009,0.01763510,0.
 03660955,0.66273752,-0.00012063,-0.00156607,0.00183568,-0.00150020,0.0
 0074343,-0.00197554,0.00039838,-0.00033951,0.00015245,0.00015884,-0.00
 000387,-0.00063089,-0.00052126,0.00022131,-0.00049170,-0.00004736,-0.0
 0003534,0.00002097,-0.00068508,-0.00048842,-0.00064259,0.00017395,0.00
 012285,-0.00006575,-0.00026530,0.00010324,0.00027972,-0.00058778,-0.00
 020631,0.00051527,-0.00011155,0.00005464,0.00014942,-0.00568398,0.0128
 6631,0.00974627,0.01139887,0.00328385,-0.00496592,-0.03982114,0.044310
 14,0.03156023,-0.04214426,-0.05199091,0.00260430,0.02332431,0.00215266
 ,-0.00935313,-0.00730664,-0.02420888,-0.00580529,-0.00027957,-0.000668
 46,-0.00015927,0.00024020,0.00033011,0.00014393,-0.03331469,-0.2437224
 0,-0.04104336,0.06819662,0.58909012,0.00055418,-0.00031140,0.00064581,
 -0.00136990,-0.00034213,-0.00094658,0.00000364,0.00013317,0.00004532,0
 .00049014,-0.00037420,0.00046956,0.00007660,-0.00001944,-0.00016092,0.
 00003285,0.00011643,0.00004145,0.00042313,-0.00017790,-0.00009952,-0.0
 0017965,-0.00013208,0.00014790,0.00006130,-0.00001329,-0.00017948,0.00
 036600,0.00006108,0.00015858,0.00013706,0.00001262,0.00011488,0.000145
 90,0.00255460,0.00149121,0.00651758,-0.00280298,0.00129143,0.00513024,
 0.01711458,0.01003360,-0.00678340,-0.00184952,-0.00739224,0.00196887,-
 0.00011045,-0.00210244,-0.00021924,-0.00129831,-0.00037205,-0.00028528
 ,-0.00004936,-0.00032108,0.00005260,0.00013414,0.00003463,0.02683708,-
 0.08724350,-0.10402019,-0.25620559,0.18918251,0.27290563,0.00000165,0.
 00001024,0.00000365,0.00001033,-0.00003041,0.00001049,-0.00003138,-0.0
 0009051,-0.00003477,0.00000040,-0.00000328,0.00003186,0.00000462,0.000
 00115,0.00000185,-0.00000341,0.00000280,-0.00000803,-0.00003332,0.0000
 2482,-0.00001018,0.00001042,0.00000333,-0.00000449,-0.00000043,-0.0000
 1493,0.00000354,-0.00000118,0.00000297,-0.00000593,0.00000619,-0.00000
 664,-0.00000467,0.00003551,0.00012439,0.00008900,0.00008976,-0.0000062
 2,-0.00051054,-0.00062160,0.00022737,0.00031137,-0.00033577,0.00030252
 ,0.00485681,-0.00030276,-0.00088521,-0.00013031,-0.00028695,0.00024001
 ,0.00003715,-0.00005322,-0.00006375,-0.00000901,0.00006044,-0.00000801
 ,0.00004777,-0.20852858,-0.14625979,0.01228970,0.00731351,0.00552919,0
 .00075354,0.22947320,-0.00001149,0.00005587,-0.00007292,0.00002969,-0.
 00001260,0.00008553,-0.00002631,0.00002558,0.00002777,-0.00003802,0.00
 001494,0.00000761,0.00001939,-0.00000672,0.00001016,0.00000546,0.00000
 180,-0.00000276,-0.00001480,-0.00000092,0.00001736,-0.00000467,-0.0000
 0064,0.00000360,0.00001119,-0.00000153,-0.00000538,0.00000905,0.000003
 48,-0.00001255,0.00000147,-0.00000307,-0.00001180,-0.00002957,0.000078
 43,-0.00000973,0.00030922,0.00007129,0.00024388,0.00090582,-0.00052797
 ,-0.00058943,0.00261576,0.00277672,-0.00446519,-0.00010795,0.00040798,
 0.00008101,0.00022435,0.00015322,0.00017278,0.00003158,0.00001978,-0.0
 0001524,-0.00001793,0.00000581,-0.00007803,-0.14653894,-0.19036762,0.0
 0465873,-0.02147320,-0.01268625,0.00189369,0.15310939,0.19186144,0.000
 00673,-0.00003192,0.00006700,-0.00001560,0.00002113,-0.00004878,0.0000
 3184,0.00003457,-0.00000088,0.00003725,-0.00002290,-0.00001432,-0.0000
 1543,0.00000427,-0.00002220,0.00000079,0.00000410,0.00000170,0.0000310
 9,-0.00000651,-0.00002665,0.00000421,0.00000255,-0.00000438,-0.0000043
 7,0.00000953,0.00000442,-0.00000082,-0.00001062,0.00001179,0.00000040,
 -0.00000329,0.00001184,-0.00010451,0.00015519,0.00021150,-0.00029071,0
 .00051704,-0.00080643,0.00021921,0.00017357,0.00006580,0.00530020,-0.0
 0408081,0.00880573,0.00021700,0.00031526,0.00019244,-0.00003663,-0.000
 13244,-0.00052052,0.00002250,0.00004198,0.00003349,0.00006129,-0.00005
 964,0.00010842,0.01276992,0.00281886,-0.04314491,-0.00910815,-0.007378
 14,0.00358689,-0.02379064,-0.00126835,0.03596825,-0.00008341,-0.000034
 10,-0.00003363,0.00000758,0.00007004,0.00003941,0.00012121,-0.00002723
 ,0.00017079,-0.00003514,0.00004718,-0.00018088,0.00000823,0.00000321,0
 .00000049,0.00003721,-0.00001736,0.00002554,-0.00002048,-0.00002324,-0
 .00000605,0.00000484,0.00000998,-0.00000455,0.00001735,0.00001563,0.00
 000903,-0.00000527,0.00002678,-0.00002022,0.00000640,0.00001075,-0.000
 03229,0.00011276,-0.00083415,-0.00053918,-0.00113660,0.00045845,0.0009
 6507,0.00285458,-0.00576334,-0.00015533,-0.00022199,-0.00001168,0.0004
 4603,0.00020060,0.00035118,-0.00057729,-0.00011232,0.00020356,0.000118
 06,0.00001137,0.00000298,0.00003781,0.00001927,0.00003004,0.00007655,0
 .00241746,0.00053336,-0.00014552,-0.23964010,0.05918550,0.12994533,-0.
 00013563,0.00060548,-0.00083949,0.25657227,0.00010856,-0.00002996,0.00
 008107,-0.00012603,0.00004560,0.00004500,-0.00008445,0.00005040,-0.000
 04995,0.00005668,-0.00006002,0.00006784,-0.00000973,0.00000592,-0.0000
 1001,-0.00001883,0.00000776,-0.00000697,-0.00003204,-0.00001217,-0.000
 00478,-0.00000026,0.00000137,-0.00000302,-0.00002011,0.00000042,0.0000
 0746,0.00001908,-0.00000462,0.00001833,-0.00000420,-0.00000926,0.00001
 717,-0.00016527,0.00011187,0.00022457,-0.00054286,0.00089682,0.0000649
 1,-0.00315408,-0.00149819,-0.00229238,-0.00181593,-0.00098089,-0.00002
 924,0.00041967,-0.00001622,0.00021574,-0.00005523,-0.00024637,-0.00011
 925,-0.00000792,-0.00000488,-0.00003225,-0.00008324,-0.00001298,0.0000
 2461,0.02280085,0.00391850,-0.01289005,0.06298576,-0.08116601,-0.05613
 539,-0.00008287,0.00001705,0.00097715,-0.06215629,0.07622352,-0.000070
 86,-0.00003908,0.00003274,-0.00002884,0.00010888,-0.00013122,0.0001783
 1,-0.00006640,0.00009159,-0.00004336,0.00002314,-0.00013379,-0.0000243
 8,0.00000866,-0.00001358,0.00000625,-0.00000654,0.00001444,-0.00003102
 ,-0.00000083,-0.00002181,0.00001411,0.00000977,-0.00000918,-0.00000962
 ,0.00000580,0.00001531,-0.00001879,0.00001162,-0.00000539,-0.00001271,
 0.00002082,-0.00000486,-0.00008763,-0.00011132,-0.00020090,-0.00031797
 ,-0.00002578,0.00091763,0.00202925,-0.00264387,0.00457283,-0.00216746,
 -0.00189044,0.00055390,0.00068335,0.00055134,-0.00121109,-0.00041366,-
 0.00046458,0.00016053,0.00004330,-0.00002991,0.00007823,0.00002835,-0.
 00002782,0.00006742,0.00277931,0.00339231,0.00163845,0.14405226,-0.053
 52431,-0.12384890,-0.00064446,0.00036974,-0.00134695,-0.13995119,0.053
 12009,0.12514091,-0.06944580,-0.01450935,0.02284479,-0.00128079,0.0242
 1237,-0.00423864,0.00317447,-0.01239683,-0.01870851,-0.06783308,0.0048
 7827,0.04238252,0.00868178,-0.02789879,0.00428334,0.00427767,0.0167652
 8,0.02593173,-0.00002066,0.00003366,0.00059711,0.00033468,-0.00009472,
 -0.00009499,0.00037403,0.00017579,-0.00034419,-0.00229569,0.00115169,-
 0.00434796,-0.00239712,0.00205018,-0.00374807,0.00124158,0.00109700,-0
 .00061508,0.00088564,0.00043778,-0.00098705,-0.00053765,0.00002135,0.0
 0030712,-0.00096931,-0.00044157,0.00017743,0.00118430,0.00054864,-0.00
 111011,0.00000591,-0.00055437,-0.00085485,0.00014766,-0.00001242,0.000
 16679,0.00005958,-0.00004609,0.00007964,-0.00061317,0.00081646,0.00060
 226,-0.00083758,-0.00046120,-0.00075851,-0.00001982,0.00004487,-0.0000
 3371,0.00005720,-0.00011111,0.00006072,0.34331170,0.02453644,-0.219041
 75,0.02485693,0.01666621,-0.02377625,0.01311397,-0.00826775,0.00602553
 ,-0.00474237,-0.01842920,-0.13251534,-0.05569746,-0.00076430,-0.022945
 09,0.00708490,0.00176310,0.00300826,-0.00019981,-0.00092207,-0.0012890
 3,-0.00241301,-0.00020987,0.00098062,0.00009753,-0.00032345,-0.0002140
 8,-0.00008779,0.00180732,0.00040773,0.00248092,0.00096901,0.00072570,0
 .00066450,-0.00502517,-0.00471707,0.00351240,0.00175985,0.00129505,-0.
 00105195,-0.00124615,-0.00124347,-0.00051067,0.00148787,0.00098814,0.0
 0014377,-0.00056345,0.00009580,0.00069113,0.00249091,0.00052266,-0.004
 15791,-0.00010282,-0.00008504,0.00023039,0.00018507,0.00017595,-0.0000
 4235,0.00083080,-0.00058083,-0.00048893,0.00000460,0.00035107,0.000283
 60,-0.00001904,-0.00002566,0.00002268,0.00001262,0.00004180,0.00000079
 ,0.08852110,0.53443041,0.01871516,0.01770073,-0.09938782,-0.00395773,0
 .02710865,-0.00082949,-0.00936498,-0.01913034,-0.03524916,0.00765852,-
 0.05141372,-0.18461691,-0.00067891,0.01722548,-0.00211512,0.00393604,-
 0.01230682,-0.02410056,0.00238774,-0.00165137,0.00268383,0.00031595,0.
 00014707,0.00079688,0.00076119,-0.00008951,-0.00027026,-0.00320883,0.0
 0105565,-0.00318829,-0.00387852,0.00253234,-0.00356488,0.00190557,-0.0
 0088152,0.00025836,-0.00125751,-0.00017634,0.00078959,0.00007683,0.001
 43293,0.00051387,0.00111576,-0.00137068,-0.00106079,-0.00212933,-0.000
 64479,0.00156810,0.00469884,0.00092210,-0.00306435,-0.00015697,0.00013
 867,-0.00000780,-0.00002564,-0.00000280,-0.00013668,-0.00004933,0.0002
 3474,0.00019209,-0.00092382,0.00035999,-0.00104233,-0.00000698,0.00003
 257,-0.00003150,0.00010549,-0.00009200,0.00008643,-0.22725212,-0.02235
 942,0.51981788,-0.00121291,0.00606181,-0.00709635,0.00030440,0.0016244
 2,-0.00065657,0.00034715,-0.00042492,-0.00149866,-0.00498703,-0.000413
 04,-0.00605652,0.00071991,-0.00188937,0.00007337,0.00050866,0.00169991
 ,0.00243076,-0.00013692,-0.00000427,0.00003874,-0.00003196,-0.00002414
 ,0.00003008,-0.00002462,0.00000493,0.00003883,-0.00043485,0.00006888,-
 0.00005585,-0.00037628,-0.00007756,-0.00010064,-0.00051782,0.00068737,
 -0.00073833,-0.00002456,0.00015072,0.00018404,0.00000841,-0.00033231,-
 0.00012422,0.00004711,0.00031594,0.00014749,-0.00010633,-0.00018186,-0
 .00002548,-0.00029596,-0.00001326,-0.00106713,-0.00001114,-0.00001324,
 -0.00002790,0.00001179,0.00000829,0.00001395,0.00011918,-0.00017812,-0
 .00015214,0.00008642,0.00004441,0.00014087,-0.00000462,-0.00001310,-0.
 00000278,-0.00003100,0.00003538,-0.00000779,-0.21766855,-0.10786831,0.
 20779707,0.22288796,-0.02871621,-0.01573170,0.02263351,-0.00075200,-0.
 00081387,-0.00020493,-0.00000821,-0.00047042,-0.00003524,0.01779352,0.
 00703674,-0.01487634,0.00149679,-0.00616163,0.00110268,0.00054460,-0.0
 0165598,-0.00507257,0.00004235,-0.00019584,-0.00000738,0.00001487,0.00
 000647,-0.00001318,0.00005600,-0.00009922,-0.00006435,0.00034213,0.000
 04391,0.00002607,-0.00011035,0.00003985,-0.00012465,0.00005342,-0.0000
 2884,0.00080400,0.00027483,0.00005954,-0.00039002,0.00006324,0.0001298
 2,-0.00002865,-0.00017997,-0.00010939,0.00007423,0.00011713,0.00006471
 ,0.00003788,0.00007263,0.00047047,-0.00009059,0.00005310,-0.00007482,0
 .00010243,-0.00003162,-0.00001822,-0.00008384,-0.00012236,0.00011392,0
 .00011201,-0.00014167,-0.00005778,-0.00009004,-0.00000263,0.00000788,-
 0.00000914,0.00001788,-0.00002500,-0.00000053,-0.09221618,-0.09991606,
 0.07260068,0.10064253,0.11595449,0.00114293,0.00227458,-0.00232440,0.0
 0082629,0.00043851,-0.00040930,0.00126837,-0.00045593,-0.00071444,0.02
 270185,0.00856896,-0.02133193,-0.00111815,-0.00172122,0.00193442,-0.00
 133397,-0.00280650,-0.00236468,-0.00007363,-0.00008697,-0.00006057,-0.
 00005613,-0.00001940,0.00001011,-0.00005920,-0.00007915,0.00008347,-0.
 00028874,-0.00005205,0.00005959,-0.00042535,-0.00002764,0.00000878,-0.
 00054261,0.00067258,-0.00010350,-0.00017597,0.00004323,0.00011788,0.00
 014449,-0.00030265,-0.00028377,0.00004265,0.00040769,0.00018033,-0.000
 47329,-0.00042422,0.00026628,-0.00028994,0.00019655,-0.00050434,0.0000
 2302,-0.00005372,-0.00001082,-0.00001052,0.00002444,-0.00004703,0.0001
 9634,-0.00021780,-0.00022481,0.00045037,0.00011084,0.00033272,0.000015
 04,-0.00002488,0.00003166,-0.00004971,0.00005952,-0.00000946,0.1731196
 7,0.06979103,-0.17966545,-0.19329471,-0.07568345,0.20254877,0.00048425
 ,0.00078255,0.00024443,0.00014032,-0.00053644,-0.00007851,0.00114727,0
 .02176841,-0.00576738,-0.05627107,-0.04194087,0.01147301,0.00001857,0.
 00039307,0.00007351,-0.00305751,-0.02752302,0.00669336,-0.00300990,0.0
 0047850,-0.00284590,0.00043089,0.00125987,-0.00023529,0.00038471,0.000
 11799,-0.00008186,-0.00002212,0.00002323,0.00008015,0.00093773,-0.0006
 7859,0.00077959,0.00022657,0.00027556,0.00014542,0.00023119,0.00010531
 ,-0.00009528,-0.00018064,-0.00019631,-0.00008633,-0.00034241,0.0000543
 9,0.00025443,0.00043083,-0.00035091,0.00016268,0.00218494,0.00035438,-
 0.00048474,-0.00000307,-0.00000525,-0.00000528,-0.00012251,-0.00005031
 ,-0.00017065,-0.00004612,0.00005703,0.00004504,-0.00010707,-0.00003123
 ,-0.00012185,0.00000508,-0.00000536,-0.00000348,0.00000339,-0.00000162
 ,0.00000356,-0.00017302,0.00313273,0.00042859,0.00066433,0.00041470,-0
 .00039212,0.05534762,0.00024898,0.00102890,-0.00430248,0.00006726,0.00
 057546,0.00012684,-0.00071765,-0.00672457,0.00242044,-0.03908924,-0.29
 180452,0.06176076,-0.00005606,0.00005865,0.00006082,-0.00110745,-0.001
 45826,0.00115136,0.00110144,0.00086208,0.00145104,-0.00001863,-0.00046
 656,-0.00004928,0.00002047,0.00013422,-0.00009514,0.00002469,0.0000183
 8,-0.00001087,0.00022440,0.00045966,0.00032557,-0.00040598,-0.00050904
 ,-0.00012909,-0.00001169,0.00007265,0.00003514,0.00008422,-0.00013336,
 -0.00005255,0.00023381,0.00019292,-0.00002700,0.00025053,-0.00000143,-
 0.00019329,-0.00058542,0.00055728,0.00017865,-0.00002862,-0.00000039,0
 .00001583,0.00018968,0.00002449,0.00007179,0.00011441,-0.00012653,-0.0
 0009322,0.00013298,0.00012918,0.00007347,0.00000143,-0.00000607,0.0000
 0329,-0.00001008,0.00000335,-0.00000298,-0.00295842,-0.02050801,0.0019
 3601,0.00049839,0.00040953,0.00007407,0.04202735,0.31833175,0.00031479
 ,-0.00137823,-0.00539885,0.00013990,-0.00017681,-0.00043030,0.00361591
 ,0.02080284,-0.00507152,0.01267852,0.07066023,-0.06542345,-0.00012600,
 -0.00008630,0.00004401,0.00089226,0.01095171,-0.00264134,-0.00367190,0
 .00094987,-0.00342247,-0.00022314,0.00159322,-0.00003223,-0.00020005,-
 0.00047424,0.00011755,0.00003573,0.00005613,0.00021328,0.00052753,-0.0
 0031127,0.00033431,-0.00009668,0.00021947,0.00031723,0.00017573,0.0000
 1111,-0.00005335,-0.00018390,-0.00004610,0.00004269,-0.00011202,-0.000
 13605,-0.00003174,-0.00014334,0.00003115,0.00017840,0.00122769,-0.0006
 5306,-0.00026562,-0.00001265,0.00000728,0.00000809,-0.00012669,-0.0000
 2759,-0.00003351,-0.00004204,0.00008148,0.00005387,-0.00004498,-0.0000
 9324,0.00002005,-0.00000066,-0.00000198,-0.00000251,0.00000579,-0.0000
 0286,0.00000017,-0.00518011,-0.03524931,0.00439897,0.00016157,-0.00010
 357,0.00162961,-0.01004688,-0.06504393,0.07544017,-0.06857045,0.029662
 89,0.06375057,0.00342798,-0.00957522,-0.01985086,0.00007357,0.00031218
 ,0.00038249,0.00063965,0.00006242,-0.00115116,-0.00632142,0.01201508,0
 .02401344,0.00006483,-0.00032566,-0.00021221,-0.00300423,0.00135733,-0
 .00236714,0.00057900,-0.00058467,-0.00104522,0.00038458,0.00007121,-0.
 00011148,0.00094335,-0.00007089,0.00109754,-0.00001755,-0.00010945,0.0
 0004087,0.00232006,0.00033051,-0.00078001,0.00038293,0.00014348,0.0004
 3941,-0.00030674,-0.00026772,0.00011311,-0.00008806,0.00024987,0.00006
 298,0.00017655,0.00004963,-0.00013907,0.00010989,-0.00021364,-0.000006
 43,-0.00010480,0.00013148,-0.00010481,-0.00000321,0.00000257,-0.000006
 86,0.00004367,0.00001105,0.,-0.00009308,-0.00002635,-0.00008894,0.0000
 0285,-0.00000391,-0.00000872,0.00000513,0.00000715,0.00000892,-0.00112
 282,0.00069732,0.00237148,0.00071577,-0.00000643,-0.00053003,0.0003532
 2,0.00011815,0.00022204,0.06929002,0.02665094,-0.09135447,-0.09037463,
 -0.00313700,0.00396246,0.00692578,-0.00001509,-0.00004451,0.00037462,0
 .00007352,-0.00544720,0.00421715,-0.00174437,0.00549613,0.00963916,0.0
 0011714,-0.00001902,-0.00012157,0.00157879,0.00009647,0.00185250,0.000
 11583,0.00049863,0.00055320,0.00023115,-0.00014043,-0.00023405,-0.0004
 5420,0.00034458,-0.00014858,-0.00007082,0.00014627,-0.00005560,-0.0000
 9196,-0.00027363,-0.00019385,-0.00011459,0.00004423,0.00015464,-0.0000
 4027,-0.00003719,0.00002191,0.00015189,0.00000061,-0.00008114,-0.00018
 784,-0.00002689,0.00008031,0.00044027,0.00018950,-0.00017759,-0.000054
 59,0.00002731,-0.00004043,0.00002854,0.00002362,-0.00000082,0.00004667
 ,-0.00001600,-0.00001204,-0.00012678,0.00002047,-0.00010249,-0.0000006
 1,-0.00000117,-0.00000430,0.00000592,0.00000342,0.00000846,0.01103957,
 -0.02204877,-0.03259763,-0.00045566,0.00103827,-0.00074904,0.00006695,
 -0.00109446,-0.00162649,-0.03402609,0.10864587,0.06411406,-0.09903069,
 -0.25133163,0.00492445,-0.00819857,-0.01827840,0.00006229,0.00066789,0
 .00028510,-0.00010644,0.00122190,0.00099918,0.00208703,-0.00250044,-0.
 00647095,-0.00008791,0.00004962,0.00006818,-0.00360872,0.00211662,-0.0
 0261943,0.00012971,-0.00098257,-0.00108866,-0.00019058,0.00012752,0.00
 039493,0.00016900,0.00044922,0.00045557,-0.00000797,-0.00011609,0.0000
 7700,0.00159874,0.00088576,0.00020354,-0.00027341,-0.00016308,0.000259
 87,-0.00029038,0.00001457,0.00017689,-0.00027117,-0.00009535,0.0000436
 3,0.00026491,0.00015800,-0.00003366,0.00021060,-0.00067831,-0.00018531
 ,-0.00025830,0.00008712,-0.00008412,0.00000630,0.00000684,-0.00001542,
 -0.00019624,0.00024769,0.00016092,-0.00013631,-0.00030523,-0.00001685,
 -0.00000248,0.00000090,-0.00000537,0.00000505,-0.00000038,-0.00000227,
 -0.00219929,0.00373847,0.00655941,-0.00026449,-0.00064699,0.00091915,0
 .00001664,0.00020804,0.00014101,-0.06613540,0.10256973,0.26959032,-0.0
 0013884,-0.00024883,-0.00019479,0.00041332,0.00043420,0.00141051,0.001
 23426,0.00002658,0.00077882,-0.00068046,0.00044694,-0.00105053,0.00013
 091,0.00002342,0.00013148,0.00017017,-0.00009830,0.00024560,-0.0001229
 0,-0.00017764,0.00030490,-0.00014699,0.00003320,0.00014460,0.00018092,
 0.00013374,0.00005460,0.00025961,0.00035918,-0.00044188,0.00009888,0.0
 0016503,-0.00034915,0.01364931,-0.02560407,-0.01648978,-0.06800697,-0.
 00196655,0.02937754,-0.22442304,0.01039047,0.07813970,0.02049534,0.056
 70205,0.01692239,-0.01183565,-0.00268593,0.00600662,0.00302472,0.02176
 414,0.00637720,0.00247340,0.00265170,-0.00112570,0.00021254,-0.0006919
 4,-0.00014765,0.02895110,-0.05175302,-0.03838134,-0.26644611,-0.103858
 24,0.05859782,0.00127426,0.00122150,0.00274757,-0.02355957,-0.01969839
 ,-0.00915177,0.00021559,0.00048926,0.00038816,-0.00020375,0.00008660,-
 0.00037003,0.00013599,-0.00016596,0.00011911,0.00013216,0.00007761,0.0
 0020848,0.66660383,-0.00029941,0.00009745,-0.00028527,0.00033130,0.000
 87801,0.00086144,-0.00010520,0.00031978,0.00003189,-0.00026386,-0.0000
 6526,0.00016720,0.00002035,0.00002943,0.00005315,-0.00000142,-0.000036
 85,-0.00004899,-0.00030355,-0.00002004,0.00016329,0.00001280,0.0000255
 3,-0.00001998,-0.00000097,0.00008473,0.00007695,0.00001496,0.00005869,
 -0.00014168,-0.00017263,-0.00001674,-0.00000421,-0.00443796,-0.0039671
 0,-0.00196623,-0.02118013,0.01624612,0.01461351,0.04274453,-0.14815787
 ,-0.05543586,0.04018599,0.00158471,-0.02102120,-0.00534517,-0.00658508
 ,-0.00238634,0.00072362,0.00229699,0.00098397,0.00021757,0.00118009,0.
 00145994,0.00127911,-0.00024140,-0.00087148,-0.02827771,-0.04623777,-0
 .01939025,-0.13745015,-0.23011692,-0.00798412,0.00170227,-0.00478687,-
 0.00402485,0.00648020,0.00947210,-0.00129947,0.00017748,-0.00001780,0.
 00012428,-0.00001288,0.00005045,-0.00009163,0.00000631,-0.00000648,-0.
 00002351,0.00003472,0.00005363,0.00008008,0.09936479,0.75668532,-0.000
 35170,0.00005448,-0.00010819,0.00048321,0.00022861,-0.00013126,-0.0009
 0426,0.00024160,-0.00038389,0.00007718,-0.00010169,0.00038092,-0.00009
 565,0.00001394,-0.00000656,-0.00008735,-0.00002661,-0.00013365,-0.0002
 8964,0.00019023,-0.00005694,0.00011603,0.00000136,-0.00011650,-0.00012
 185,0.00000057,0.00010220,-0.00016955,-0.00010034,0.00005086,-0.000206
 90,-0.00015677,0.00007933,-0.00609660,0.00678654,0.01162217,0.02195882
 ,0.00697776,-0.00226186,0.08687186,-0.04605821,-0.11301985,0.01152166,
 -0.02496977,-0.01029354,0.00438450,-0.00361643,0.00177603,-0.00094994,
 -0.00793833,-0.00360330,-0.00208333,0.00067935,-0.00174082,0.00058373,
 -0.00006174,0.00020239,-0.01939074,-0.00125975,0.01634607,0.01808630,-
 0.04755152,-0.07836878,0.00231251,-0.00385423,0.00319821,0.01444697,0.
 01411428,0.00380738,0.00008835,-0.00019585,0.00023291,0.00002864,0.000
 03454,-0.00001079,-0.00001044,0.00005184,-0.00009149,-0.00001125,0.000
 05904,-0.00003571,-0.15694848,0.24326689,0.29062138,-0.00034771,0.0031
 1644,-0.00355770,0.00354940,-0.00080080,0.00321528,-0.00144109,-0.0009
 1809,-0.00054855,-0.00017494,0.00023851,0.00177370,0.00078328,-0.00043
 611,0.00080808,-0.00004863,0.00006309,-0.00024966,-0.00034025,0.000844
 37,0.00100094,-0.00019859,-0.00029577,0.00009481,0.00030827,-0.0004046
 2,-0.00021981,0.00054540,-0.00003669,-0.00081916,0.00015446,-0.0001505
 4,-0.00033556,-0.00026277,-0.01205319,-0.00727276,0.00307673,-0.001013
 16,-0.00119591,0.02979816,-0.06099547,-0.02713996,-0.18087261,-0.09742
 875,0.01478202,-0.07791689,-0.03196229,0.02050412,0.00913793,0.0349466
 2,0.01104916,0.00013060,0.00069372,0.00030790,0.00211982,-0.00075489,-
 0.00257028,-0.32201739,0.03227951,0.11484525,0.00240736,0.10509542,0.0
 2706876,-0.02836991,0.01051890,0.01306235,0.00200757,0.00130917,0.0043
 4243,0.00095115,-0.00149807,-0.00011914,-0.00026506,0.00014882,-0.0003
 1445,0.00018435,-0.00017213,0.00009994,-0.00001993,-0.00009867,0.00029
 425,-0.05504695,-0.01652412,0.01245337,0.60931846,0.00011793,0.0007869
 6,-0.00103594,0.00095901,-0.00013345,0.00108194,-0.00040066,0.00040648
 ,-0.00033933,0.00014843,0.00006057,0.00059233,0.00027678,-0.00012802,0
 .00026407,-0.00000399,0.00001599,-0.00004767,0.00027229,0.00029006,0.0
 0029888,-0.00015727,-0.00011689,0.00005722,0.00013360,-0.00001716,-0.0
 0008635,0.00036023,0.00004125,-0.00028960,0.00005818,-0.00007500,-0.00
 004038,0.00114447,-0.00401345,-0.00277864,0.00346793,-0.00620874,-0.00
 600935,-0.02869761,-0.04007148,-0.00840051,-0.10093936,-0.20374511,-0.
 00887818,-0.01543597,0.00917901,0.01011741,0.00558515,0.01124563,-0.00
 054272,-0.00155393,-0.00094431,0.00006590,0.00057002,-0.00005691,0.001
 25256,0.07919999,-0.14582131,-0.06394149,0.03334979,0.01070046,-0.0326
 7986,-0.01347000,0.01309261,0.01226438,-0.00056574,-0.00704468,-0.0008
 4006,0.00009892,-0.00025717,-0.00023966,-0.00007090,-0.00001651,-0.000
 03846,0.00000657,-0.00001207,0.00004342,-0.00002897,-0.00005058,0.0001
 2799,-0.00882539,0.00214849,0.01029306,0.04078778,0.36623963,0.0002318
 8,-0.00105643,0.00111441,-0.00137022,0.00027502,-0.00109129,0.00044460
 ,0.00059563,0.00060397,0.00024104,0.00001739,-0.00052771,-0.00025442,0
 .00011921,-0.00024699,0.00003554,-0.00003202,0.00010443,0.00006612,-0.
 00031618,-0.00026829,0.00007913,0.00010578,-0.00002356,-0.00012394,0.0
 0012401,0.00008978,-0.00018594,0.00004001,0.00027970,-0.00007216,0.000
 05626,0.00011094,0.00091034,0.00365994,0.00074371,0.00053799,-0.003559
 49,0.00169041,-0.01441722,0.00498863,0.02610563,0.01100189,-0.01377534
 ,-0.07343499,0.02746238,0.01805866,-0.00601914,0.00128311,-0.01285430,
 0.00050752,-0.00051444,-0.00078253,0.00020146,-0.00231186,0.00165654,-
 0.00179178,0.13193800,-0.04598214,-0.12420100,0.01624462,-0.04863532,0
 .00338325,0.00418137,0.00279942,-0.00686555,0.00118873,-0.00359878,0.0
 0168599,-0.00034952,0.00049763,-0.00005893,0.00012743,-0.00003232,0.00
 006554,-0.00004865,0.00007732,-0.00001877,0.00002116,0.00001867,-0.000
 08125,0.01741656,0.01295539,-0.00943608,-0.19209281,0.08252583,0.19164
 457,-0.00066210,0.00005715,-0.00073162,0.00028978,-0.00027903,0.000368
 75,0.00040161,-0.00026080,0.00073332,-0.00063898,0.00051152,-0.0010045
 4,0.00017768,0.00000088,0.00008694,0.00025770,-0.00006294,0.00012707,0
 .00016393,0.00002801,-0.00002221,0.00002205,0.00003837,0.00003357,0.00
 021727,0.00006121,-0.00001457,-0.00007529,0.00011869,-0.00011487,0.000
 02059,0.00007438,-0.00018229,-0.00027320,-0.00147580,-0.00055448,-0.00
 120071,-0.00156495,0.00066524,0.00196051,-0.00037050,-0.00354461,-0.00
 134412,-0.00030617,0.00065627,0.00060989,0.00091951,0.00034531,-0.0011
 4738,0.00003367,0.00035596,-0.00014794,-0.00001131,-0.00016364,-0.0000
 0239,0.00016084,-0.00006354,-0.00113119,0.00899155,0.00001569,0.004670
 54,-0.00790601,0.00959174,0.00044690,-0.00148257,0.00076337,0.00196689
 ,-0.00068978,0.00287355,0.00124800,-0.00027029,0.00112393,-0.00042449,
 0.00025591,-0.00063728,-0.00002448,-0.00004416,0.00001507,-0.00003023,
 0.00003769,0.00004571,-0.01295880,-0.00243395,-0.00802187,0.00137232,0
 .00216527,0.00055755,0.53491358,0.00052791,0.00006252,0.00062850,-0.00
 042846,0.00020244,-0.00040878,-0.00048228,0.00026092,-0.00065139,0.000
 56484,-0.00036220,0.00091848,-0.00010687,-0.00002570,-0.00006403,-0.00
 018786,0.00009147,-0.00009573,-0.00008260,0.00003478,-0.00001488,-0.00
 001748,-0.00002582,0.00007994,-0.00010803,-0.00008100,-0.00000459,0.00
 000474,-0.00022941,0.00014387,0.00003906,-0.00006661,0.00016959,0.0000
 5017,0.00075425,0.00016642,-0.00046732,-0.00022902,0.00054132,-0.00133
 608,0.00169726,0.00131119,0.00101870,-0.00077996,-0.00033089,-0.001035
 47,-0.00098909,0.00001450,0.00075112,0.00010743,-0.00007399,-0.0003499
 8,-0.00023819,-0.00038621,0.00014709,0.00003285,-0.00010548,0.00578810
 ,-0.00267932,0.00334741,-0.00120629,0.00075096,-0.00189429,-0.00072677
 ,-0.00087784,0.00064334,0.00001436,0.00108230,-0.00069946,-0.00091947,
 0.00006471,-0.00097524,0.00030843,-0.00017197,0.00049787,0.00000858,-0
 .00000640,0.00003200,0.00000929,-0.00006893,-0.00006632,-0.00309873,-0
 .00033451,-0.00304612,-0.00024668,-0.00396117,-0.00233372,0.05344316,0
 .52679857,-0.00079895,-0.00005799,-0.00083196,0.00061840,-0.00033763,0
 .00061638,0.00057332,-0.00038123,0.00115545,-0.00086769,0.00076184,-0.
 00129931,0.00012786,0.00004661,0.00014277,0.00025998,-0.00017162,0.000
 11056,0.00030573,0.00001367,0.00022627,0.00006485,0.00018350,-0.000190
 40,0.00014396,0.00009471,-0.00001081,-0.00013979,0.00027043,-0.0001694
 4,0.00006620,-0.00000087,-0.00034068,0.00082966,-0.00206816,-0.0009129
 4,-0.00223171,-0.00130626,-0.00035462,0.00774511,-0.00376826,-0.004519
 48,0.00215566,0.00319423,0.00101636,0.00059553,0.00215320,0.00017343,-
 0.00046270,-0.00027329,0.00013444,-0.00009300,0.00003204,0.00032977,0.
 00013828,-0.00023336,0.00022347,-0.00299154,0.00687985,0.00099178,0.01
 927296,-0.00687500,0.01036775,0.00005717,-0.00042852,0.00098701,-0.002
 46893,0.00355445,-0.00753099,0.00137497,-0.00029882,0.00133207,-0.0004
 8950,0.00035284,-0.00084727,0.00002619,-0.00004504,-0.00003749,0.00000
 057,0.00010065,-0.00002873,-0.01856407,-0.00726993,0.00038908,0.000561
 54,0.00136023,0.00040377,-0.08242551,0.08547964,0.38749406,0.00035183,
 -0.00018135,0.00053678,-0.00025811,0.00026119,-0.00036840,-0.00022747,
 0.00015665,-0.00049689,0.00033935,-0.00024779,0.00052587,-0.00014154,0
 .00001320,-0.00008707,-0.00015893,0.00004307,-0.00006771,-0.00020427,-
 0.00001444,0.00003218,0.00007636,-0.00000437,-0.00003198,-0.00012098,-
 0.00003174,0.00005066,-0.00001819,-0.00010210,0.00008484,-0.00004178,-
 0.00001137,0.00013277,0.00031433,0.00078111,0.00039546,0.00016960,0.00
 049328,0.00027034,0.00018087,0.00146741,0.00061256,-0.00197770,-0.0023
 1830,-0.00006501,0.00100972,-0.00045653,-0.00035506,-0.00004929,-0.000
 80356,-0.00022635,0.00006685,0.00003658,-0.00000823,-0.00005965,-0.000
 04607,-0.00001378,-0.00355482,0.00027837,0.00001317,0.00525097,-0.0038
 4868,0.00824320,-0.00026535,0.00094774,-0.00038986,-0.00087170,0.00030
 830,-0.00205175,-0.00064173,0.00020515,-0.00051642,0.00022936,-0.00016
 411,0.00035267,0.00002681,0.00003070,-0.00001588,0.00002153,-0.0000128
 7,-0.00004205,-0.00559917,-0.00315610,-0.00475064,0.00325057,0.0017721
 3,-0.00048892,-0.27131787,-0.12556418,-0.05717221,0.32485370,0.0000334
 7,-0.00006224,0.00004833,-0.00002448,0.00002060,-0.00003246,0.00001976
 ,0.00002170,-0.00006642,0.00000270,-0.00001776,0.00005313,-0.00001753,
 0.00000433,-0.00001553,-0.00002591,-0.00000264,-0.00000984,-0.00007010
 ,-0.00001956,0.00003495,0.00001891,-0.00000695,-0.00001493,-0.00001834
 ,-0.00000403,0.00001076,0.00001493,0.00001048,-0.00000046,-0.00002257,
 0.00000292,0.00001943,-0.00004936,0.00039732,0.00025663,0.00052703,0.0
 0041316,-0.00012743,-0.00014827,0.00000169,0.00020099,-0.00084116,-0.0
 0043952,-0.00008649,0.00067432,-0.00005191,-0.00031161,-0.00023038,-0.
 00049952,-0.00008813,0.00007538,0.00003357,0.00007437,-0.00003301,-0.0
 0003817,0.00002322,-0.00115918,-0.00150621,0.00004346,0.00065081,0.000
 10927,0.00111592,0.00026830,0.00065201,-0.00032011,-0.00009367,-0.0002
 2779,-0.00029068,-0.00005193,0.00003354,-0.00001735,0.00000277,-0.0000
 2441,0.00002822,0.00000602,0.00001325,-0.00001531,0.00000148,0.0000076
 2,-0.00000673,-0.00085250,-0.00042810,-0.00090088,0.00086535,0.0013241
 7,0.00051661,-0.10985431,-0.13473124,-0.03188855,0.17638116,0.18392310
 ,0.00020446,-0.00009382,0.00034491,-0.00015160,0.00019686,-0.00028690,
 -0.00019145,0.00011811,-0.00036037,0.00024239,-0.00017763,0.00035481,-
 0.00008824,0.00000380,-0.00005917,-0.00010122,0.00003423,-0.00004436,-
 0.00014314,0.00000975,-0.00001576,0.00000782,-0.00002057,0.00001881,-0
 .00007258,-0.00002403,0.00002769,-0.00002471,-0.00010299,0.00006117,-0
 .00002471,0.00000185,0.00009576,0.00005519,0.00045286,0.00028688,0.000
 19668,0.00014367,0.00030683,-0.00054632,0.00141012,0.00059390,-0.00171
 926,-0.00202184,0.00011711,0.00051969,-0.00033877,-0.00008332,-0.00004
 657,-0.00039774,-0.00007898,0.00002231,0.00001706,-0.00007899,-0.00003
 217,0.00001699,-0.00005711,-0.00230466,0.00222026,0.00033196,0.0021731
 8,-0.00471849,0.00608449,-0.00018481,0.00026358,-0.00027598,-0.0000178
 2,0.00006644,-0.00049668,-0.00043493,0.00014090,-0.00034108,0.00016879
 ,-0.00011538,0.00023993,0.00001584,0.00001515,0.00000221,0.00001031,-0
 .00001974,-0.00002260,-0.00327016,-0.00126291,-0.00434043,0.00225675,0
 .00096117,-0.00077072,-0.07396622,-0.04733917,-0.08664265,0.04217179,0
 .04852878,0.06142754,0.00004508,-0.00000833,-0.00002681,-0.00005910,-0
 .00001913,0.00005158,-0.00006811,-0.00001621,0.00003530,0.00001971,0.0
 0002067,0.00004978,0.00000129,-0.00000218,0.00001519,-0.00000275,-0.00
 001274,-0.00000149,0.00027653,0.00000435,0.00005486,-0.00032286,0.0000
 2107,0.00001902,0.00002618,-0.00001459,0.00001703,-0.00000043,0.000015
 98,-0.00002945,0.00000784,0.00001233,-0.00003539,0.00049665,-0.0005189
 1,-0.00047509,-0.00023339,0.00004694,-0.00029424,0.00158412,-0.0011855
 6,-0.00075438,0.00198480,0.00240304,-0.00005005,-0.00049844,0.00007588
 ,-0.00003574,0.00046379,0.00084854,0.00015707,0.00002332,0.00002887,0.
 00013005,0.00002215,-0.00009448,0.00003818,0.00069096,-0.00098350,-0.0
 0025305,-0.00329594,0.00140861,-0.00112238,-0.00017131,0.00021446,-0.0
 0012041,-0.00007776,-0.00005334,-0.00007282,-0.00003893,0.00000515,-0.
 00006299,0.00002644,0.00001999,-0.00003348,0.00000036,0.00000803,-0.00
 000530,0.00000149,-0.00000503,-0.00001012,0.00077920,0.00171824,0.0017
 3590,-0.00252461,-0.00168136,-0.00053025,-0.17424312,0.00951740,0.1230
 5365,-0.06152910,-0.02222805,0.03961349,0.24929221,-0.00003772,-0.0000
 4018,-0.00006506,-0.00004711,-0.00008647,0.00005484,0.00007004,-0.0000
 2304,0.00010301,-0.00003998,0.00003936,-0.00010966,0.00002381,0.000000
 54,0.00000442,0.00003239,-0.00000842,0.00001844,0.00007321,-0.00003858
 ,0.00001884,-0.00001393,-0.00000961,0.00000238,0.00002798,0.00001137,-
 0.00000061,0.00000677,0.00003672,-0.00001654,0.00000913,0.00001319,-0.
 00001539,0.00008841,-0.00022226,-0.00019480,-0.00000867,0.00008439,-0.
 00006019,0.00016795,-0.00066184,-0.00019429,-0.00001683,0.00049583,0.0
 0021395,-0.00014166,0.00013313,0.00009977,0.00006039,0.00021740,0.0000
 1309,0.00006375,0.00002221,0.00006762,0.00001415,-0.00000044,-0.000008
 89,0.00089858,-0.00098786,0.00026904,-0.00329943,0.00044205,-0.0016822
 3,0.00003222,0.00004150,-0.00008408,0.00036869,-0.00030069,0.00077314,
 0.00010843,0.00001354,0.00009627,-0.00005017,0.00002122,-0.00006938,-0
 .00001552,0.00000943,-0.00000443,-0.00000627,0.00000442,0.00000991,0.0
 0150776,0.00124124,0.00060981,-0.00085898,0.00008367,0.00091725,0.0035
 0814,-0.06802960,-0.00694298,-0.01951205,0.00777220,0.01554527,-0.0202
 2894,0.07557027,0.00010767,-0.00004431,0.00032801,-0.00004769,0.000342
 15,-0.00042242,-0.00021875,0.00009939,-0.00055146,0.00019693,-0.000196
 18,0.00035493,-0.00011797,0.00001011,-0.00006853,-0.00012834,0.0000440
 1,-0.00005998,-0.00031523,0.00006875,-0.00010612,0.00006023,-0.0000436
 8,0.00002977,-0.00009617,-0.00003392,0.00005367,-0.00008091,-0.0001427
 3,0.00007173,-0.00006906,-0.00000266,0.00013179,-0.00108178,0.00156846
 ,0.00134679,0.00107555,0.00064334,0.00026924,-0.00366454,0.00406845,0.
 00203050,-0.00536270,-0.00502293,-0.00123682,0.00205078,-0.00046132,-0
 .00078031,-0.00090717,-0.00227444,-0.00032180,0.00001929,-0.00005944,-
 0.00014679,-0.00013019,0.00013345,-0.00006247,-0.00437099,0.00363209,0
 .00063512,0.01315637,-0.00397439,0.00343500,0.00015970,-0.00003723,-0.
 00017893,-0.00118742,0.00112971,-0.00210400,-0.00043329,0.00007757,-0.
 00025500,0.00016088,-0.00014742,0.00029871,0.00002565,-0.00000263,0.00
 000400,0.00002005,-0.00000786,-0.00000241,-0.00124240,-0.00392654,-0.0
 0266366,0.00617416,0.00280467,-0.00048802,0.15024760,-0.01751851,-0.23
 412432,0.01839066,0.00992278,0.01504064,-0.19210877,0.03838899,0.23011
 638,0.00012546,-0.00005763,0.00027353,-0.00009345,0.00015658,-0.000194
 34,-0.00012306,0.00006856,-0.00023566,0.00019268,-0.00013124,0.0002468
 8,-0.00008163,0.00000399,-0.00004391,-0.00006694,0.00002140,-0.0000303
 2,-0.00011460,-0.00000520,-0.00000617,0.00002231,0.00000198,-0.0000093
 4,-0.00006811,-0.00000625,0.00001985,-0.00004559,-0.00005659,0.0000478
 3,-0.00001776,-0.00001018,0.00005847,-0.00002473,0.00045140,0.00033893
 ,0.00037330,0.00050288,0.00014389,-0.00130222,0.00114106,0.00140719,-0
 .00102241,-0.00139779,-0.00029727,0.00061048,-0.00025236,-0.00029788,0
 .00004048,-0.00069833,-0.00025984,0.00003018,-0.00001698,-0.00000260,0
 .00006060,-0.00003973,0.00000252,-0.00180977,0.00080833,-0.00019647,0.
 00191547,0.00155041,0.00300149,-0.00002266,0.00010678,-0.00005570,-0.0
 0031633,0.00045503,-0.00093036,-0.00034329,0.00006691,-0.00026714,0.00
 011875,-0.00007642,0.00018320,0.00001091,0.00000890,-0.00000301,0.0000
 2026,-0.00000793,-0.00001571,0.00099916,-0.00112267,-0.00131641,0.0017
 5241,0.00108942,-0.00040403,-0.08381460,0.06664697,0.01225635,0.010931
 34,-0.04422475,-0.00449406,-0.01243069,0.03693290,0.01941757,0.0847144
 9,-0.00022836,0.00004595,-0.00053441,0.00018155,-0.00034686,0.00042859
 ,0.00028214,-0.00016249,0.00055135,-0.00032815,0.00021676,-0.00059350,
 0.00016504,-0.00000015,0.00009057,0.00015611,-0.00005212,0.00007730,0.
 00031043,-0.00000107,0.00001211,-0.00003840,0.00001255,-0.00001746,0.0
 0013320,0.00004252,-0.00005580,0.00009219,0.00016528,-0.00010541,0.000
 03755,0.00003302,-0.00013011,0.00070182,-0.00153852,-0.00124400,-0.001
 29791,-0.00108428,-0.00028795,0.00417107,-0.00286461,-0.00325609,0.003
 18539,0.00438504,0.00052648,-0.00208591,0.00066247,0.00091718,0.000340
 16,0.00224695,0.00061812,0.00016044,0.00014738,0.00020325,-0.00013026,
 0.00007021,0.00001849,0.00460984,-0.00315565,-0.00016229,-0.00623182,-
 0.00276070,-0.00865513,-0.00018814,0.00027610,-0.00017754,0.00001069,-
 0.00111622,0.00166893,0.00057637,0.00000390,0.00050335,-0.00019736,0.0
 0014230,-0.00035632,-0.00002705,-0.00000850,0.00000849,-0.00001979,0.0
 0001913,0.00006043,0.00138695,0.00521672,0.00493150,-0.00562627,-0.002
 88231,0.00178304,0.05717645,-0.31944146,-0.04224849,-0.02725337,-0.056
 57056,-0.01373512,0.03081392,-0.01558142,-0.02938493,-0.06228849,0.395
 20740,0.00003368,0.00001937,0.00011496,0.00003145,0.00014885,-0.000122
 27,-0.00007056,0.00002329,-0.00016527,0.00010726,-0.00009240,0.0001079
 5,-0.00004527,0.00000283,-0.00002304,-0.00003244,0.00001967,-0.0000124
 2,-0.00008368,0.00001517,-0.00005402,-0.00001654,-0.00001851,0.0000176
 8,-0.00003636,-0.00000483,0.00002106,-0.00003091,-0.00005923,0.0000195
 5,-0.00002245,0.00000713,0.00004061,-0.00015172,0.00020991,0.00024283,
 0.00036080,0.00017873,0.00018323,-0.00149054,0.00129695,0.00100633,-0.
 00109254,-0.00142433,-0.00011469,0.00043676,-0.00028220,-0.00008131,-0
 .00010499,-0.00029252,-0.00008114,0.00004645,0.00003503,-0.00005297,-0
 .00000314,0.00001767,-0.00005727,-0.00200152,0.00184058,-0.00036138,0.
 00015946,0.00038095,0.00308890,0.00001741,0.00011944,-0.00018436,0.000
 04103,-0.00021150,0.00038996,-0.00015552,0.00002606,-0.00009819,0.0000
 8249,-0.00004956,0.00011326,0.00000611,-0.00000008,0.00000722,0.000008
 66,-0.00001151,0.00000394,0.00159346,0.00018323,-0.00204984,0.00148841
 ,0.00100770,-0.00006199,0.00346117,-0.01564443,-0.06780211,-0.00548568
 ,-0.02718255,0.00818855,0.03090843,-0.04792293,-0.01076879,-0.02859601
 ,0.08767277,0.06819026,-0.00004347,0.00016553,-0.00008288,0.00016161,-
 0.00004070,0.00014786,-0.00004011,-0.00007898,-0.00005249,-0.00002955,
 0.00006019,0.00007353,0.00003596,-0.00002864,0.00001935,-0.00000830,0.
 00000375,-0.00001796,0.00000608,0.00005588,0.00004998,-0.00001332,0.00
 000894,-0.00001344,0.00000632,-0.00003483,-0.00002269,-0.00002168,-0.0
 0004976,0.00000214,0.00001505,-0.00003089,-0.00000953,-0.00037094,-0.0
 0056676,-0.00024451,0.00104620,0.00195249,-0.00078806,0.00398820,0.029
 52408,0.01119570,-0.00417218,-0.00066681,0.00371780,0.00019388,0.00131
 352,0.00044539,0.00019935,0.00017314,-0.00011655,-0.00035850,-0.001522
 16,-0.00024235,-0.00033247,0.00002129,0.00024293,-0.00441696,-0.003157
 64,0.00242139,0.00838569,-0.02816261,-0.01301584,0.00043624,-0.0011733
 4,-0.00045175,-0.00016473,0.00040625,-0.00107717,0.00010202,-0.0001170
 0,0.00004218,-0.00001497,0.00002418,-0.00001950,0.00000774,-0.00001997
 ,0.00000381,-0.00000395,-0.00001684,-0.00003805,-0.07225331,0.02606195
 ,0.02664235,-0.00100500,0.00024138,-0.00081837,0.00070644,-0.00249044,
 -0.00145958,-0.00006198,0.00038109,0.00013593,-0.00026654,0.00028843,0
 .00029481,-0.00023354,0.00145321,0.00062841,0.06851957,0.00010423,-0.0
 0011324,0.00023518,-0.00033477,0.00010561,-0.00020356,-0.00003388,-0.0
 0000992,-0.00015670,0.00005761,-0.00004355,0.00012515,-0.00004098,-0.0
 0000379,-0.00003996,-0.00003357,0.00001063,-0.00000494,-0.00002138,-0.
 00003723,-0.00000860,0.00001192,0.00001070,0.00001680,-0.00001488,-0.0
 0001532,-0.00000592,0.00000624,-0.00002722,0.00006085,0.00002376,-0.00
 001240,0.00001671,0.00047303,-0.00102229,-0.00050214,-0.00173043,0.001
 90365,0.00255175,0.00439978,-0.00234302,-0.00345288,-0.00012002,0.0020
 8791,-0.00152526,-0.00041597,-0.00045634,0.00001625,0.00026071,0.00040
 508,0.00024285,0.00030716,-0.00031540,-0.00040125,0.00001509,0.0000616
 0,-0.00007129,-0.00511283,0.00133233,-0.00103569,0.00074577,-0.0157772
 1,-0.00871704,0.00026757,-0.00028260,-0.00039054,0.00106789,0.00088210
 ,0.00189144,-0.00008558,0.00003056,-0.00015008,0.00005753,-0.00002135,
 0.00006729,0.00001535,-0.00000409,0.00000068,0.00000158,0.00000226,-0.
 00003386,0.02247020,-0.35662288,-0.14869083,0.00135407,-0.00007938,0.0
 0116865,-0.00056196,0.00138287,0.00009399,0.00053453,-0.00011011,0.000
 22315,-0.00007689,-0.00026240,0.00035026,0.00039552,-0.00130642,-0.000
 00480,-0.02399067,0.37064871,0.00019437,-0.00009606,0.00023550,-0.0001
 1544,0.00001105,0.00005086,0.00002374,0.00001094,-0.00001445,0.0001198
 0,-0.00002263,0.00011279,-0.00003413,0.00001020,-0.00004264,-0.0000186
 6,0.00000178,-0.00000930,-0.00004103,-0.00008375,-0.00001027,0.0000139
 5,0.00000342,-0.00001538,-0.00002856,0.00001250,0.00001650,-0.00003211
 ,-0.00002137,0.00005638,-0.00001336,0.00000142,0.00002556,0.00017006,0
 .00011740,-0.00055333,-0.00265791,0.00086452,-0.00109361,0.00148253,-0
 .01324182,-0.00440272,0.00423963,-0.00117625,0.00355041,-0.00034279,-0
 .00075617,-0.00030657,-0.00004436,-0.00014165,-0.00017651,0.00046253,0
 .00034356,0.00030352,0.00023563,-0.00007051,0.00001716,0.00170715,0.00
 019698,0.00751221,-0.00388985,0.00114329,0.00121812,0.00016188,0.00009
 154,0.00018840,-0.00144710,0.00170564,-0.00217313,-0.00014184,0.000049
 93,-0.00016400,0.00004071,-0.00001295,0.00008771,0.00000396,0.00001201
 ,-0.00000439,-0.00000111,-0.00002409,-0.00003204,0.02670239,-0.1475947
 0,-0.09999527,0.00023446,0.00109809,-0.00333287,-0.00060729,-0.0023031
 5,-0.00047863,0.00085426,0.00050007,0.00044569,0.00011684,0.00016320,0
 .00019800,0.00025437,0.00084416,0.00036276,-0.02760256,0.15835889,0.09
 842226\\-0.00000021,-0.00000006,-0.00000011,-0.00000011,0.00000009,0.,
 0.00000007,-0.00000006,0.00000012,-0.00000023,0.00000005,-0.00000002,0
 .00000013,0.,-0.00000004,0.00000011,-0.00000002,-0.00000003,-0.0000000
 4,-0.00000007,0.00000006,-0.00000019,0.00000016,0.00000019,0.00000016,
 0.,-0.00000004,0.00000002,-0.00000005,-0.00000008,-0.00000002,0.,0.000
 00004,0.00000012,0.00000011,-0.00000006,0.00000006,0.00000014,0.,-0.00
 000024,-0.00000004,0.00000010,0.00000011,-0.00000006,-0.00000004,-0.00
 000019,-0.00000011,-0.00000001,0.00000029,0.00000006,-0.00000018,0.000
 00002,-0.00000004,-0.00000004,-0.00000002,0.00000005,-0.00000001,-0.00
 000010,-0.00000009,0.,0.,0.00000016,-0.00000011,0.00000001,0.00000007,
 0.,-0.00000001,0.00000002,0.00000001,0.00000014,-0.00000003,0.00000006
 ,-0.00000017,-0.00000001,0.00000005,0.00000002,-0.00000001,0.00000002,
 -0.00000005,0.00000002,0.00000004,0.00000037,-0.00000002,-0.00000005,-
 0.00000003,-0.00000023,-0.00000004,-0.00000003,-0.00000027,0.00000035,
 0.,0.00000003,-0.00000001,0.00000004,0.00000009,-0.00000004,0.00000004
 ,0.00000006,-0.00000014,-0.00000008,0.00000003,0.00000003\\\@


 HO!  SUCH BUGS AND GOBLINS IN MY LIFE!

                            -- HAMLET, ACT 5, SCENE 2
 Job cpu time:       0 days  0 hours  0 minutes  0.8 seconds.
 Elapsed time:       0 days  0 hours  0 minutes 42.5 seconds.
 File lengths (MBytes):  RWF=      6 Int=      0 D2E=      0 Chk=      3 Scr=      1
 Normal termination of Gaussian 16 at Sun Nov 30 19:56:15 2025.
