%nproc=1
#p opt=(calcall,ts,noeigen,nomicro) external='python ../GauUMA_client.py'

t 

1 2 	
C	3.352410 	-1.574204 	-0.270406 
C	2.468709 	-0.675579 	-1.177073 
C	2.195488 	0.916772 	0.552875 
C	3.068949 	0.078830 	1.525554 
H	4.396702 	-1.369914 	-0.527508 
H	4.073881 	0.513079 	1.520557 
C	2.813209 	0.792957 	-0.854928 
H	2.332130 	1.476568 	-1.558407 
H	3.889302 	0.977644 	-0.855857 
H	2.589412 	-0.956674 	-2.223214 
H	2.092484 	1.938411 	0.919628 
C	1.040270 	-0.745997 	-0.695790 
C	0.021491 	-1.576269 	-1.083702 
C	-1.212115 	-1.439695 	-0.411276 
C	-1.415702 	-0.485012 	0.624602 
C	-0.344160 	0.414696 	0.957793 
C	0.877421 	0.216645 	0.342897 
H	0.130884 	-2.317892 	-1.867911 
H	-0.462530 	1.040492 	1.836986 
C	-3.578258 	-1.184130 	0.929301 
C	-3.442636 	-2.137691 	-0.085465 
H	-4.519309 	-1.093537 	1.456573 
H	-4.234294 	-2.807206 	-0.391955 
N	3.159022 	-1.336832 	1.161384 
H	2.316767 	-1.813673 	1.468037 
H	2.678304 	0.143960 	2.542647 
H	3.155982 	-2.629380 	-0.469595 
N	-2.278940 	-2.229459 	-0.710024 
N	-2.588572 	-0.379519 	1.266802 
C	-1.089528 	2.207470 	-0.251525 
F	-0.330796 	3.244895 	0.050520 
F	-0.965476 	1.912464 	-1.534513 
F	-2.352971 	2.463695 	0.034862 
H	-2.170375 	-2.923464 	-1.452077 


