%nproc=1
#p opt=(calcall,ts,noeigen,nomicro) external='python ../GauUMA_client.py'

t 

1 2 
C	-2.442059 	-1.455062 	0.330527 
C	-1.418860 	-0.724901 	-0.212226 
C	-1.304620 	0.667298 	0.076271 
C	-2.260504 	1.255374 	0.942628 
C	-3.296954 	0.499103 	1.513634 
C	-3.440807 	-0.829122 	1.155261 
H	-0.690164 	-1.199332 	-0.854031 
C	-0.276096 	1.492041 	-0.451633 
H	-3.993595 	0.969436 	2.197503 
H	-4.123861 	-1.472160 	1.699429 
C	-1.181868 	3.363521 	0.751582 
C	-0.230042 	2.833548 	-0.107683 
H	-1.194042 	4.399694 	1.061058 
H	0.542984 	3.476449 	-0.503994 
N	-2.141387 	2.585318 	1.239363 
O	-2.651119 	-2.763135 	0.124759 
C	0.795444 	0.909369 	-1.354375 
H	0.331905 	0.199629 	-2.046120 
C	-1.728140 	-3.462465 	-0.708393 
H	-2.074976 	-4.492354 	-0.736076 
H	-1.728109 	-3.043404 	-1.717792 
H	-0.720864 	-3.422397 	-0.285764 
C	1.812047 	0.126426 	-0.497132 
C	2.816786 	1.039973 	0.250182 
H	1.225944 	-0.424760 	0.243550 
C	3.564982 	-0.334448 	-2.125238 
C	3.133451 	-1.844111 	-0.330921 
C	4.189189 	0.350632 	0.200495 
H	2.891198 	2.017023 	-0.233600 
H	2.487693 	1.202218 	1.279820 
H	3.983865 	-1.148101 	-2.721343 
H	3.110529 	0.378651 	-2.810247 
C	4.661714 	0.343068 	-1.260304 
C	4.066480 	-1.109814 	0.678111 
H	3.687387 	-2.582553 	-0.915549 
H	2.340256 	-2.374874 	0.205948 
H	4.905514 	0.893073 	0.820518 
H	5.608404 	-0.199380 	-1.337627 
H	4.839111 	1.366896 	-1.600383 
H	5.066715 	-1.555688 	0.632027 
N	2.502340 	-0.913252 	-1.282267 
C	3.558676 	-1.252492 	2.116908 
H	2.522003 	-0.900382 	2.176060 
H	3.529803 	-2.320424 	2.360241 
C	4.410682 	-0.519513 	3.149636 
H	5.461922 	-0.812115 	3.066120 
H	4.355734 	0.564346 	3.020072 
H	4.080036 	-0.748763 	4.165542 
O	1.455133 	1.926697 	-2.084014 
H	0.907042 	2.170403 	-2.839732 
C	-5.028526 	-0.749572 	-0.453039 
F	-4.491070 	0.004030 	-1.405535 
F	-6.020644 	-0.090804 	0.134624 
H	-5.279724 	-1.760954 	-0.764633 
H	-2.831911 	2.994723 	1.865829 



