%nproc=1
#p opt=(calcall,ts,noeigen,nomicro) external='python ../GauUMA_client.py'

t 

1 2 
C	1.184277 	3.232746 	-0.211616 
C	0.716661 	1.980522 	-0.553118 
C	1.262846 	0.831799 	0.064909 
C	2.295693 	1.003861 	1.018761 
C	2.766034 	2.291660 	1.360379 
C	2.217873 	3.381884 	0.754865 
H	-0.070411 	1.872101 	-1.285779 
C	0.810910 	-0.501255 	-0.211189 
H	3.556434 	2.392860 	2.095593 
H	2.556333 	4.383645 	0.991449 
C	2.486210 	-1.352238 	1.308116 
C	1.415816 	-1.562629 	0.413549 
H	2.869116 	-2.135880 	1.951803 
H	1.100928 	-2.577771 	0.211880 
N	2.826806 	-0.095007 	1.628164 
O	0.732028 	4.382411 	-0.728964 
C	-0.357140 	-0.742239 	-1.149125 
H	-0.260585 	-0.081436 	-2.015704 
C	-0.317657 	4.319053 	-1.692251 
H	-0.535037 	5.349672 	-1.961370 
H	0.003938 	3.765839 	-2.577965 
H	-1.207932 	3.853032 	-1.261737 
C	-1.673219 	-0.377593 	-0.430892 
C	-2.141785 	-1.461234 	0.573693 
H	-1.476582 	0.546204 	0.120460 
C	-3.328889 	-1.230416 	-2.002390 
C	-3.799261 	0.667918 	-0.638881 
C	-3.669900 	-1.568599 	0.454566 
H	-1.696926 	-2.431308 	0.338242 
H	-1.837895 	-1.193563 	1.589002 
H	-4.059456 	-0.890496 	-2.739678 
H	-2.544930 	-1.765490 	-2.534613 
C	-3.997106 	-2.136512 	-0.933682 
C	-4.310712 	-0.171445 	0.569916 
H	-4.608145 	0.881301 	-1.341628 
H	-3.401118 	1.626861 	-0.291060 
H	-4.062114 	-2.230193 	1.229372 
H	-5.081615 	-2.166436 	-1.072364 
H	-3.625631 	-3.161632 	-1.014385 
H	-5.395763 	-0.300278 	0.483880 
N	-2.737972 	-0.026691 	-1.388059 
C	-4.029902 	0.534798 	1.900522 
H	-2.960704 	0.766638 	1.973978 
H	-4.548119 	1.500066 	1.885550 
C	-4.470790 	-0.258536 	3.127621 
H	-4.363163 	0.334950 	4.038720 
H	-5.521099 	-0.554285 	3.043544 
H	-3.878141 	-1.168306 	3.253040 
O	-0.391986 	-2.090197 	-1.577012 
H	0.221068 	-2.198454 	-2.314043 
C	4.158629 	-1.858964 	-0.122992 
F	4.068744 	-3.106856 	-0.519715 
F	5.271094 	-1.652461 	0.548738 
H	3.541501 	0.052550 	2.339540 
F	4.063755 	-1.028627 	-1.137158 



