%nproc=1
#p opt=(calcall,ts,noeigen,nomicro) external='python ../GauUMA_client.py'

t 

1 2 
C	1.694418 	2.935909 	-0.136777 
C	1.071350 	1.764365 	-0.516922 
C	1.487160 	0.531555 	0.038055 
C	2.544601 	0.536691 	0.975909 
C	3.171546 	1.740773 	1.359633 
C	2.751968 	2.916820 	0.810648 
H	0.263014 	1.785700 	-1.234252 
C	0.881180 	-0.729908 	-0.292174 
H	3.980656 	1.714067 	2.081224 
H	3.216075 	3.857465 	1.081931 
C	2.472957 	-1.841061 	1.150106 
C	1.368787 	-1.879969 	0.268314 
H	2.764448 	-2.690112 	1.755717 
H	0.937255 	-2.840834 	0.022047 
N	2.950561 	-0.646561 	1.530121 
O	1.377011 	4.154561 	-0.601656 
C	-0.317747 	-0.788108 	-1.221299 
H	-0.155384 	-0.100062 	-2.056554 
C	0.324915 	4.252263 	-1.557596 
H	0.233939 	5.310147 	-1.791626 
H	0.573287 	3.694108 	-2.463968 
H	-0.615159 	3.885036 	-1.137386 
C	-1.573302 	-0.315344 	-0.462368 
C	-2.131470 	-1.379341 	0.516756 
H	-1.268144 	0.561354 	0.115539 
C	-3.356885 	-0.928531 	-2.006905 
C	-3.573354 	0.964530 	-0.573957 
C	-3.664645 	-1.307167 	0.448160 
H	-1.807890 	-2.382822 	0.228618 
H	-1.766770 	-1.190713 	1.529820 
H	-4.061646 	-0.486387 	-2.714566 
H	-2.651922 	-1.533059 	-2.573971 
C	-4.098335 	-1.784270 	-0.945080 
C	-4.134872 	0.149470 	0.629419 
H	-4.376001 	1.284575 	-1.242653 
H	-3.062131 	1.863876 	-0.214989 
H	-4.107073 	-1.946090 	1.214875 
H	-5.182218 	-1.679834 	-1.048744 
H	-3.855627 	-2.843099 	-1.069293 
H	-5.229904 	0.149095 	0.582039 
N	-2.617652 	0.181534 	-1.376812 
C	-3.727908 	0.772791 	1.969059 
H	-2.637410 	0.880479 	2.008962 
H	-4.132941 	1.790246 	2.004301 
C	-4.212777 	-0.008792 	3.187281 
H	-4.003187 	0.534946 	4.111581 
H	-5.292675 	-0.179042 	3.136845 
H	-3.725231 	-0.984416 	3.259017 
O	-0.513115 	-2.099925 	-1.716778 
H	0.077562 	-2.238006 	-2.466841 
C	4.078181 	-2.447850 	-0.306005 
F	5.173322 	-2.305776 	0.424550 
F	4.019052 	-1.500442 	-1.226267 
H	3.889119 	-3.456922 	-0.664103 
H	3.688448 	-0.614577 	2.230644 




