%nproc=1
#p opt=(calcall,ts,noeigen,nomicro) external='python ../GauUMA_client.py'

t 

1 2 
C	-2.271534 	-1.256146 	0.471829 
C	-1.231308 	-0.593608 	-0.127296 
C	-1.054851 	0.801947 	0.092880 
C	-1.962530 	1.471518 	0.949463 
C	-3.019764 	0.789602 	1.574583 
C	-3.223146 	-0.547513 	1.285216 
H	-0.534197 	-1.127926 	-0.757320 
C	0.000054 	1.557974 	-0.494683 
H	-3.683651 	1.319601 	2.247630 
H	-3.928198 	-1.132405 	1.867095 
C	-0.803107 	3.518675 	0.638471 
C	0.108211 	2.907505 	-0.215949 
H	-0.763315 	4.568011 	0.897806 
H	0.898203 	3.498595 	-0.657013 
N	-1.781146 	2.807978 	1.181420 
O	-2.533486 	-2.561411 	0.342226 
C	1.028130 	0.887066 	-1.385911 
H	0.520278 	0.173233 	-2.041378 
C	-1.677259 	-3.335454 	-0.496744 
H	-2.074203 	-4.347039 	-0.471670 
H	-1.697103 	-2.953467 	-1.520358 
H	-0.654025 	-3.329214 	-0.112636 
C	2.018346 	0.092215 	-0.507292 
C	3.085179 	0.985358 	0.175899 
H	1.420520 	-0.389246 	0.271290 
C	3.711033 	-0.540740 	-2.139898 
C	3.234219 	-1.937427 	-0.266437 
C	4.416496 	0.219071 	0.138767 
H	3.203493 	1.931490 	-0.357816 
H	2.785644 	1.216453 	1.201391 
H	4.072570 	-1.402509 	-2.705033 
H	3.282142 	0.164512 	-2.849306 
C	4.860328 	0.113964 	-1.327247 
C	4.222865 	-1.206957 	0.690654 
H	3.737566 	-2.731311 	-0.823417 
H	2.424080 	-2.398842 	0.307880 
H	5.172924 	0.750613 	0.719315 
H	5.773373 	-0.484719 	-1.392714 
H	5.088616 	1.108318 	-1.720263 
H	5.196224 	-1.709326 	0.652026 
N	2.635711 	-1.020299 	-1.251786 
C	3.733570 	-1.250747 	2.142238 
H	2.718937 	-0.838861 	2.200262 
H	3.650369 	-2.302314 	2.438548 
C	4.643418 	-0.517510 	3.124148 
H	5.674813 	-0.873530 	3.039759 
H	4.647147 	0.560006 	2.941095 
H	4.318399 	-0.677326 	4.155050 
O	1.724509 	1.840241 	-2.165294 
H	1.185830 	2.065456 	-2.933457 
C	-4.852586 	-0.449297 	-0.288734 
F	-4.340832 	0.090175 	-1.380082 
F	-5.789696 	0.336173 	0.209722 
F	-5.347457 	-1.641445 	-0.554697 
H	-2.439280 	3.276256 	1.802119 



