 Entering Gaussian System, Link 0=g16
 Input=TSc-CF2H-C2-H.gjf
 Output=TSc-CF2H-C2-H.log
 Initial command:
 /home/zhouoh/g16/l1.exe "/home/zhouoh/scratch/Gau-3548946.inp" -scrdir="/home/zhouoh/scratch/"
 Entering Link 1 = /home/zhouoh/g16/l1.exe PID=   3548948.
  
 Copyright (c) 1988,1990,1992,1993,1995,1998,2003,2009,2016,
            Gaussian, Inc.  All Rights Reserved.
  
 This is part of the Gaussian(R) 16 program.  It is based on
 the Gaussian(R) 09 system (copyright 2009, Gaussian, Inc.),
 the Gaussian(R) 03 system (copyright 2003, Gaussian, Inc.),
 the Gaussian(R) 98 system (copyright 1998, Gaussian, Inc.),
 the Gaussian(R) 94 system (copyright 1995, Gaussian, Inc.),
 the Gaussian 92(TM) system (copyright 1992, Gaussian, Inc.),
 the Gaussian 90(TM) system (copyright 1990, Gaussian, Inc.),
 the Gaussian 88(TM) system (copyright 1988, Gaussian, Inc.),
 the Gaussian 86(TM) system (copyright 1986, Carnegie Mellon
 University), and the Gaussian 82(TM) system (copyright 1983,
 Carnegie Mellon University). Gaussian is a federally registered
 trademark of Gaussian, Inc.
  
 This software contains proprietary and confidential information,
 including trade secrets, belonging to Gaussian, Inc.
  
 This software is provided under written license and may be
 used, copied, transmitted, or stored only in accord with that
 written license.
  
 The following legend is applicable only to US Government
 contracts under FAR:
  
                    RESTRICTED RIGHTS LEGEND
  
 Use, reproduction and disclosure by the US Government is
 subject to restrictions as set forth in subparagraphs (a)
 and (c) of the Commercial Computer Software - Restricted
 Rights clause in FAR 52.227-19.
  
 Gaussian, Inc.
 340 Quinnipiac St., Bldg. 40, Wallingford CT 06492
  
  
 ---------------------------------------------------------------
 Warning -- This program may not be used in any manner that
 competes with the business of Gaussian, Inc. or will provide
 assistance to any competitor of Gaussian, Inc.  The licensee
 of this program is prohibited from giving any competitor of
 Gaussian, Inc. access to this program.  By using this program,
 the user acknowledges that Gaussian, Inc. is engaged in the
 business of creating and licensing software in the field of
 computational chemistry and represents and warrants to the
 licensee that it is not a competitor of Gaussian, Inc. and that
 it will not use this program in any manner prohibited above.
 ---------------------------------------------------------------
  

 Cite this work as:
 Gaussian 16, Revision A.03,
 M. J. Frisch, G. W. Trucks, H. B. Schlegel, G. E. Scuseria, 
 M. A. Robb, J. R. Cheeseman, G. Scalmani, V. Barone, 
 G. A. Petersson, H. Nakatsuji, X. Li, M. Caricato, A. V. Marenich, 
 J. Bloino, B. G. Janesko, R. Gomperts, B. Mennucci, H. P. Hratchian, 
 J. V. Ortiz, A. F. Izmaylov, J. L. Sonnenberg, D. Williams-Young, 
 F. Ding, F. Lipparini, F. Egidi, J. Goings, B. Peng, A. Petrone, 
 T. Henderson, D. Ranasinghe, V. G. Zakrzewski, J. Gao, N. Rega, 
 G. Zheng, W. Liang, M. Hada, M. Ehara, K. Toyota, R. Fukuda, 
 J. Hasegawa, M. Ishida, T. Nakajima, Y. Honda, O. Kitao, H. Nakai, 
 T. Vreven, K. Throssell, J. A. Montgomery, Jr., J. E. Peralta, 
 F. Ogliaro, M. J. Bearpark, J. J. Heyd, E. N. Brothers, K. N. Kudin, 
 V. N. Staroverov, T. A. Keith, R. Kobayashi, J. Normand, 
 K. Raghavachari, A. P. Rendell, J. C. Burant, S. S. Iyengar, 
 J. Tomasi, M. Cossi, J. M. Millam, M. Klene, C. Adamo, R. Cammi, 
 J. W. Ochterski, R. L. Martin, K. Morokuma, O. Farkas, 
 J. B. Foresman, and D. J. Fox, Gaussian, Inc., Wallingford CT, 2016.
 
 ******************************************
 Gaussian 16:  ES64L-G16RevA.03 25-Dec-2016
                 1-Dec-2025 
 ******************************************
 %nproc=1
 Will use up to    1 processors via shared memory.
 ----------------------------------------------------------------------
 #p opt=(calcall,ts,noeigen,nomicro) external='python ../GauUMA_client.
 py'
 ----------------------------------------------------------------------
 1/5=1,10=4,11=1,18=20,26=1,38=1/1,3;
 2/9=110,12=2,17=6,18=5,40=1/2;
 3/11=9,25=1,30=1,41=9900000,43=2,71=2,140=1/1;
 4/20=17,22=2,24=3,113=1,114=1/2;
 6/7=2,8=2,9=2,10=2,18=1/1;
 7/25=1,44=-1/16;
 1/5=1,10=4,11=1,18=20,26=1/3(3);
 2/9=110/2;
 7/8=1,9=1,25=1,44=-1/16;
 99//99;
 2/9=110/2;
 3/11=9,25=1,30=1,41=9900000,43=2,71=2,140=1/1;
 4/16=2,20=17,22=2,24=3,113=1,114=1/2;
 7/25=1,44=-1/16;
 1/5=1,10=4,11=1,18=20,26=1/3(-4);
 2/9=110/2;
 6/7=2,8=2,9=2,10=2,18=1/1;
 7/8=1,9=1,25=1,44=-1/16;
 99//99;
 Leave Link    1 at Mon Dec  1 22:45:40 2025, MaxMem=           0 cpu:               0.0 elap:               0.0
 (Enter /home/zhouoh/g16/l101.exe)
 -
 t
 -
 Symbolic Z-matrix:
 Charge =  1 Multiplicity = 2
 C                     1.69442   2.93591  -0.13678 
 C                     1.07135   1.76437  -0.51692 
 C                     1.48716   0.53156   0.03806 
 C                     2.5446    0.53669   0.97591 
 C                     3.17155   1.74077   1.35963 
 C                     2.75197   2.91682   0.81065 
 H                     0.26301   1.7857   -1.23425 
 C                     0.88118  -0.72991  -0.29217 
 H                     3.98066   1.71407   2.08122 
 H                     3.21608   3.85747   1.08193 
 C                     2.47296  -1.84106   1.15011 
 C                     1.36879  -1.87997   0.26831 
 H                     2.76445  -2.69011   1.75572 
 H                     0.93726  -2.84083   0.02205 
 N                     2.95056  -0.64656   1.53012 
 O                     1.37701   4.15456  -0.60166 
 C                    -0.31775  -0.78811  -1.2213 
 H                    -0.15538  -0.10006  -2.05655 
 C                     0.32492   4.25226  -1.5576 
 H                     0.23394   5.31015  -1.79163 
 H                     0.57329   3.69411  -2.46397 
 H                    -0.61516   3.88504  -1.13739 
 C                    -1.5733   -0.31534  -0.46237 
 C                    -2.13147  -1.37934   0.51676 
 H                    -1.26814   0.56135   0.11554 
 C                    -3.35689  -0.92853  -2.00691 
 C                    -3.57335   0.96453  -0.57396 
 C                    -3.66465  -1.30717   0.44816 
 H                    -1.80789  -2.38282   0.22862 
 H                    -1.76677  -1.19071   1.52982 
 H                    -4.06165  -0.48639  -2.71457 
 H                    -2.65192  -1.53306  -2.57397 
 C                    -4.09833  -1.78427  -0.94508 
 C                    -4.13487   0.14947   0.62942 
 H                    -4.376     1.28458  -1.24265 
 H                    -3.06213   1.86388  -0.21499 
 H                    -4.10707  -1.94609   1.21488 
 H                    -5.18222  -1.67983  -1.04874 
 H                    -3.85563  -2.8431   -1.06929 
 H                    -5.2299    0.1491    0.58204 
 N                    -2.61765   0.18153  -1.37681 
 C                    -3.72791   0.77279   1.96906 
 H                    -2.63741   0.88048   2.00896 
 H                    -4.13294   1.79025   2.0043 
 C                    -4.21278  -0.00879   3.18728 
 H                    -4.00319   0.53495   4.11158 
 H                    -5.29268  -0.17904   3.13685 
 H                    -3.72523  -0.98442   3.25902 
 O                    -0.51312  -2.09992  -1.71678 
 H                     0.07756  -2.23801  -2.46684 
 C                     4.07818  -2.44785  -0.30601 
 F                     5.17332  -2.30578   0.42455 
 F                     4.01905  -1.50044  -1.22627 
 H                     3.88912  -3.45692  -0.6641 
 H                     3.68845  -0.61458   2.23064 
 
 Add virtual bond connecting atoms C51        and C11        Dist= 4.25D+00.
 ITRead=  0  0  0  0  0  0  0  0  0  0  0  0  0  0  0  0  0  0  0  0
 ITRead=  0  0  0  0  0  0  0  0  0  0  0  0  0  0  0  0  0  0  0  0
 ITRead=  0  0  0  0  0  0  0  0  0  0  0  0  0  0  0
 MicOpt= -1 -1 -1 -1 -1 -1 -1 -1 -1 -1 -1 -1 -1 -1 -1 -1 -1 -1 -1 -1
 MicOpt= -1 -1 -1 -1 -1 -1 -1 -1 -1 -1 -1 -1 -1 -1 -1 -1 -1 -1 -1 -1
 MicOpt= -1 -1 -1 -1 -1 -1 -1 -1 -1 -1 -1 -1 -1 -1 -1
 NAtoms=     55 NQM=       55 NQMF=       0 NMMI=      0 NMMIF=      0
                NMic=       0 NMicF=      0.
                    Isotopes and Nuclear Properties:
 (Nuclear quadrupole moments (NQMom) in fm**2, nuclear magnetic moments (NMagM)
  in nuclear magnetons)

  Atom         1           2           3           4           5           6           7           8           9          10
 IAtWgt=          12          12          12          12          12          12           1          12           1           1
 AtmWgt=  12.0000000  12.0000000  12.0000000  12.0000000  12.0000000  12.0000000   1.0078250  12.0000000   1.0078250   1.0078250
 NucSpn=           0           0           0           0           0           0           1           0           1           1
 AtZEff=  -0.0000000  -0.0000000  -0.0000000  -0.0000000  -0.0000000  -0.0000000  -0.0000000  -0.0000000  -0.0000000  -0.0000000
 NQMom=    0.0000000   0.0000000   0.0000000   0.0000000   0.0000000   0.0000000   0.0000000   0.0000000   0.0000000   0.0000000
 NMagM=    0.0000000   0.0000000   0.0000000   0.0000000   0.0000000   0.0000000   2.7928460   0.0000000   2.7928460   2.7928460
 AtZNuc=   6.0000000   6.0000000   6.0000000   6.0000000   6.0000000   6.0000000   1.0000000   6.0000000   1.0000000   1.0000000

  Atom        11          12          13          14          15          16          17          18          19          20
 IAtWgt=          12          12           1           1          14          16          12           1          12           1
 AtmWgt=  12.0000000  12.0000000   1.0078250   1.0078250  14.0030740  15.9949146  12.0000000   1.0078250  12.0000000   1.0078250
 NucSpn=           0           0           1           1           2           0           0           1           0           1
 AtZEff=  -0.0000000  -0.0000000  -0.0000000  -0.0000000  -0.0000000  -0.0000000  -0.0000000  -0.0000000  -0.0000000  -0.0000000
 NQMom=    0.0000000   0.0000000   0.0000000   0.0000000   2.0440000   0.0000000   0.0000000   0.0000000   0.0000000   0.0000000
 NMagM=    0.0000000   0.0000000   2.7928460   2.7928460   0.4037610   0.0000000   0.0000000   2.7928460   0.0000000   2.7928460
 AtZNuc=   6.0000000   6.0000000   1.0000000   1.0000000   7.0000000   8.0000000   6.0000000   1.0000000   6.0000000   1.0000000

  Atom        21          22          23          24          25          26          27          28          29          30
 IAtWgt=           1           1          12          12           1          12          12          12           1           1
 AtmWgt=   1.0078250   1.0078250  12.0000000  12.0000000   1.0078250  12.0000000  12.0000000  12.0000000   1.0078250   1.0078250
 NucSpn=           1           1           0           0           1           0           0           0           1           1
 AtZEff=  -0.0000000  -0.0000000  -0.0000000  -0.0000000  -0.0000000  -0.0000000  -0.0000000  -0.0000000  -0.0000000  -0.0000000
 NQMom=    0.0000000   0.0000000   0.0000000   0.0000000   0.0000000   0.0000000   0.0000000   0.0000000   0.0000000   0.0000000
 NMagM=    2.7928460   2.7928460   0.0000000   0.0000000   2.7928460   0.0000000   0.0000000   0.0000000   2.7928460   2.7928460
 AtZNuc=   1.0000000   1.0000000   6.0000000   6.0000000   1.0000000   6.0000000   6.0000000   6.0000000   1.0000000   1.0000000

  Atom        31          32          33          34          35          36          37          38          39          40
 IAtWgt=           1           1          12          12           1           1           1           1           1           1
 AtmWgt=   1.0078250   1.0078250  12.0000000  12.0000000   1.0078250   1.0078250   1.0078250   1.0078250   1.0078250   1.0078250
 NucSpn=           1           1           0           0           1           1           1           1           1           1
 AtZEff=  -0.0000000  -0.0000000  -0.0000000  -0.0000000  -0.0000000  -0.0000000  -0.0000000  -0.0000000  -0.0000000  -0.0000000
 NQMom=    0.0000000   0.0000000   0.0000000   0.0000000   0.0000000   0.0000000   0.0000000   0.0000000   0.0000000   0.0000000
 NMagM=    2.7928460   2.7928460   0.0000000   0.0000000   2.7928460   2.7928460   2.7928460   2.7928460   2.7928460   2.7928460
 AtZNuc=   1.0000000   1.0000000   6.0000000   6.0000000   1.0000000   1.0000000   1.0000000   1.0000000   1.0000000   1.0000000

  Atom        41          42          43          44          45          46          47          48          49          50
 IAtWgt=          14          12           1           1          12           1           1           1          16           1
 AtmWgt=  14.0030740  12.0000000   1.0078250   1.0078250  12.0000000   1.0078250   1.0078250   1.0078250  15.9949146   1.0078250
 NucSpn=           2           0           1           1           0           1           1           1           0           1
 AtZEff=  -0.0000000  -0.0000000  -0.0000000  -0.0000000  -0.0000000  -0.0000000  -0.0000000  -0.0000000  -0.0000000  -0.0000000
 NQMom=    2.0440000   0.0000000   0.0000000   0.0000000   0.0000000   0.0000000   0.0000000   0.0000000   0.0000000   0.0000000
 NMagM=    0.4037610   0.0000000   2.7928460   2.7928460   0.0000000   2.7928460   2.7928460   2.7928460   0.0000000   2.7928460
 AtZNuc=   7.0000000   6.0000000   1.0000000   1.0000000   6.0000000   1.0000000   1.0000000   1.0000000   8.0000000   1.0000000

  Atom        51          52          53          54          55
 IAtWgt=          12          19          19           1           1
 AtmWgt=  12.0000000  18.9984032  18.9984032   1.0078250   1.0078250
 NucSpn=           0           1           1           1           1
 AtZEff=  -0.0000000  -0.0000000  -0.0000000  -0.0000000  -0.0000000
 NQMom=    0.0000000   0.0000000   0.0000000   0.0000000   0.0000000
 NMagM=    0.0000000   2.6288670   2.6288670   2.7928460   2.7928460
 AtZNuc=   6.0000000   9.0000000   9.0000000   1.0000000   1.0000000
 Leave Link  101 at Mon Dec  1 22:45:40 2025, MaxMem=   104857600 cpu:               0.1 elap:               0.1
 (Enter /home/zhouoh/g16/l103.exe)

 GradGradGradGradGradGradGradGradGradGradGradGradGradGradGradGradGradGrad
 Berny optimization.
 Initialization pass.
                           ----------------------------
                           !    Initial Parameters    !
                           ! (Angstroms and Degrees)  !
 --------------------------                            --------------------------
 ! Name  Definition              Value          Derivative Info.                !
 --------------------------------------------------------------------------------
 ! R1    R(1,2)                  1.3803         calculate D2E/DX2 analytically  !
 ! R2    R(1,6)                  1.42           calculate D2E/DX2 analytically  !
 ! R3    R(1,16)                 1.3424         calculate D2E/DX2 analytically  !
 ! R4    R(2,3)                  1.4145         calculate D2E/DX2 analytically  !
 ! R5    R(2,7)                  1.0809         calculate D2E/DX2 analytically  !
 ! R6    R(3,4)                  1.4134         calculate D2E/DX2 analytically  !
 ! R7    R(3,8)                  1.4379         calculate D2E/DX2 analytically  !
 ! R8    R(4,5)                  1.4107         calculate D2E/DX2 analytically  !
 ! R9    R(4,15)                 1.3682         calculate D2E/DX2 analytically  !
 ! R10   R(5,6)                  1.364          calculate D2E/DX2 analytically  !
 ! R11   R(5,9)                  1.0845         calculate D2E/DX2 analytically  !
 ! R12   R(6,10)                 1.0834         calculate D2E/DX2 analytically  !
 ! R13   R(8,12)                 1.3691         calculate D2E/DX2 analytically  !
 ! R14   R(8,17)                 1.5179         calculate D2E/DX2 analytically  !
 ! R15   R(11,12)                1.4136         calculate D2E/DX2 analytically  !
 ! R16   R(11,13)                1.0829         calculate D2E/DX2 analytically  !
 ! R17   R(11,15)                1.3414         calculate D2E/DX2 analytically  !
 ! R18   R(11,51)                2.2506         calculate D2E/DX2 analytically  !
 ! R19   R(12,14)                1.0817         calculate D2E/DX2 analytically  !
 ! R20   R(15,55)                1.018          calculate D2E/DX2 analytically  !
 ! R21   R(16,19)                1.4249         calculate D2E/DX2 analytically  !
 ! R22   R(17,18)                1.0943         calculate D2E/DX2 analytically  !
 ! R23   R(17,23)                1.5414         calculate D2E/DX2 analytically  !
 ! R24   R(17,49)                1.4158         calculate D2E/DX2 analytically  !
 ! R25   R(19,20)                1.0873         calculate D2E/DX2 analytically  !
 ! R26   R(19,21)                1.093          calculate D2E/DX2 analytically  !
 ! R27   R(19,22)                1.0932         calculate D2E/DX2 analytically  !
 ! R28   R(23,24)                1.5499         calculate D2E/DX2 analytically  !
 ! R29   R(23,25)                1.0935         calculate D2E/DX2 analytically  !
 ! R30   R(23,41)                1.4744         calculate D2E/DX2 analytically  !
 ! R31   R(24,28)                1.5364         calculate D2E/DX2 analytically  !
 ! R32   R(24,29)                1.093          calculate D2E/DX2 analytically  !
 ! R33   R(24,30)                1.0931         calculate D2E/DX2 analytically  !
 ! R34   R(26,31)                1.0922         calculate D2E/DX2 analytically  !
 ! R35   R(26,32)                1.0881         calculate D2E/DX2 analytically  !
 ! R36   R(26,33)                1.5523         calculate D2E/DX2 analytically  !
 ! R37   R(26,41)                1.475          calculate D2E/DX2 analytically  !
 ! R38   R(27,34)                1.5581         calculate D2E/DX2 analytically  !
 ! R39   R(27,35)                1.0926         calculate D2E/DX2 analytically  !
 ! R40   R(27,36)                1.095          calculate D2E/DX2 analytically  !
 ! R41   R(27,41)                1.4734         calculate D2E/DX2 analytically  !
 ! R42   R(28,33)                1.5352         calculate D2E/DX2 analytically  !
 ! R43   R(28,34)                1.5413         calculate D2E/DX2 analytically  !
 ! R44   R(28,37)                1.0917         calculate D2E/DX2 analytically  !
 ! R45   R(33,38)                1.0938         calculate D2E/DX2 analytically  !
 ! R46   R(33,39)                1.0934         calculate D2E/DX2 analytically  !
 ! R47   R(34,40)                1.0961         calculate D2E/DX2 analytically  !
 ! R48   R(34,42)                1.5326         calculate D2E/DX2 analytically  !
 ! R49   R(42,43)                1.0965         calculate D2E/DX2 analytically  !
 ! R50   R(42,44)                1.0957         calculate D2E/DX2 analytically  !
 ! R51   R(42,45)                1.5264         calculate D2E/DX2 analytically  !
 ! R52   R(45,46)                1.0927         calculate D2E/DX2 analytically  !
 ! R53   R(45,47)                1.0944         calculate D2E/DX2 analytically  !
 ! R54   R(45,48)                1.093          calculate D2E/DX2 analytically  !
 ! R55   R(49,50)                0.9647         calculate D2E/DX2 analytically  !
 ! R56   R(51,52)                1.3241         calculate D2E/DX2 analytically  !
 ! R57   R(51,53)                1.3221         calculate D2E/DX2 analytically  !
 ! R58   R(51,54)                1.0873         calculate D2E/DX2 analytically  !
 ! A1    A(2,1,6)              120.5656         calculate D2E/DX2 analytically  !
 ! A2    A(2,1,16)             124.6401         calculate D2E/DX2 analytically  !
 ! A3    A(6,1,16)             114.7943         calculate D2E/DX2 analytically  !
 ! A4    A(1,2,3)              119.9337         calculate D2E/DX2 analytically  !
 ! A5    A(1,2,7)              120.2367         calculate D2E/DX2 analytically  !
 ! A6    A(3,2,7)              119.8289         calculate D2E/DX2 analytically  !
 ! A7    A(2,3,4)              118.4965         calculate D2E/DX2 analytically  !
 ! A8    A(2,3,8)              123.4102         calculate D2E/DX2 analytically  !
 ! A9    A(4,3,8)              118.0906         calculate D2E/DX2 analytically  !
 ! A10   A(3,4,5)              121.0691         calculate D2E/DX2 analytically  !
 ! A11   A(3,4,15)             119.1832         calculate D2E/DX2 analytically  !
 ! A12   A(5,4,15)             119.7421         calculate D2E/DX2 analytically  !
 ! A13   A(4,5,6)              119.3227         calculate D2E/DX2 analytically  !
 ! A14   A(4,5,9)              119.4423         calculate D2E/DX2 analytically  !
 ! A15   A(6,5,9)              121.2344         calculate D2E/DX2 analytically  !
 ! A16   A(1,6,5)              120.6117         calculate D2E/DX2 analytically  !
 ! A17   A(1,6,10)             118.3219         calculate D2E/DX2 analytically  !
 ! A18   A(5,6,10)             121.0662         calculate D2E/DX2 analytically  !
 ! A19   A(3,8,12)             119.5255         calculate D2E/DX2 analytically  !
 ! A20   A(3,8,17)             120.4697         calculate D2E/DX2 analytically  !
 ! A21   A(12,8,17)            119.9781         calculate D2E/DX2 analytically  !
 ! A22   A(12,11,13)           122.5165         calculate D2E/DX2 analytically  !
 ! A23   A(12,11,15)           118.6424         calculate D2E/DX2 analytically  !
 ! A24   A(12,11,51)            98.4016         calculate D2E/DX2 analytically  !
 ! A25   A(13,11,15)           116.3547         calculate D2E/DX2 analytically  !
 ! A26   A(13,11,51)            87.6186         calculate D2E/DX2 analytically  !
 ! A27   A(15,11,51)            99.7545         calculate D2E/DX2 analytically  !
 ! A28   A(8,12,11)            120.6923         calculate D2E/DX2 analytically  !
 ! A29   A(8,12,14)            120.7213         calculate D2E/DX2 analytically  !
 ! A30   A(11,12,14)           118.5593         calculate D2E/DX2 analytically  !
 ! A31   A(4,15,11)            123.347          calculate D2E/DX2 analytically  !
 ! A32   A(4,15,55)            117.817          calculate D2E/DX2 analytically  !
 ! A33   A(11,15,55)           118.7524         calculate D2E/DX2 analytically  !
 ! A34   A(1,16,19)            117.9809         calculate D2E/DX2 analytically  !
 ! A35   A(8,17,18)            109.0211         calculate D2E/DX2 analytically  !
 ! A36   A(8,17,23)            109.2832         calculate D2E/DX2 analytically  !
 ! A37   A(8,17,49)            111.0221         calculate D2E/DX2 analytically  !
 ! A38   A(18,17,23)           107.6879         calculate D2E/DX2 analytically  !
 ! A39   A(18,17,49)           109.6295         calculate D2E/DX2 analytically  !
 ! A40   A(23,17,49)           110.1263         calculate D2E/DX2 analytically  !
 ! A41   A(16,19,20)           105.8371         calculate D2E/DX2 analytically  !
 ! A42   A(16,19,21)           110.7029         calculate D2E/DX2 analytically  !
 ! A43   A(16,19,22)           110.7336         calculate D2E/DX2 analytically  !
 ! A44   A(20,19,21)           109.7167         calculate D2E/DX2 analytically  !
 ! A45   A(20,19,22)           109.7314         calculate D2E/DX2 analytically  !
 ! A46   A(21,19,22)           110.0351         calculate D2E/DX2 analytically  !
 ! A47   A(17,23,24)           113.1927         calculate D2E/DX2 analytically  !
 ! A48   A(17,23,25)           106.1888         calculate D2E/DX2 analytically  !
 ! A49   A(17,23,41)           112.0223         calculate D2E/DX2 analytically  !
 ! A50   A(24,23,25)           108.4826         calculate D2E/DX2 analytically  !
 ! A51   A(24,23,41)           111.5966         calculate D2E/DX2 analytically  !
 ! A52   A(25,23,41)           104.7896         calculate D2E/DX2 analytically  !
 ! A53   A(23,24,28)           107.3923         calculate D2E/DX2 analytically  !
 ! A54   A(23,24,29)           110.922          calculate D2E/DX2 analytically  !
 ! A55   A(23,24,30)           110.2947         calculate D2E/DX2 analytically  !
 ! A56   A(28,24,29)           109.0732         calculate D2E/DX2 analytically  !
 ! A57   A(28,24,30)           111.4818         calculate D2E/DX2 analytically  !
 ! A58   A(29,24,30)           107.696          calculate D2E/DX2 analytically  !
 ! A59   A(31,26,32)           107.7757         calculate D2E/DX2 analytically  !
 ! A60   A(31,26,33)           110.987          calculate D2E/DX2 analytically  !
 ! A61   A(31,26,41)           107.1873         calculate D2E/DX2 analytically  !
 ! A62   A(32,26,33)           111.0802         calculate D2E/DX2 analytically  !
 ! A63   A(32,26,41)           108.4233         calculate D2E/DX2 analytically  !
 ! A64   A(33,26,41)           111.2267         calculate D2E/DX2 analytically  !
 ! A65   A(34,27,35)           111.1713         calculate D2E/DX2 analytically  !
 ! A66   A(34,27,36)           110.1635         calculate D2E/DX2 analytically  !
 ! A67   A(34,27,41)           112.1231         calculate D2E/DX2 analytically  !
 ! A68   A(35,27,36)           107.6391         calculate D2E/DX2 analytically  !
 ! A69   A(35,27,41)           107.3772         calculate D2E/DX2 analytically  !
 ! A70   A(36,27,41)           108.1955         calculate D2E/DX2 analytically  !
 ! A71   A(24,28,33)           107.9281         calculate D2E/DX2 analytically  !
 ! A72   A(24,28,34)           110.095          calculate D2E/DX2 analytically  !
 ! A73   A(24,28,37)           110.2162         calculate D2E/DX2 analytically  !
 ! A74   A(33,28,34)           108.3147         calculate D2E/DX2 analytically  !
 ! A75   A(33,28,37)           109.9378         calculate D2E/DX2 analytically  !
 ! A76   A(34,28,37)           110.2955         calculate D2E/DX2 analytically  !
 ! A77   A(26,33,28)           108.3327         calculate D2E/DX2 analytically  !
 ! A78   A(26,33,38)           110.8457         calculate D2E/DX2 analytically  !
 ! A79   A(26,33,39)           110.4951         calculate D2E/DX2 analytically  !
 ! A80   A(28,33,38)           109.6496         calculate D2E/DX2 analytically  !
 ! A81   A(28,33,39)           109.9592         calculate D2E/DX2 analytically  !
 ! A82   A(38,33,39)           107.5573         calculate D2E/DX2 analytically  !
 ! A83   A(27,34,28)           107.0729         calculate D2E/DX2 analytically  !
 ! A84   A(27,34,40)           109.077          calculate D2E/DX2 analytically  !
 ! A85   A(27,34,42)           111.509          calculate D2E/DX2 analytically  !
 ! A86   A(28,34,40)           107.4205         calculate D2E/DX2 analytically  !
 ! A87   A(28,34,42)           113.9629         calculate D2E/DX2 analytically  !
 ! A88   A(40,34,42)           107.6511         calculate D2E/DX2 analytically  !
 ! A89   A(23,41,26)           111.4884         calculate D2E/DX2 analytically  !
 ! A90   A(23,41,27)           107.4924         calculate D2E/DX2 analytically  !
 ! A91   A(26,41,27)           107.9156         calculate D2E/DX2 analytically  !
 ! A92   A(34,42,43)           109.6233         calculate D2E/DX2 analytically  !
 ! A93   A(34,42,44)           107.9166         calculate D2E/DX2 analytically  !
 ! A94   A(34,42,45)           113.8918         calculate D2E/DX2 analytically  !
 ! A95   A(43,42,44)           105.9778         calculate D2E/DX2 analytically  !
 ! A96   A(43,42,45)           109.7028         calculate D2E/DX2 analytically  !
 ! A97   A(44,42,45)           109.4134         calculate D2E/DX2 analytically  !
 ! A98   A(42,45,46)           111.062          calculate D2E/DX2 analytically  !
 ! A99   A(42,45,47)           110.8738         calculate D2E/DX2 analytically  !
 ! A100  A(42,45,48)           111.5754         calculate D2E/DX2 analytically  !
 ! A101  A(46,45,47)           107.7986         calculate D2E/DX2 analytically  !
 ! A102  A(46,45,48)           107.644          calculate D2E/DX2 analytically  !
 ! A103  A(47,45,48)           107.7168         calculate D2E/DX2 analytically  !
 ! A104  A(17,49,50)           108.6776         calculate D2E/DX2 analytically  !
 ! A105  A(11,51,52)           101.7719         calculate D2E/DX2 analytically  !
 ! A106  A(11,51,53)           103.0171         calculate D2E/DX2 analytically  !
 ! A107  A(11,51,54)           109.833          calculate D2E/DX2 analytically  !
 ! A108  A(52,51,53)           110.1295         calculate D2E/DX2 analytically  !
 ! A109  A(52,51,54)           115.1577         calculate D2E/DX2 analytically  !
 ! A110  A(53,51,54)           115.3417         calculate D2E/DX2 analytically  !
 ! D1    D(6,1,2,3)             -0.0684         calculate D2E/DX2 analytically  !
 ! D2    D(6,1,2,7)            179.6432         calculate D2E/DX2 analytically  !
 ! D3    D(16,1,2,3)          -179.9895         calculate D2E/DX2 analytically  !
 ! D4    D(16,1,2,7)            -0.2779         calculate D2E/DX2 analytically  !
 ! D5    D(2,1,6,5)              0.1009         calculate D2E/DX2 analytically  !
 ! D6    D(2,1,6,10)           179.9269         calculate D2E/DX2 analytically  !
 ! D7    D(16,1,6,5)          -179.9707         calculate D2E/DX2 analytically  !
 ! D8    D(16,1,6,10)           -0.1447         calculate D2E/DX2 analytically  !
 ! D9    D(2,1,16,19)           -0.1318         calculate D2E/DX2 analytically  !
 ! D10   D(6,1,16,19)          179.9431         calculate D2E/DX2 analytically  !
 ! D11   D(1,2,3,4)             -0.1329         calculate D2E/DX2 analytically  !
 ! D12   D(1,2,3,8)            179.2478         calculate D2E/DX2 analytically  !
 ! D13   D(7,2,3,4)           -179.8456         calculate D2E/DX2 analytically  !
 ! D14   D(7,2,3,8)             -0.4649         calculate D2E/DX2 analytically  !
 ! D15   D(2,3,4,5)              0.3093         calculate D2E/DX2 analytically  !
 ! D16   D(2,3,4,15)           179.4492         calculate D2E/DX2 analytically  !
 ! D17   D(8,3,4,5)           -179.1047         calculate D2E/DX2 analytically  !
 ! D18   D(8,3,4,15)             0.0352         calculate D2E/DX2 analytically  !
 ! D19   D(2,3,8,12)           178.4129         calculate D2E/DX2 analytically  !
 ! D20   D(2,3,8,17)            -3.469          calculate D2E/DX2 analytically  !
 ! D21   D(4,3,8,12)            -2.204          calculate D2E/DX2 analytically  !
 ! D22   D(4,3,8,17)           175.9141         calculate D2E/DX2 analytically  !
 ! D23   D(3,4,5,6)             -0.2806         calculate D2E/DX2 analytically  !
 ! D24   D(3,4,5,9)           -179.9814         calculate D2E/DX2 analytically  !
 ! D25   D(15,4,5,6)          -179.4158         calculate D2E/DX2 analytically  !
 ! D26   D(15,4,5,9)             0.8834         calculate D2E/DX2 analytically  !
 ! D27   D(3,4,15,11)            5.7685         calculate D2E/DX2 analytically  !
 ! D28   D(3,4,15,55)         -177.6025         calculate D2E/DX2 analytically  !
 ! D29   D(5,4,15,11)         -175.0799         calculate D2E/DX2 analytically  !
 ! D30   D(5,4,15,55)            1.549          calculate D2E/DX2 analytically  !
 ! D31   D(4,5,6,1)              0.073          calculate D2E/DX2 analytically  !
 ! D32   D(4,5,6,10)          -179.7482         calculate D2E/DX2 analytically  !
 ! D33   D(9,5,6,1)            179.7684         calculate D2E/DX2 analytically  !
 ! D34   D(9,5,6,10)            -0.0529         calculate D2E/DX2 analytically  !
 ! D35   D(3,8,12,11)           -0.995          calculate D2E/DX2 analytically  !
 ! D36   D(3,8,12,14)         -179.0741         calculate D2E/DX2 analytically  !
 ! D37   D(17,8,12,11)        -179.1225         calculate D2E/DX2 analytically  !
 ! D38   D(17,8,12,14)           2.7984         calculate D2E/DX2 analytically  !
 ! D39   D(3,8,17,18)           42.1494         calculate D2E/DX2 analytically  !
 ! D40   D(3,8,17,23)          -75.3083         calculate D2E/DX2 analytically  !
 ! D41   D(3,8,17,49)          163.0241         calculate D2E/DX2 analytically  !
 ! D42   D(12,8,17,18)        -139.7409         calculate D2E/DX2 analytically  !
 ! D43   D(12,8,17,23)         102.8013         calculate D2E/DX2 analytically  !
 ! D44   D(12,8,17,49)         -18.8663         calculate D2E/DX2 analytically  !
 ! D45   D(13,11,12,8)         167.9147         calculate D2E/DX2 analytically  !
 ! D46   D(13,11,12,14)        -13.9654         calculate D2E/DX2 analytically  !
 ! D47   D(15,11,12,8)           6.4666         calculate D2E/DX2 analytically  !
 ! D48   D(15,11,12,14)       -175.4135         calculate D2E/DX2 analytically  !
 ! D49   D(51,11,12,8)         -99.5439         calculate D2E/DX2 analytically  !
 ! D50   D(51,11,12,14)         78.576          calculate D2E/DX2 analytically  !
 ! D51   D(12,11,15,4)          -8.9907         calculate D2E/DX2 analytically  !
 ! D52   D(12,11,15,55)        174.4101         calculate D2E/DX2 analytically  !
 ! D53   D(13,11,15,4)        -171.5687         calculate D2E/DX2 analytically  !
 ! D54   D(13,11,15,55)         11.8321         calculate D2E/DX2 analytically  !
 ! D55   D(51,11,15,4)          96.2468         calculate D2E/DX2 analytically  !
 ! D56   D(51,11,15,55)        -80.3524         calculate D2E/DX2 analytically  !
 ! D57   D(12,11,51,52)        174.1142         calculate D2E/DX2 analytically  !
 ! D58   D(12,11,51,53)         59.973          calculate D2E/DX2 analytically  !
 ! D59   D(12,11,51,54)        -63.4205         calculate D2E/DX2 analytically  !
 ! D60   D(13,11,51,52)        -63.3585         calculate D2E/DX2 analytically  !
 ! D61   D(13,11,51,53)       -177.4997         calculate D2E/DX2 analytically  !
 ! D62   D(13,11,51,54)         59.1068         calculate D2E/DX2 analytically  !
 ! D63   D(15,11,51,52)         52.9803         calculate D2E/DX2 analytically  !
 ! D64   D(15,11,51,53)        -61.1609         calculate D2E/DX2 analytically  !
 ! D65   D(15,11,51,54)        175.4456         calculate D2E/DX2 analytically  !
 ! D66   D(1,16,19,20)         179.8225         calculate D2E/DX2 analytically  !
 ! D67   D(1,16,19,21)         -61.3551         calculate D2E/DX2 analytically  !
 ! D68   D(1,16,19,22)          60.9663         calculate D2E/DX2 analytically  !
 ! D69   D(8,17,23,24)         -76.2671         calculate D2E/DX2 analytically  !
 ! D70   D(8,17,23,25)          42.6482         calculate D2E/DX2 analytically  !
 ! D71   D(8,17,23,41)         156.4865         calculate D2E/DX2 analytically  !
 ! D72   D(18,17,23,24)        165.4389         calculate D2E/DX2 analytically  !
 ! D73   D(18,17,23,25)        -75.6458         calculate D2E/DX2 analytically  !
 ! D74   D(18,17,23,41)         38.1925         calculate D2E/DX2 analytically  !
 ! D75   D(49,17,23,24)         45.94           calculate D2E/DX2 analytically  !
 ! D76   D(49,17,23,25)        164.8553         calculate D2E/DX2 analytically  !
 ! D77   D(49,17,23,41)        -81.3064         calculate D2E/DX2 analytically  !
 ! D78   D(8,17,49,50)         -82.3908         calculate D2E/DX2 analytically  !
 ! D79   D(18,17,49,50)         38.1244         calculate D2E/DX2 analytically  !
 ! D80   D(23,17,49,50)        156.4358         calculate D2E/DX2 analytically  !
 ! D81   D(17,23,24,28)       -141.6132         calculate D2E/DX2 analytically  !
 ! D82   D(17,23,24,29)        -22.5121         calculate D2E/DX2 analytically  !
 ! D83   D(17,23,24,30)         96.7194         calculate D2E/DX2 analytically  !
 ! D84   D(25,23,24,28)        100.8042         calculate D2E/DX2 analytically  !
 ! D85   D(25,23,24,29)       -140.0946         calculate D2E/DX2 analytically  !
 ! D86   D(25,23,24,30)        -20.8631         calculate D2E/DX2 analytically  !
 ! D87   D(41,23,24,28)        -14.1436         calculate D2E/DX2 analytically  !
 ! D88   D(41,23,24,29)        104.9575         calculate D2E/DX2 analytically  !
 ! D89   D(41,23,24,30)       -135.811          calculate D2E/DX2 analytically  !
 ! D90   D(17,23,41,26)         78.6152         calculate D2E/DX2 analytically  !
 ! D91   D(17,23,41,27)       -163.3057         calculate D2E/DX2 analytically  !
 ! D92   D(24,23,41,26)        -49.4831         calculate D2E/DX2 analytically  !
 ! D93   D(24,23,41,27)         68.596          calculate D2E/DX2 analytically  !
 ! D94   D(25,23,41,26)       -166.6864         calculate D2E/DX2 analytically  !
 ! D95   D(25,23,41,27)        -48.6073         calculate D2E/DX2 analytically  !
 ! D96   D(23,24,28,33)         67.3096         calculate D2E/DX2 analytically  !
 ! D97   D(23,24,28,34)        -50.7277         calculate D2E/DX2 analytically  !
 ! D98   D(23,24,28,37)       -172.6194         calculate D2E/DX2 analytically  !
 ! D99   D(29,24,28,33)        -52.9716         calculate D2E/DX2 analytically  !
 ! D100  D(29,24,28,34)       -171.0089         calculate D2E/DX2 analytically  !
 ! D101  D(29,24,28,37)         67.0994         calculate D2E/DX2 analytically  !
 ! D102  D(30,24,28,33)       -171.7683         calculate D2E/DX2 analytically  !
 ! D103  D(30,24,28,34)         70.1944         calculate D2E/DX2 analytically  !
 ! D104  D(30,24,28,37)        -51.6974         calculate D2E/DX2 analytically  !
 ! D105  D(31,26,33,28)       -126.8743         calculate D2E/DX2 analytically  !
 ! D106  D(31,26,33,38)         -6.5278         calculate D2E/DX2 analytically  !
 ! D107  D(31,26,33,39)        112.6112         calculate D2E/DX2 analytically  !
 ! D108  D(32,26,33,28)        113.238          calculate D2E/DX2 analytically  !
 ! D109  D(32,26,33,38)       -126.4155         calculate D2E/DX2 analytically  !
 ! D110  D(32,26,33,39)         -7.2765         calculate D2E/DX2 analytically  !
 ! D111  D(41,26,33,28)         -7.6308         calculate D2E/DX2 analytically  !
 ! D112  D(41,26,33,38)        112.7158         calculate D2E/DX2 analytically  !
 ! D113  D(41,26,33,39)       -128.1453         calculate D2E/DX2 analytically  !
 ! D114  D(31,26,41,23)       -176.2979         calculate D2E/DX2 analytically  !
 ! D115  D(31,26,41,27)         65.8776         calculate D2E/DX2 analytically  !
 ! D116  D(32,26,41,23)        -60.2031         calculate D2E/DX2 analytically  !
 ! D117  D(32,26,41,27)       -178.0277         calculate D2E/DX2 analytically  !
 ! D118  D(33,26,41,23)         62.2139         calculate D2E/DX2 analytically  !
 ! D119  D(33,26,41,27)        -55.6106         calculate D2E/DX2 analytically  !
 ! D120  D(35,27,34,28)        111.2391         calculate D2E/DX2 analytically  !
 ! D121  D(35,27,34,40)         -4.7115         calculate D2E/DX2 analytically  !
 ! D122  D(35,27,34,42)       -123.4717         calculate D2E/DX2 analytically  !
 ! D123  D(36,27,34,28)       -129.5263         calculate D2E/DX2 analytically  !
 ! D124  D(36,27,34,40)        114.5231         calculate D2E/DX2 analytically  !
 ! D125  D(36,27,34,42)         -4.2371         calculate D2E/DX2 analytically  !
 ! D126  D(41,27,34,28)         -8.9715         calculate D2E/DX2 analytically  !
 ! D127  D(41,27,34,40)       -124.9221         calculate D2E/DX2 analytically  !
 ! D128  D(41,27,34,42)        116.3177         calculate D2E/DX2 analytically  !
 ! D129  D(34,27,41,23)        -54.4871         calculate D2E/DX2 analytically  !
 ! D130  D(34,27,41,26)         65.8795         calculate D2E/DX2 analytically  !
 ! D131  D(35,27,41,23)       -176.8802         calculate D2E/DX2 analytically  !
 ! D132  D(35,27,41,26)        -56.5136         calculate D2E/DX2 analytically  !
 ! D133  D(36,27,41,23)         67.2016         calculate D2E/DX2 analytically  !
 ! D134  D(36,27,41,26)       -172.4318         calculate D2E/DX2 analytically  !
 ! D135  D(24,28,33,26)        -55.0767         calculate D2E/DX2 analytically  !
 ! D136  D(24,28,33,38)       -176.1658         calculate D2E/DX2 analytically  !
 ! D137  D(24,28,33,39)         65.7706         calculate D2E/DX2 analytically  !
 ! D138  D(34,28,33,26)         64.0978         calculate D2E/DX2 analytically  !
 ! D139  D(34,28,33,38)        -56.9914         calculate D2E/DX2 analytically  !
 ! D140  D(34,28,33,39)       -175.0549         calculate D2E/DX2 analytically  !
 ! D141  D(37,28,33,26)       -175.3227         calculate D2E/DX2 analytically  !
 ! D142  D(37,28,33,38)         63.5882         calculate D2E/DX2 analytically  !
 ! D143  D(37,28,33,39)        -54.4754         calculate D2E/DX2 analytically  !
 ! D144  D(24,28,34,27)         63.438          calculate D2E/DX2 analytically  !
 ! D145  D(24,28,34,40)       -179.5159         calculate D2E/DX2 analytically  !
 ! D146  D(24,28,34,42)        -60.3573         calculate D2E/DX2 analytically  !
 ! D147  D(33,28,34,27)        -54.3605         calculate D2E/DX2 analytically  !
 ! D148  D(33,28,34,40)         62.6856         calculate D2E/DX2 analytically  !
 ! D149  D(33,28,34,42)       -178.1558         calculate D2E/DX2 analytically  !
 ! D150  D(37,28,34,27)       -174.7174         calculate D2E/DX2 analytically  !
 ! D151  D(37,28,34,40)        -57.6712         calculate D2E/DX2 analytically  !
 ! D152  D(37,28,34,42)         61.4874         calculate D2E/DX2 analytically  !
 ! D153  D(27,34,42,43)        -54.8274         calculate D2E/DX2 analytically  !
 ! D154  D(27,34,42,44)         60.1592         calculate D2E/DX2 analytically  !
 ! D155  D(27,34,42,45)       -178.154          calculate D2E/DX2 analytically  !
 ! D156  D(28,34,42,43)         66.5373         calculate D2E/DX2 analytically  !
 ! D157  D(28,34,42,44)       -178.4762         calculate D2E/DX2 analytically  !
 ! D158  D(28,34,42,45)        -56.7894         calculate D2E/DX2 analytically  !
 ! D159  D(40,34,42,43)       -174.4351         calculate D2E/DX2 analytically  !
 ! D160  D(40,34,42,44)        -59.4485         calculate D2E/DX2 analytically  !
 ! D161  D(40,34,42,45)         62.2383         calculate D2E/DX2 analytically  !
 ! D162  D(34,42,45,46)       -173.1851         calculate D2E/DX2 analytically  !
 ! D163  D(34,42,45,47)        -53.3556         calculate D2E/DX2 analytically  !
 ! D164  D(34,42,45,48)         66.712          calculate D2E/DX2 analytically  !
 ! D165  D(43,42,45,46)         63.5316         calculate D2E/DX2 analytically  !
 ! D166  D(43,42,45,47)       -176.6389         calculate D2E/DX2 analytically  !
 ! D167  D(43,42,45,48)        -56.5714         calculate D2E/DX2 analytically  !
 ! D168  D(44,42,45,46)        -52.3308         calculate D2E/DX2 analytically  !
 ! D169  D(44,42,45,47)         67.4987         calculate D2E/DX2 analytically  !
 ! D170  D(44,42,45,48)       -172.4338         calculate D2E/DX2 analytically  !
 --------------------------------------------------------------------------------
 Trust Radius=3.00D-01 FncErr=1.00D-07 GrdErr=1.00D-07 EigMax=2.50D+02 EigMin=1.00D-04
 Number of steps in this run=    330 maximum allowed number of steps=    330.
 Search for a saddle point of order  1.
 GradGradGradGradGradGradGradGradGradGradGradGradGradGradGradGradGradGrad

 Leave Link  103 at Mon Dec  1 22:45:40 2025, MaxMem=   104857600 cpu:               0.0 elap:               0.0
 (Enter /home/zhouoh/g16/l202.exe)
 Stoichiometry    C21H28F2N2O2(1+,2)
 Framework group  C1[X(C21H28F2N2O2)]
 Deg. of freedom   159
 Full point group                 C1      NOp   1
 Largest Abelian subgroup         C1      NOp   1
 Largest concise Abelian subgroup C1      NOp   1
                         Standard orientation:                         
 ---------------------------------------------------------------------
 Center     Atomic      Atomic             Coordinates (Angstroms)
 Number     Number       Type             X           Y           Z
 ---------------------------------------------------------------------
      1          6           0        1.694418    2.935909   -0.136777
      2          6           0        1.071350    1.764365   -0.516922
      3          6           0        1.487160    0.531555    0.038055
      4          6           0        2.544601    0.536691    0.975909
      5          6           0        3.171546    1.740773    1.359633
      6          6           0        2.751968    2.916820    0.810648
      7          1           0        0.263014    1.785700   -1.234252
      8          6           0        0.881180   -0.729908   -0.292174
      9          1           0        3.980656    1.714067    2.081224
     10          1           0        3.216075    3.857465    1.081931
     11          6           0        2.472957   -1.841061    1.150106
     12          6           0        1.368787   -1.879969    0.268314
     13          1           0        2.764448   -2.690112    1.755717
     14          1           0        0.937255   -2.840834    0.022047
     15          7           0        2.950561   -0.646561    1.530121
     16          8           0        1.377011    4.154561   -0.601656
     17          6           0       -0.317747   -0.788108   -1.221299
     18          1           0       -0.155384   -0.100062   -2.056554
     19          6           0        0.324915    4.252263   -1.557596
     20          1           0        0.233939    5.310147   -1.791626
     21          1           0        0.573287    3.694108   -2.463968
     22          1           0       -0.615159    3.885036   -1.137386
     23          6           0       -1.573302   -0.315344   -0.462368
     24          6           0       -2.131470   -1.379341    0.516756
     25          1           0       -1.268144    0.561354    0.115539
     26          6           0       -3.356885   -0.928531   -2.006905
     27          6           0       -3.573354    0.964530   -0.573957
     28          6           0       -3.664645   -1.307167    0.448160
     29          1           0       -1.807890   -2.382822    0.228618
     30          1           0       -1.766770   -1.190713    1.529820
     31          1           0       -4.061646   -0.486387   -2.714566
     32          1           0       -2.651922   -1.533059   -2.573971
     33          6           0       -4.098335   -1.784270   -0.945080
     34          6           0       -4.134872    0.149470    0.629419
     35          1           0       -4.376001    1.284575   -1.242653
     36          1           0       -3.062131    1.863876   -0.214989
     37          1           0       -4.107073   -1.946090    1.214875
     38          1           0       -5.182218   -1.679834   -1.048744
     39          1           0       -3.855627   -2.843099   -1.069293
     40          1           0       -5.229904    0.149095    0.582039
     41          7           0       -2.617652    0.181534   -1.376812
     42          6           0       -3.727908    0.772791    1.969059
     43          1           0       -2.637410    0.880479    2.008962
     44          1           0       -4.132941    1.790246    2.004301
     45          6           0       -4.212777   -0.008792    3.187281
     46          1           0       -4.003187    0.534946    4.111581
     47          1           0       -5.292675   -0.179042    3.136845
     48          1           0       -3.725231   -0.984416    3.259017
     49          8           0       -0.513115   -2.099925   -1.716778
     50          1           0        0.077562   -2.238006   -2.466841
     51          6           0        4.078181   -2.447850   -0.306005
     52          9           0        5.173322   -2.305776    0.424550
     53          9           0        4.019052   -1.500442   -1.226267
     54          1           0        3.889119   -3.456922   -0.664103
     55          1           0        3.688448   -0.614577    2.230644
 ---------------------------------------------------------------------
 Rotational constants (GHZ):           0.2488898           0.1278640           0.1058346
 Leave Link  202 at Mon Dec  1 22:45:40 2025, MaxMem=   104857600 cpu:               0.0 elap:               0.0
 (Enter /home/zhouoh/g16/l301.exe)
 Standard basis: STO-3G (5D, 7F)
 Ernie: Thresh=  0.10000D-02 Tol=  0.10000D-05 Strict=F.
 There are   163 symmetry adapted cartesian basis functions of A   symmetry.
 There are   163 symmetry adapted basis functions of A   symmetry.
   163 basis functions,   489 primitive gaussians,   163 cartesian basis functions
   101 alpha electrons      100 beta electrons
       nuclear repulsion energy      2688.4585625602 Hartrees.
 IExCor=    0 DFT=F Ex=HF Corr=None ExCW=0 ScaHFX=  1.000000
 ScaDFX=  1.000000  1.000000  1.000000  1.000000 ScalE2=  1.000000  1.000000
 IRadAn=      5 IRanWt=     -1 IRanGd=            0 ICorTp=0 IEmpDi=  4
 NAtoms=   55 NActive=   55 NUniq=   55 SFac= 1.00D+00 NAtFMM=   60 NAOKFM=F Big=F
 Integral buffers will be    131072 words long.
 Raffenetti 2 integral format.
 Two-electron integral symmetry is turned on.
 Leave Link  301 at Mon Dec  1 22:45:40 2025, MaxMem=   104857600 cpu:               0.0 elap:               0.0
 (Enter /home/zhouoh/g16/l402.exe)
 External calculation of energy, first and second derivatives.
 Running external command "python ../GauUMA_client.py R"
         input file       "/home/zhouoh/scratch/Gau-3548948.EIn"
         output file      "/home/zhouoh/scratch/Gau-3548948.EOu"
         message file     "/home/zhouoh/scratch/Gau-3548948.EMs"
         fchk file        "/home/zhouoh/scratch/Gau-3548948.EFC"
         mat. el file     "/home/zhouoh/scratch/Gau-3548948.EUF"
Sent job to server.
Received result from server:
SCF Done:  E(UMA) =  -1276.4416624502069     A.U.
 Recovered energy= -1276.44166245     dipole=      0.000000000000      0.000000000000      0.000000000000
 Energy=    -1276.44166     NIter=   0.
 Dipole moment=       0.000000       0.000000       0.000000
 Leave Link  402 at Mon Dec  1 22:45:51 2025, MaxMem=   104857600 cpu:               0.0 elap:              11.2
 (Enter /home/zhouoh/g16/l601.exe)
 Leave Link  601 at Mon Dec  1 22:45:51 2025, MaxMem=   104857600 cpu:               0.0 elap:               0.0
 (Enter /home/zhouoh/g16/l716.exe)
 Dipole        = 0.00000000D+00 0.00000000D+00 0.00000000D+00
 ***** Axes restored to original set *****
 -------------------------------------------------------------------
 Center     Atomic                   Forces (Hartrees/Bohr)
 Number     Number              X              Y              Z
 -------------------------------------------------------------------
      1        6          -0.000913518   -0.000094370   -0.000765664
      2        6           0.001963728    0.001270469    0.001837437
      3        6           0.003059502   -0.001541648    0.002212612
      4        6          -0.004402291    0.005595013   -0.004560503
      5        6          -0.002790931   -0.001092267   -0.002463604
      6        6           0.000264900   -0.001833537    0.000193492
      7        1           0.001028855   -0.000503471    0.001096434
      8        6           0.000302826    0.001505165    0.000830168
      9        1          -0.000695581    0.001214254   -0.000859934
     10        1          -0.001104949   -0.000932334   -0.000657065
     11        6          -0.001251541   -0.001825615   -0.003505487
     12        6           0.003142218   -0.000047138    0.002795445
     13        1          -0.001640648    0.001316953   -0.000132404
     14        1          -0.000847280    0.001269510    0.000338359
     15        7           0.003369936   -0.002537864    0.006722240
     16        8           0.001629302   -0.002557556    0.001609276
     17        6           0.000275169    0.000812086    0.000735115
     18        1          -0.001022854    0.000531319    0.000476452
     19        6          -0.000432757    0.000794885   -0.000332325
     20        1           0.000076518   -0.001788769    0.000343872
     21        1          -0.000388016    0.000542740    0.000527146
     22        1           0.000492357    0.000390391   -0.000551267
     23        6          -0.004901675   -0.000397482   -0.001260763
     24        6           0.000301846    0.000406590   -0.001087757
     25        1           0.000220045   -0.000051549    0.000081304
     26        6          -0.000421590   -0.000283174    0.001362226
     27        6           0.000049415   -0.002411157    0.000185621
     28        6           0.000013734    0.002094559   -0.002047166
     29        1          -0.000471116    0.000730027    0.000583381
     30        1          -0.000174368   -0.000388555   -0.000402032
     31        1           0.001399508   -0.000444315    0.000575927
     32        1          -0.001349385    0.000554947    0.000125703
     33        6           0.001416652    0.000905991    0.000569321
     34        6           0.001938386   -0.000259942   -0.000332152
     35        1           0.001390204    0.000142029    0.000739522
     36        1          -0.000782900   -0.000120146   -0.000246307
     37        1           0.000731671    0.000513152   -0.000805700
     38        1           0.001403651   -0.000476787    0.000232543
     39        1          -0.000835976    0.001145091   -0.000015240
     40        1           0.001052054   -0.000105540    0.000063596
     41        7           0.002194008   -0.001236115    0.002826730
     42        6          -0.001876988   -0.001021066   -0.000690266
     43        1          -0.000326660    0.000465630    0.000205747
     44        1           0.000887536   -0.000923283   -0.000005807
     45        6           0.000018842    0.000707699   -0.000020750
     46        1          -0.000407047   -0.001031494   -0.001431916
     47        1           0.001739254    0.000258872    0.000180110
     48        1          -0.000786530    0.000944981    0.000168057
     49        8           0.003028888   -0.000688103   -0.000939047
     50        1          -0.001903470   -0.000202347    0.000707565
     51        6           0.002633839    0.005419933   -0.001216073
     52        9          -0.001383545   -0.001807974    0.001511627
     53        9          -0.002211733   -0.002362784   -0.000284091
     54        1           0.000502203   -0.000543754   -0.000893026
     55        1          -0.003203683   -0.000022151   -0.004330683
 -------------------------------------------------------------------
 Cartesian Forces:  Max     0.006722240 RMS     0.001652228
 FormGI is forming the generalized inverse of G from B-inverse, IUseBI=4.
 Leave Link  716 at Mon Dec  1 22:45:51 2025, MaxMem=   104857600 cpu:               0.0 elap:               0.0
 (Enter /home/zhouoh/g16/l103.exe)

 GradGradGradGradGradGradGradGradGradGradGradGradGradGradGradGradGradGrad
 Berny optimization.
 Red2BG is reusing G-inverse.
 Internal  Forces:  Max     0.007022342 RMS     0.001105332
 Search for a saddle point.
 Step number   1 out of a maximum of  330
 All quantities printed in internal units (Hartrees-Bohrs-Radians)
 Swapping is turned off.
 Second derivative matrix not updated -- analytic derivatives used.
 ITU=  0
     Eigenvalues ---   -0.01874  -0.00006   0.00077   0.00144   0.00235
     Eigenvalues ---    0.00283   0.00372   0.00518   0.00555   0.00679
     Eigenvalues ---    0.00759   0.00980   0.01270   0.01356   0.01409
     Eigenvalues ---    0.01687   0.01721   0.01850   0.01936   0.02018
     Eigenvalues ---    0.02058   0.02109   0.02190   0.02315   0.02452
     Eigenvalues ---    0.02538   0.02589   0.02752   0.02837   0.02989
     Eigenvalues ---    0.03243   0.03326   0.03641   0.03797   0.03867
     Eigenvalues ---    0.03883   0.03930   0.04018   0.04118   0.04241
     Eigenvalues ---    0.04292   0.04364   0.04454   0.04465   0.04552
     Eigenvalues ---    0.04594   0.04600   0.04721   0.05236   0.05292
     Eigenvalues ---    0.05399   0.05694   0.06235   0.06331   0.06356
     Eigenvalues ---    0.06526   0.06615   0.06954   0.07055   0.07402
     Eigenvalues ---    0.07702   0.07915   0.08185   0.08389   0.08401
     Eigenvalues ---    0.08492   0.09080   0.09205   0.09685   0.10163
     Eigenvalues ---    0.10484   0.10752   0.10923   0.11080   0.11639
     Eigenvalues ---    0.11977   0.11994   0.12049   0.12448   0.13074
     Eigenvalues ---    0.13277   0.14193   0.14303   0.14980   0.15552
     Eigenvalues ---    0.16128   0.17001   0.17799   0.18046   0.18283
     Eigenvalues ---    0.18544   0.18828   0.19047   0.19596   0.19823
     Eigenvalues ---    0.19915   0.20346   0.20720   0.21483   0.21843
     Eigenvalues ---    0.22205   0.22434   0.23075   0.23642   0.23786
     Eigenvalues ---    0.25423   0.26881   0.27145   0.27766   0.28503
     Eigenvalues ---    0.28683   0.29179   0.30071   0.30361   0.31309
     Eigenvalues ---    0.32232   0.32368   0.32602   0.32777   0.32852
     Eigenvalues ---    0.32892   0.32934   0.33133   0.33219   0.33269
     Eigenvalues ---    0.33324   0.33404   0.33413   0.33504   0.33666
     Eigenvalues ---    0.33814   0.33952   0.34045   0.34364   0.34811
     Eigenvalues ---    0.34901   0.35032   0.35537   0.35731   0.36037
     Eigenvalues ---    0.36467   0.36531   0.37074   0.37290   0.37464
     Eigenvalues ---    0.37488   0.38957   0.39366   0.41696   0.42609
     Eigenvalues ---    0.43224   0.43900   0.46022   0.48543   0.50132
     Eigenvalues ---    0.51746   0.52204   0.52458   0.57463
 Eigenvectors required to have negative eigenvalues:
                          R18       D46       D54       D45       D53
   1                    0.88201   0.17542  -0.16551   0.15789  -0.13411
                          D51       D47      A107      A106       D48
   1                    0.11800  -0.10835   0.10454  -0.10208  -0.09082
 Eigenvalue     2 is  -6.29D-05 should be greater than     0.000000 Eigenvector:
                          D83       D82       D81       D69       D72
   1                   -0.17066  -0.16947  -0.16867   0.16252   0.15693
                          D71       D75       D86       D85       D84
   1                    0.15199   0.15080  -0.14955  -0.14836  -0.14756
 RFO step:  Lambda0=1.662958562D-05 Lambda=-2.14286552D-03.
 Linear search not attempted -- option 19 set.
 Iteration  1 RMS(Cart)=  0.09459388 RMS(Int)=  0.00198353
 Iteration  2 RMS(Cart)=  0.00401334 RMS(Int)=  0.00004812
 Iteration  3 RMS(Cart)=  0.00000529 RMS(Int)=  0.00004807
 Iteration  4 RMS(Cart)=  0.00000000 RMS(Int)=  0.00004807
 ITry= 1 IFail=0 DXMaxC= 3.44D-01 DCOld= 1.00D+10 DXMaxT= 3.00D-01 DXLimC= 3.00D+00 Rises=F
 Variable       Old X    -DE/DX   Delta X   Delta X   Delta X     New X
                                 (Linear)    (Quad)   (Total)
    R1        2.60840  -0.00395   0.00000  -0.00821  -0.00822   2.60018
    R2        2.68340  -0.00385   0.00000  -0.00582  -0.00582   2.67759
    R3        2.53672  -0.00326   0.00000  -0.00724  -0.00724   2.52948
    R4        2.67296  -0.00242   0.00000  -0.00304  -0.00304   2.66992
    R5        2.04267  -0.00151   0.00000  -0.00319  -0.00319   2.03949
    R6        2.67099  -0.00702   0.00000  -0.01685  -0.01682   2.65417
    R7        2.71723  -0.00370   0.00000  -0.00847  -0.00850   2.70874
    R8        2.66587  -0.00315   0.00000  -0.00699  -0.00698   2.65888
    R9        2.58557   0.00286   0.00000   0.00761   0.00765   2.59322
   R10        2.57760  -0.00377   0.00000  -0.00681  -0.00681   2.57079
   R11        2.04934  -0.00112   0.00000  -0.00291  -0.00291   2.04643
   R12        2.04737  -0.00145   0.00000  -0.00382  -0.00382   2.04355
   R13        2.58730  -0.00177   0.00000  -0.00258  -0.00262   2.58468
   R14        2.86846  -0.00255   0.00000  -0.01027  -0.01027   2.85818
   R15        2.67132  -0.00495   0.00000  -0.00951  -0.00953   2.66178
   R16        2.04634  -0.00155   0.00000  -0.00341  -0.00341   2.04293
   R17        2.53487   0.00019   0.00000   0.00450   0.00452   2.53940
   R18        4.25302   0.00005   0.00000  -0.02545  -0.02545   4.22756
   R19        2.04416  -0.00087   0.00000  -0.00235  -0.00235   2.04181
   R20        1.92366  -0.00530   0.00000  -0.01256  -0.01256   1.91110
   R21        2.69263   0.00019   0.00000   0.00092   0.00092   2.69355
   R22        2.06786  -0.00018   0.00000  -0.00109  -0.00109   2.06677
   R23        2.91282  -0.00228   0.00000  -0.00065  -0.00065   2.91217
   R24        2.67550   0.00075   0.00000   0.00227   0.00227   2.67777
   R25        2.05465  -0.00182   0.00000  -0.00509  -0.00509   2.04956
   R26        2.06555  -0.00080   0.00000  -0.00236  -0.00236   2.06318
   R27        2.06592  -0.00077   0.00000  -0.00219  -0.00219   2.06373
   R28        2.92897  -0.00241   0.00000  -0.01009  -0.01009   2.91888
   R29        2.06638   0.00006   0.00000   0.00006   0.00006   2.06643
   R30        2.78615  -0.00539   0.00000  -0.01594  -0.01595   2.77021
   R31        2.90338  -0.00219   0.00000  -0.00479  -0.00478   2.89860
   R32        2.06552  -0.00096   0.00000  -0.00395  -0.00395   2.06157
   R33        2.06567  -0.00050   0.00000  -0.00172  -0.00172   2.06396
   R34        2.06401  -0.00146   0.00000  -0.00394  -0.00394   2.06008
   R35        2.05624  -0.00125   0.00000  -0.00135  -0.00135   2.05489
   R36        2.93335  -0.00229   0.00000  -0.00883  -0.00884   2.92450
   R37        2.78741  -0.00161   0.00000  -0.00445  -0.00445   2.78296
   R38        2.94442  -0.00283   0.00000  -0.01019  -0.01019   2.93424
   R39        2.06476  -0.00143   0.00000  -0.00363  -0.00363   2.06113
   R40        2.06925  -0.00054   0.00000  -0.00054  -0.00054   2.06872
   R41        2.78440  -0.00255   0.00000  -0.00788  -0.00789   2.77651
   R42        2.90110  -0.00225   0.00000  -0.00749  -0.00749   2.89361
   R43        2.91273  -0.00254   0.00000  -0.00884  -0.00883   2.90390
   R44        2.06302  -0.00116   0.00000  -0.00301  -0.00301   2.06001
   R45        2.06703  -0.00146   0.00000  -0.00380  -0.00380   2.06324
   R46        2.06617  -0.00129   0.00000  -0.00384  -0.00384   2.06232
   R47        2.07125  -0.00105   0.00000  -0.00252  -0.00252   2.06872
   R48        2.89615  -0.00184   0.00000  -0.00737  -0.00737   2.88877
   R49        2.07214  -0.00027   0.00000  -0.00022  -0.00022   2.07192
   R50        2.07053  -0.00119   0.00000  -0.00297  -0.00297   2.06756
   R51        2.88456  -0.00151   0.00000  -0.00576  -0.00576   2.87880
   R52        2.06483  -0.00180   0.00000  -0.00518  -0.00518   2.05965
   R53        2.06811  -0.00176   0.00000  -0.00490  -0.00490   2.06321
   R54        2.06551  -0.00118   0.00000  -0.00340  -0.00340   2.06211
   R55        1.82293  -0.00169   0.00000  -0.00410  -0.00410   1.81883
   R56        2.50218  -0.00050   0.00000  -0.00097  -0.00097   2.50121
   R57        2.49842  -0.00140   0.00000  -0.00508  -0.00508   2.49333
   R58        2.05468   0.00071   0.00000   0.00220   0.00220   2.05688
    A1        2.10427  -0.00083   0.00000  -0.00402  -0.00402   2.10024
    A2        2.17538   0.00161   0.00000   0.00513   0.00513   2.18051
    A3        2.00354  -0.00078   0.00000  -0.00111  -0.00111   2.00243
    A4        2.09324   0.00054   0.00000   0.00228   0.00228   2.09552
    A5        2.09853   0.00022   0.00000   0.00194   0.00194   2.10046
    A6        2.09141  -0.00077   0.00000  -0.00424  -0.00424   2.08717
    A7        2.06815   0.00010   0.00000   0.00069   0.00069   2.06885
    A8        2.15391  -0.00102   0.00000  -0.00449  -0.00450   2.14942
    A9        2.06107   0.00092   0.00000   0.00374   0.00373   2.06480
   A10        2.11305  -0.00022   0.00000  -0.00094  -0.00097   2.11209
   A11        2.08014  -0.00073   0.00000  -0.00163  -0.00157   2.07857
   A12        2.08989   0.00095   0.00000   0.00265   0.00260   2.09249
   A13        2.08257   0.00061   0.00000   0.00201   0.00202   2.08460
   A14        2.08466   0.00092   0.00000   0.00925   0.00925   2.09391
   A15        2.11594  -0.00153   0.00000  -0.01127  -0.01127   2.10467
   A16        2.10507  -0.00020   0.00000   0.00001   0.00000   2.10508
   A17        2.06511  -0.00055   0.00000  -0.00479  -0.00479   2.06032
   A18        2.11300   0.00075   0.00000   0.00479   0.00479   2.11779
   A19        2.08611   0.00127   0.00000   0.00240   0.00231   2.08843
   A20        2.10259  -0.00162   0.00000  -0.00775  -0.00772   2.09487
   A21        2.09401   0.00035   0.00000   0.00561   0.00563   2.09965
   A22        2.13832  -0.00014   0.00000  -0.00464  -0.00501   2.13331
   A23        2.07070  -0.00002   0.00000  -0.00061  -0.00071   2.06999
   A24        1.71743  -0.00017   0.00000   0.00108   0.00106   1.71849
   A25        2.03077   0.00001   0.00000  -0.00352  -0.00350   2.02727
   A26        1.52923   0.00122   0.00000   0.04136   0.04140   1.57064
   A27        1.74104  -0.00056   0.00000  -0.01483  -0.01483   1.72622
   A28        2.10648  -0.00056   0.00000  -0.00276  -0.00285   2.10363
   A29        2.10698  -0.00068   0.00000  -0.00789  -0.00786   2.09913
   A30        2.06925   0.00123   0.00000   0.01044   0.01046   2.07971
   A31        2.15281  -0.00093   0.00000  -0.00488  -0.00516   2.14765
   A32        2.05630   0.00025   0.00000  -0.00025  -0.00064   2.05566
   A33        2.07262   0.00066   0.00000   0.00264   0.00224   2.07486
   A34        2.05915   0.00026   0.00000  -0.00016  -0.00016   2.05899
   A35        1.90278   0.00071   0.00000  -0.00058  -0.00060   1.90218
   A36        1.90735  -0.00106   0.00000   0.00507   0.00503   1.91239
   A37        1.93770  -0.00022   0.00000  -0.00010  -0.00017   1.93753
   A38        1.87951  -0.00107   0.00000  -0.01887  -0.01886   1.86065
   A39        1.91340   0.00014   0.00000   0.00450   0.00454   1.91794
   A40        1.92207   0.00147   0.00000   0.00933   0.00932   1.93138
   A41        1.84721  -0.00005   0.00000   0.00018   0.00018   1.84739
   A42        1.93213   0.00033   0.00000   0.00145   0.00145   1.93358
   A43        1.93267   0.00043   0.00000   0.00194   0.00193   1.93460
   A44        1.91492  -0.00023   0.00000  -0.00086  -0.00086   1.91406
   A45        1.91517  -0.00026   0.00000  -0.00060  -0.00060   1.91458
   A46        1.92047  -0.00023   0.00000  -0.00204  -0.00204   1.91843
   A47        1.97559   0.00052   0.00000   0.00946   0.00950   1.98509
   A48        1.85335  -0.00002   0.00000   0.00130   0.00126   1.85460
   A49        1.95516  -0.00166   0.00000  -0.01667  -0.01670   1.93846
   A50        1.89338  -0.00023   0.00000  -0.00190  -0.00192   1.89145
   A51        1.94773   0.00137   0.00000   0.00755   0.00758   1.95531
   A52        1.82892  -0.00006   0.00000  -0.00041  -0.00043   1.82849
   A53        1.87435  -0.00127   0.00000  -0.00813  -0.00814   1.86621
   A54        1.93595   0.00062   0.00000   0.00702   0.00701   1.94296
   A55        1.92501   0.00045   0.00000   0.00341   0.00341   1.92841
   A56        1.90369   0.00018   0.00000  -0.00186  -0.00183   1.90186
   A57        1.94572   0.00038   0.00000   0.00144   0.00144   1.94716
   A58        1.87965  -0.00035   0.00000  -0.00172  -0.00174   1.87791
   A59        1.88104  -0.00040   0.00000  -0.00779  -0.00779   1.87325
   A60        1.93709   0.00059   0.00000   0.00653   0.00654   1.94363
   A61        1.87077  -0.00021   0.00000   0.00037   0.00037   1.87114
   A62        1.93871  -0.00008   0.00000  -0.00058  -0.00059   1.93813
   A63        1.89234   0.00056   0.00000   0.00408   0.00408   1.89642
   A64        1.94127  -0.00045   0.00000  -0.00276  -0.00276   1.93852
   A65        1.94030   0.00050   0.00000   0.00522   0.00523   1.94553
   A66        1.92272  -0.00023   0.00000  -0.00070  -0.00070   1.92202
   A67        1.95692  -0.00005   0.00000  -0.00124  -0.00125   1.95567
   A68        1.87866  -0.00037   0.00000  -0.00786  -0.00786   1.87080
   A69        1.87409  -0.00021   0.00000   0.00150   0.00150   1.87558
   A70        1.88837   0.00033   0.00000   0.00279   0.00279   1.89116
   A71        1.88370   0.00010   0.00000   0.00029   0.00029   1.88399
   A72        1.92152   0.00008   0.00000   0.00450   0.00449   1.92601
   A73        1.92363  -0.00016   0.00000  -0.00371  -0.00371   1.91993
   A74        1.89045   0.00009   0.00000   0.00037   0.00037   1.89082
   A75        1.91878  -0.00011   0.00000  -0.00177  -0.00177   1.91701
   A76        1.92502   0.00000   0.00000   0.00038   0.00038   1.92540
   A77        1.89076   0.00001   0.00000  -0.00028  -0.00029   1.89047
   A78        1.93462   0.00018   0.00000   0.00102   0.00102   1.93565
   A79        1.92850  -0.00002   0.00000   0.00246   0.00245   1.93095
   A80        1.91375  -0.00015   0.00000  -0.00098  -0.00097   1.91277
   A81        1.91915   0.00022   0.00000   0.00375   0.00375   1.92290
   A82        1.87723  -0.00024   0.00000  -0.00593  -0.00592   1.87131
   A83        1.86877  -0.00003   0.00000  -0.00056  -0.00056   1.86822
   A84        1.90375   0.00004   0.00000  -0.00087  -0.00087   1.90288
   A85        1.94620  -0.00014   0.00000   0.00191   0.00190   1.94810
   A86        1.87484  -0.00012   0.00000  -0.00228  -0.00228   1.87256
   A87        1.98903   0.00033   0.00000   0.00406   0.00405   1.99308
   A88        1.87887  -0.00009   0.00000  -0.00256  -0.00255   1.87631
   A89        1.94584   0.00011   0.00000  -0.00416  -0.00417   1.94167
   A90        1.87610  -0.00019   0.00000   0.00349   0.00349   1.87958
   A91        1.88348   0.00015   0.00000   0.00150   0.00151   1.88499
   A92        1.91329   0.00012   0.00000   0.00272   0.00271   1.91600
   A93        1.88350   0.00003   0.00000   0.00095   0.00095   1.88445
   A94        1.98779   0.00014   0.00000   0.00226   0.00225   1.99004
   A95        1.84966  -0.00024   0.00000  -0.00667  -0.00666   1.84300
   A96        1.91468  -0.00003   0.00000   0.00086   0.00085   1.91552
   A97        1.90962  -0.00006   0.00000  -0.00081  -0.00081   1.90881
   A98        1.93840   0.00015   0.00000   0.00133   0.00133   1.93972
   A99        1.93511  -0.00001   0.00000  -0.00029  -0.00029   1.93482
   A100       1.94736   0.00047   0.00000   0.00429   0.00429   1.95164
   A101       1.88144  -0.00013   0.00000  -0.00163  -0.00163   1.87981
   A102       1.87874  -0.00026   0.00000  -0.00167  -0.00168   1.87706
   A103       1.88001  -0.00025   0.00000  -0.00235  -0.00235   1.87766
   A104       1.89678   0.00143   0.00000   0.00756   0.00756   1.90434
   A105       1.77625  -0.00263   0.00000  -0.02614  -0.02607   1.75019
   A106       1.79799  -0.00074   0.00000   0.01017   0.01014   1.80813
   A107       1.91695   0.00131   0.00000   0.01570   0.01568   1.93263
   A108       1.92212   0.00297   0.00000   0.01750   0.01759   1.93972
   A109       2.00988  -0.00016   0.00000  -0.00580  -0.00572   2.00416
   A110       2.01309  -0.00106   0.00000  -0.01125  -0.01135   2.00174
    D1       -0.00119   0.00001   0.00000   0.00081   0.00081  -0.00038
    D2        3.13536   0.00001   0.00000  -0.00339  -0.00339   3.13197
    D3       -3.14141   0.00003   0.00000   0.00186   0.00186  -3.13954
    D4       -0.00485   0.00003   0.00000  -0.00234  -0.00234  -0.00719
    D5        0.00176  -0.00008   0.00000  -0.00447  -0.00447  -0.00271
    D6        3.14032   0.00004   0.00000   0.00016   0.00015   3.14047
    D7       -3.14108  -0.00010   0.00000  -0.00542  -0.00541   3.13669
    D8       -0.00252   0.00002   0.00000  -0.00079  -0.00079  -0.00332
    D9       -0.00230   0.00012   0.00000   0.00807   0.00807   0.00577
   D10        3.14060   0.00014   0.00000   0.00907   0.00907  -3.13351
   D11       -0.00232   0.00014   0.00000   0.00555   0.00557   0.00325
   D12        3.12846   0.00005   0.00000  -0.00107  -0.00105   3.12742
   D13       -3.13890   0.00013   0.00000   0.00972   0.00972  -3.12918
   D14       -0.00811   0.00005   0.00000   0.00310   0.00310  -0.00501
   D15        0.00540  -0.00021   0.00000  -0.00859  -0.00860  -0.00320
   D16        3.13198  -0.00004   0.00000  -0.00269  -0.00274   3.12925
   D17       -3.12597  -0.00012   0.00000  -0.00227  -0.00225  -3.12822
   D18        0.00061   0.00005   0.00000   0.00362   0.00361   0.00422
   D19        3.11389   0.00009   0.00000   0.00653   0.00649   3.12039
   D20       -0.06054   0.00023   0.00000   0.01589   0.01584  -0.04470
   D21       -0.03847  -0.00000   0.00000  -0.00009  -0.00013  -0.03859
   D22        3.07028   0.00014   0.00000   0.00928   0.00922   3.07950
   D23       -0.00490   0.00014   0.00000   0.00509   0.00510   0.00020
   D24       -3.14127   0.00011   0.00000   0.00472   0.00472  -3.13655
   D25       -3.13140  -0.00002   0.00000  -0.00080  -0.00077  -3.13217
   D26        0.01542  -0.00005   0.00000  -0.00117  -0.00115   0.01426
   D27        0.10068   0.00001   0.00000   0.01261   0.01258   0.11326
   D28       -3.09975  -0.00050   0.00000  -0.03743  -0.03738  -3.13713
   D29       -3.05572   0.00017   0.00000   0.01839   0.01835  -3.03737
   D30        0.02704  -0.00034   0.00000  -0.03165  -0.03162  -0.00458
   D31        0.00127   0.00001   0.00000   0.00148   0.00149   0.00277
   D32       -3.13720  -0.00011   0.00000  -0.00326  -0.00327  -3.14046
   D33        3.13755   0.00005   0.00000   0.00192   0.00194   3.13949
   D34       -0.00092  -0.00007   0.00000  -0.00282  -0.00282  -0.00374
   D35       -0.01737  -0.00031   0.00000  -0.01925  -0.01924  -0.03660
   D36       -3.12543  -0.00019   0.00000  -0.01185  -0.01187  -3.13730
   D37       -3.12628  -0.00041   0.00000  -0.02831  -0.02835   3.12855
   D38        0.04884  -0.00030   0.00000  -0.02092  -0.02098   0.02786
   D39        0.73565  -0.00071   0.00000   0.00117   0.00116   0.73681
   D40       -1.31438   0.00078   0.00000   0.02132   0.02132  -1.29306
   D41        2.84531  -0.00021   0.00000   0.00632   0.00632   2.85163
   D42       -2.43894  -0.00055   0.00000   0.01051   0.01051  -2.42843
   D43        1.79422   0.00094   0.00000   0.03066   0.03066   1.82488
   D44       -0.32928  -0.00005   0.00000   0.01566   0.01566  -0.31362
   D45        2.93066  -0.00011   0.00000   0.00252   0.00261   2.93327
   D46       -0.24374  -0.00025   0.00000  -0.00505  -0.00502  -0.24876
   D47        0.11286   0.00045   0.00000   0.03494   0.03494   0.14780
   D48       -3.06154   0.00030   0.00000   0.02737   0.02731  -3.03424
   D49       -1.73737   0.00122   0.00000   0.05199   0.05200  -1.68537
   D50        1.37141   0.00107   0.00000   0.04442   0.04437   1.41578
   D51       -0.15692  -0.00028   0.00000  -0.03172  -0.03172  -0.18864
   D52        3.04403   0.00025   0.00000   0.01885   0.01886   3.06289
   D53       -2.99444   0.00026   0.00000  -0.00103  -0.00101  -2.99545
   D54        0.20651   0.00079   0.00000   0.04955   0.04957   0.25608
   D55        1.67982  -0.00084   0.00000  -0.03973  -0.03972   1.64010
   D56       -1.40241  -0.00030   0.00000   0.01084   0.01086  -1.39156
   D57        3.03887   0.00082   0.00000  -0.03590  -0.03600   3.00287
   D58        1.04673  -0.00122   0.00000  -0.04908  -0.04912   0.99761
   D59       -1.10690  -0.00021   0.00000  -0.04981  -0.04996  -1.15685
   D60       -1.10581   0.00085   0.00000  -0.03440  -0.03427  -1.14008
   D61       -3.09795  -0.00119   0.00000  -0.04758  -0.04739   3.13784
   D62        1.03161  -0.00018   0.00000  -0.04831  -0.04823   0.98338
   D63        0.92468   0.00105   0.00000  -0.03147  -0.03152   0.89316
   D64       -1.06746  -0.00099   0.00000  -0.04465  -0.04464  -1.11210
   D65        3.06210   0.00001   0.00000  -0.04538  -0.04548   3.01662
   D66        3.13850  -0.00000   0.00000  -0.00636  -0.00636   3.13214
   D67       -1.07085  -0.00013   0.00000  -0.00651  -0.00651  -1.07736
   D68        1.06406   0.00011   0.00000  -0.00678  -0.00678   1.05728
   D69       -1.33111  -0.00011   0.00000  -0.09499  -0.09502  -1.42613
   D70        0.74435  -0.00011   0.00000  -0.09110  -0.09112   0.65323
   D71        2.73120  -0.00101   0.00000  -0.09912  -0.09911   2.63209
   D72        2.88745   0.00024   0.00000  -0.08634  -0.08639   2.80107
   D73       -1.32027   0.00024   0.00000  -0.08246  -0.08248  -1.40275
   D74        0.66658  -0.00066   0.00000  -0.09048  -0.09047   0.57611
   D75        0.80180  -0.00013   0.00000  -0.08579  -0.08579   0.71602
   D76        2.87727  -0.00013   0.00000  -0.08191  -0.08188   2.79539
   D77       -1.41907  -0.00104   0.00000  -0.08993  -0.08987  -1.50894
   D78       -1.43799  -0.00093   0.00000  -0.09062  -0.09061  -1.52860
   D79        0.66540  -0.00010   0.00000  -0.08846  -0.08847   0.57693
   D80        2.73032  -0.00043   0.00000  -0.10319  -0.10319   2.62713
   D81       -2.47162   0.00033   0.00000   0.01142   0.01139  -2.46023
   D82       -0.39291   0.00012   0.00000   0.00819   0.00816  -0.38475
   D83        1.68807   0.00038   0.00000   0.01273   0.01272   1.70079
   D84        1.75937   0.00019   0.00000   0.00537   0.00536   1.76472
   D85       -2.44511  -0.00001   0.00000   0.00215   0.00213  -2.44299
   D86       -0.36413   0.00025   0.00000   0.00668   0.00669  -0.35744
   D87       -0.24685  -0.00035   0.00000   0.00282   0.00282  -0.24403
   D88        1.83185  -0.00056   0.00000  -0.00040  -0.00041   1.83145
   D89       -2.37035  -0.00030   0.00000   0.00413   0.00415  -2.36619
   D90        1.37209   0.00072   0.00000   0.00095   0.00092   1.37301
   D91       -2.85022   0.00085   0.00000   0.00255   0.00252  -2.84771
   D92       -0.86364   0.00024   0.00000  -0.00442  -0.00442  -0.86807
   D93        1.19723   0.00037   0.00000  -0.00281  -0.00283   1.19440
   D94       -2.90923  -0.00013   0.00000  -0.00570  -0.00570  -2.91492
   D95       -0.84836  -0.00000   0.00000  -0.00410  -0.00410  -0.85245
   D96        1.17477   0.00019   0.00000   0.00074   0.00075   1.17552
   D97       -0.88537  -0.00002   0.00000  -0.00240  -0.00241  -0.88777
   D98       -3.01278   0.00002   0.00000  -0.00341  -0.00340  -3.01618
   D99       -0.92453   0.00008   0.00000  -0.00189  -0.00189  -0.92642
   D100      -2.98467  -0.00013   0.00000  -0.00503  -0.00504  -2.98971
   D101       1.17110  -0.00009   0.00000  -0.00604  -0.00604   1.16507
   D102      -2.99792   0.00016   0.00000   0.00055   0.00055  -2.99738
   D103       1.22512  -0.00005   0.00000  -0.00259  -0.00260   1.22252
   D104      -0.90229  -0.00001   0.00000  -0.00360  -0.00360  -0.90589
   D105      -2.21437   0.00013   0.00000  -0.00451  -0.00451  -2.21889
   D106      -0.11393   0.00007   0.00000  -0.00527  -0.00527  -0.11920
   D107       1.96544  -0.00014   0.00000  -0.01042  -0.01043   1.95501
   D108       1.97638   0.00030   0.00000   0.00136   0.00135   1.97773
   D109      -2.20637   0.00024   0.00000   0.00059   0.00059  -2.20577
   D110      -0.12700   0.00004   0.00000  -0.00456  -0.00456  -0.13156
   D111      -0.13318  -0.00004   0.00000  -0.00155  -0.00155  -0.13473
   D112       1.96726  -0.00011   0.00000  -0.00231  -0.00231   1.96495
   D113      -2.23656  -0.00031   0.00000  -0.00746  -0.00746  -2.24402
   D114      -3.07698   0.00014   0.00000   0.00914   0.00913  -3.06785
   D115       1.14978   0.00021   0.00000   0.00635   0.00635   1.15613
   D116      -1.05074  -0.00016   0.00000   0.00228   0.00228  -1.04847
   D117      -3.10717  -0.00009   0.00000  -0.00050  -0.00050  -3.10767
   D118       1.08584  -0.00018   0.00000   0.00253   0.00251   1.08835
   D119      -0.97059  -0.00010   0.00000  -0.00026  -0.00027  -0.97086
   D120       1.94149  -0.00003   0.00000   0.00473   0.00474   1.94622
   D121      -0.08223   0.00011   0.00000   0.00815   0.00815  -0.07408
   D122      -2.15499   0.00028   0.00000   0.01070   0.01070  -2.14429
   D123      -2.26066  -0.00031   0.00000  -0.00221  -0.00220  -2.26286
   D124       1.99880  -0.00017   0.00000   0.00121   0.00121   2.00002
   D125      -0.07395  -0.00000   0.00000   0.00377   0.00376  -0.07019
   D126      -0.15658  -0.00008   0.00000   0.00002   0.00003  -0.15655
   D127      -2.18030   0.00006   0.00000   0.00344   0.00344  -2.17686
   D128       2.03013   0.00023   0.00000   0.00600   0.00599   2.03612
   D129      -0.95098   0.00020   0.00000   0.00393   0.00394  -0.94704
   D130       1.14981   0.00031   0.00000   0.00177   0.00177   1.15158
   D131      -3.08714  -0.00026   0.00000  -0.00283  -0.00283  -3.08997
   D132      -0.98635  -0.00015   0.00000  -0.00500  -0.00500  -0.99134
   D133       1.17289   0.00011   0.00000   0.00416   0.00417   1.17705
   D134      -3.00950   0.00022   0.00000   0.00200   0.00200  -3.00750
   D135      -0.96127  -0.00009   0.00000  -0.00318  -0.00317  -0.96444
   D136      -3.07467  -0.00022   0.00000  -0.00367  -0.00366  -3.07833
   D137       1.14791   0.00003   0.00000   0.00191   0.00192   1.14983
   D138       1.11872   0.00012   0.00000   0.00254   0.00255   1.12126
   D139      -0.99469  -0.00001   0.00000   0.00206   0.00206  -0.99263
   D140      -3.05528   0.00024   0.00000   0.00764   0.00764  -3.04765
   D141      -3.05996   0.00012   0.00000   0.00218   0.00219  -3.05777
   D142       1.10982  -0.00001   0.00000   0.00170   0.00170   1.11152
   D143      -0.95078   0.00023   0.00000   0.00728   0.00728  -0.94350
   D144       1.10720   0.00010   0.00000   0.00158   0.00158   1.10878
   D145      -3.13314   0.00008   0.00000  -0.00086  -0.00086  -3.13400
   D146      -1.05343   0.00008   0.00000  -0.00316  -0.00316  -1.05659
   D147      -0.94877  -0.00012   0.00000  -0.00153  -0.00154  -0.95031
   D148       1.09407  -0.00014   0.00000  -0.00398  -0.00398   1.09009
   D149      -3.10941  -0.00014   0.00000  -0.00628  -0.00628  -3.11569
   D150      -3.04939  -0.00004   0.00000   0.00016   0.00016  -3.04923
   D151      -1.00655  -0.00007   0.00000  -0.00228  -0.00228  -1.00883
   D152       1.07316  -0.00007   0.00000  -0.00458  -0.00458   1.06858
   D153      -0.95692  -0.00001   0.00000  -0.01405  -0.01405  -0.97097
   D154       1.04998  -0.00022   0.00000  -0.02000  -0.02001   1.02997
   D155      -3.10937  -0.00017   0.00000  -0.01887  -0.01888  -3.12825
   D156       1.16129   0.00008   0.00000  -0.01036  -0.01035   1.15095
   D157      -3.11500  -0.00012   0.00000  -0.01631  -0.01630  -3.13130
   D158      -0.99116  -0.00008   0.00000  -0.01518  -0.01518  -1.00634
   D159      -3.04447   0.00007   0.00000  -0.01249  -0.01249  -3.05695
   D160      -1.03757  -0.00013   0.00000  -0.01844  -0.01844  -1.05602
   D161       1.08626  -0.00009   0.00000  -0.01731  -0.01731   1.06895
   D162      -3.02265   0.00007   0.00000  -0.00758  -0.00758  -3.03023
   D163      -0.93123  -0.00001   0.00000  -0.00895  -0.00895  -0.94019
   D164       1.16434  -0.00002   0.00000  -0.00926  -0.00926   1.15508
   D165       1.10884  -0.00017   0.00000  -0.01342  -0.01342   1.09541
   D166      -3.08293  -0.00025   0.00000  -0.01480  -0.01480  -3.09773
   D167      -0.98736  -0.00026   0.00000  -0.01510  -0.01510  -1.00246
   D168      -0.91334   0.00017   0.00000  -0.00543  -0.00543  -0.91877
   D169       1.17807   0.00009   0.00000  -0.00680  -0.00680   1.17127
   D170      -3.00954   0.00008   0.00000  -0.00711  -0.00711  -3.01664
         Item               Value     Threshold  Converged?
 Maximum Force            0.007022     0.000450     NO 
 RMS     Force            0.001105     0.000300     NO 
 Maximum Displacement     0.344468     0.001800     NO 
 RMS     Displacement     0.095204     0.001200     NO 
 Predicted change in Energy=-1.221465D-03
 GradGradGradGradGradGradGradGradGradGradGradGradGradGradGradGradGradGrad

 Leave Link  103 at Mon Dec  1 22:45:51 2025, MaxMem=   104857600 cpu:               0.0 elap:               0.0
 (Enter /home/zhouoh/g16/l202.exe)
 Stoichiometry    C21H28F2N2O2(1+,2)
 Framework group  C1[X(C21H28F2N2O2)]
 Deg. of freedom   159
 Full point group                 C1      NOp   1
 RotChk:  IX=0 Diff= 1.82D-02
 Largest Abelian subgroup         C1      NOp   1
 Largest concise Abelian subgroup C1      NOp   1
                         Standard orientation:                         
 ---------------------------------------------------------------------
 Center     Atomic      Atomic             Coordinates (Angstroms)
 Number     Number       Type             X           Y           Z
 ---------------------------------------------------------------------
      1          6           0        1.617406    2.902512   -0.144645
      2          6           0        1.027061    1.709209   -0.492173
      3          6           0        1.491732    0.499348    0.070399
      4          6           0        2.556391    0.550024    0.985073
      5          6           0        3.154046    1.774865    1.334760
      6          6           0        2.692575    2.927097    0.777884
      7          1           0        0.202316    1.691136   -1.188053
      8          6           0        0.915198   -0.777822   -0.231404
      9          1           0        3.977076    1.793887    2.038313
     10          1           0        3.129759    3.885128    1.023809
     11          6           0        2.564516   -1.829730    1.177601
     12          6           0        1.438088   -1.907408    0.335490
     13          1           0        2.887294   -2.662293    1.787005
     14          1           0        1.013774   -2.875583    0.111811
     15          7           0        3.007182   -0.616699    1.549593
     16          8           0        1.255272    4.102364   -0.614655
     17          6           0       -0.284212   -0.869175   -1.148289
     18          1           0       -0.138310   -0.190851   -1.993715
     19          6           0        0.173008    4.158868   -1.540493
     20          1           0        0.042886    5.208571   -1.780295
     21          1           0        0.410448    3.601193   -2.448581
     22          1           0       -0.742686    3.767448   -1.092237
     23          6           0       -1.541754   -0.380583   -0.403500
     24          6           0       -2.178779   -1.451122    0.509705
     25          1           0       -1.221472    0.458380    0.220456
     26          6           0       -3.267630   -0.854189   -2.040460
     27          6           0       -3.470028    0.989598   -0.549010
     28          6           0       -3.699758   -1.304364    0.376085
     29          1           0       -1.891198   -2.457377    0.201672
     30          1           0       -1.851679   -1.315972    1.542970
     31          1           0       -3.912897   -0.357691   -2.765398
     32          1           0       -2.566064   -1.469188   -2.599052
     33          6           0       -4.089658   -1.710858   -1.047789
     34          6           0       -4.116554    0.158811    0.592379
     35          1           0       -4.222565    1.373776   -1.238743
     36          1           0       -2.941300    1.853298   -0.133223
     37          1           0       -4.201479   -1.951222    1.095943
     38          1           0       -5.160531   -1.555058   -1.192779
     39          1           0       -3.893864   -2.773227   -1.202865
     40          1           0       -5.205903    0.204710    0.494260
     41          7           0       -2.514919    0.197000   -1.335326
     42          6           0       -3.754996    0.716284    1.969093
     43          1           0       -2.664825    0.768169    2.073743
     44          1           0       -4.104661    1.751931    2.016389
     45          6           0       -4.346920   -0.070358    3.131660
     46          1           0       -4.155026    0.428149    4.081707
     47          1           0       -5.428527   -0.171183    3.022109
     48          1           0       -3.927089   -1.075475    3.196820
     49          8           0       -0.464625   -2.193675   -1.618480
     50          1           0        0.057999   -2.318504   -2.417016
     51          6           0        4.139173   -2.324947   -0.332354
     52          9           0        5.230489   -2.087942    0.378092
     53          9           0        3.971674   -1.408914   -1.267065
     54          1           0        4.032580   -3.351665   -0.677641
     55          1           0        3.772032   -0.556769    2.208500
 ---------------------------------------------------------------------
 Rotational constants (GHZ):           0.2560599           0.1280417           0.1067170
 Leave Link  202 at Mon Dec  1 22:45:51 2025, MaxMem=   104857600 cpu:               0.0 elap:               0.0
 (Enter /home/zhouoh/g16/l301.exe)
 Standard basis: STO-3G (5D, 7F)
 Ernie: Thresh=  0.10000D-02 Tol=  0.10000D-05 Strict=F.
 There are   163 symmetry adapted cartesian basis functions of A   symmetry.
 There are   163 symmetry adapted basis functions of A   symmetry.
   163 basis functions,   489 primitive gaussians,   163 cartesian basis functions
   101 alpha electrons      100 beta electrons
       nuclear repulsion energy      2699.0077416377 Hartrees.
 IExCor=    0 DFT=F Ex=HF Corr=None ExCW=0 ScaHFX=  1.000000
 ScaDFX=  1.000000  1.000000  1.000000  1.000000 ScalE2=  1.000000  1.000000
 IRadAn=      5 IRanWt=     -1 IRanGd=            0 ICorTp=0 IEmpDi=  4
 NAtoms=   55 NActive=   55 NUniq=   55 SFac= 1.00D+00 NAtFMM=   60 NAOKFM=F Big=F
 Integral buffers will be    131072 words long.
 Raffenetti 2 integral format.
 Two-electron integral symmetry is turned on.
 Leave Link  301 at Mon Dec  1 22:45:51 2025, MaxMem=   104857600 cpu:               0.0 elap:               0.0
 (Enter /home/zhouoh/g16/l402.exe)
 External calculation of energy, first and second derivatives.
 Running external command "python ../GauUMA_client.py R"
         input file       "/home/zhouoh/scratch/Gau-3548948.EIn"
         output file      "/home/zhouoh/scratch/Gau-3548948.EOu"
         message file     "/home/zhouoh/scratch/Gau-3548948.EMs"
         fchk file        "/home/zhouoh/scratch/Gau-3548948.EFC"
         mat. el file     "/home/zhouoh/scratch/Gau-3548948.EUF"
Sent job to server.
Received result from server:
SCF Done:  E(UMA) =  -1276.44288442993     A.U.
 Recovered energy= -1276.44288443     dipole=      0.000000000000      0.000000000000      0.000000000000
 Energy=    -1276.44288     NIter=   0.
 Dipole moment=       0.000000       0.000000       0.000000
 Leave Link  402 at Mon Dec  1 22:46:03 2025, MaxMem=   104857600 cpu:               0.0 elap:              11.2
 (Enter /home/zhouoh/g16/l716.exe)
 Dipole        = 0.00000000D+00 0.00000000D+00 0.00000000D+00
 ***** Axes restored to original set *****
 -------------------------------------------------------------------
 Center     Atomic                   Forces (Hartrees/Bohr)
 Number     Number              X              Y              Z
 -------------------------------------------------------------------
      1        6          -0.000043155    0.000032550    0.000022712
      2        6          -0.000010524   -0.000047743   -0.000011098
      3        6          -0.000082501    0.000002984   -0.000087022
      4        6           0.000122550    0.000050583    0.000019435
      5        6           0.000008164   -0.000018217    0.000022792
      6        6           0.000010014    0.000014713    0.000002896
      7        1          -0.000058256   -0.000002018   -0.000006390
      8        6           0.000004917    0.000237724   -0.000111753
      9        1           0.000003019    0.000012069   -0.000005028
     10        1          -0.000007229    0.000002454    0.000002294
     11        6           0.000166350   -0.000101877   -0.000190990
     12        6           0.000023689    0.000082365   -0.000041911
     13        1          -0.000136269   -0.000054301   -0.000020972
     14        1          -0.000067946    0.000022738    0.000097405
     15        7          -0.000358989   -0.000014317    0.000487062
     16        8           0.000018645    0.000040685   -0.000035607
     17        6          -0.000013728   -0.000184870   -0.000127859
     18        1          -0.000013558   -0.000223591   -0.000171810
     19        6          -0.000003560   -0.000005695    0.000011883
     20        1           0.000007085    0.000039114   -0.000001623
     21        1          -0.000023597   -0.000010612    0.000010160
     22        1           0.000009970   -0.000005380   -0.000004477
     23        6          -0.000006501    0.000212958    0.000018203
     24        6          -0.000243000   -0.000038817   -0.000202344
     25        1           0.000099858   -0.000210749    0.000241544
     26        6          -0.000018290    0.000032550    0.000064158
     27        6          -0.000034889   -0.000004347   -0.000015582
     28        6           0.000029819    0.000022581   -0.000018050
     29        1           0.000069873    0.000000482    0.000010295
     30        1          -0.000031282    0.000012745   -0.000003270
     31        1           0.000038452   -0.000035008   -0.000032206
     32        1           0.000012652    0.000008499   -0.000039267
     33        6           0.000036810    0.000000172    0.000027608
     34        6           0.000035811    0.000012385    0.000043132
     35        1           0.000004637    0.000042624    0.000007884
     36        1           0.000041074   -0.000001812    0.000003106
     37        1           0.000003670   -0.000014576   -0.000004090
     38        1          -0.000003512   -0.000000958    0.000001922
     39        1          -0.000050953   -0.000015189   -0.000012710
     40        1           0.000011202   -0.000054596   -0.000000335
     41        7          -0.000081844    0.000284339   -0.000024866
     42        6          -0.000046965   -0.000031081    0.000006039
     43        1           0.000000363    0.000011007    0.000040376
     44        1           0.000041085    0.000014228   -0.000026702
     45        6          -0.000017024    0.000029696   -0.000003790
     46        1           0.000024208   -0.000017778    0.000006378
     47        1          -0.000008791    0.000026744    0.000018746
     48        1          -0.000018651   -0.000024477   -0.000016144
     49        8           0.000589817   -0.000194604    0.000398639
     50        1          -0.000293257    0.000070435   -0.000191677
     51        6          -0.000013776    0.000101396   -0.000018915
     52        9           0.000102445    0.000004855   -0.000075165
     53        9          -0.000149820   -0.000062096   -0.000090315
     54        1           0.000110683   -0.000051489    0.000107440
     55        1           0.000210999    0.000000525   -0.000080137
 -------------------------------------------------------------------
 Cartesian Forces:  Max     0.000589817 RMS     0.000108495
 FormGI is forming the generalized inverse of G from B-inverse, IUseBI=4.
 Leave Link  716 at Mon Dec  1 22:46:03 2025, MaxMem=   104857600 cpu:               0.0 elap:               0.0
 (Enter /home/zhouoh/g16/l103.exe)

 GradGradGradGradGradGradGradGradGradGradGradGradGradGradGradGradGradGrad
 Berny optimization.
 Red2BG is reusing G-inverse.
 Internal  Forces:  Max     0.000287846 RMS     0.000065607
 Search for a saddle point.
 Step number   2 out of a maximum of  330
 All quantities printed in internal units (Hartrees-Bohrs-Radians)
 Swapping is turned off.
 Second derivative matrix not updated -- analytic derivatives used.
 ITU=  0  0
     Eigenvalues ---   -0.01969  -0.00027   0.00083   0.00098   0.00230
     Eigenvalues ---    0.00249   0.00360   0.00527   0.00567   0.00682
     Eigenvalues ---    0.00805   0.00983   0.01297   0.01366   0.01437
     Eigenvalues ---    0.01711   0.01730   0.01854   0.01994   0.02012
     Eigenvalues ---    0.02066   0.02088   0.02208   0.02313   0.02471
     Eigenvalues ---    0.02544   0.02603   0.02825   0.02923   0.03023
     Eigenvalues ---    0.03277   0.03335   0.03628   0.03810   0.03905
     Eigenvalues ---    0.03950   0.04034   0.04194   0.04258   0.04319
     Eigenvalues ---    0.04378   0.04416   0.04462   0.04490   0.04558
     Eigenvalues ---    0.04628   0.04760   0.05020   0.05274   0.05368
     Eigenvalues ---    0.05490   0.05723   0.06289   0.06431   0.06501
     Eigenvalues ---    0.06624   0.06744   0.07005   0.07119   0.07442
     Eigenvalues ---    0.07762   0.07942   0.08211   0.08400   0.08468
     Eigenvalues ---    0.08497   0.09246   0.09758   0.09843   0.10239
     Eigenvalues ---    0.10566   0.10831   0.10971   0.11117   0.11708
     Eigenvalues ---    0.11972   0.12005   0.12193   0.12396   0.13056
     Eigenvalues ---    0.13341   0.14217   0.14318   0.15440   0.15576
     Eigenvalues ---    0.16012   0.17156   0.18012   0.18156   0.18256
     Eigenvalues ---    0.18664   0.19037   0.19282   0.19634   0.20049
     Eigenvalues ---    0.20120   0.20576   0.20903   0.21744   0.21961
     Eigenvalues ---    0.22547   0.22908   0.23576   0.24175   0.24438
     Eigenvalues ---    0.25906   0.27406   0.27830   0.28455   0.29186
     Eigenvalues ---    0.29450   0.29642   0.30587   0.30796   0.31643
     Eigenvalues ---    0.32366   0.32608   0.32802   0.32966   0.33018
     Eigenvalues ---    0.33101   0.33259   0.33427   0.33502   0.33588
     Eigenvalues ---    0.33652   0.33702   0.33825   0.33883   0.34056
     Eigenvalues ---    0.34159   0.34347   0.34373   0.34711   0.34836
     Eigenvalues ---    0.35201   0.35503   0.35772   0.36055   0.36504
     Eigenvalues ---    0.36849   0.36932   0.37332   0.37550   0.37674
     Eigenvalues ---    0.37880   0.39209   0.39998   0.41910   0.43746
     Eigenvalues ---    0.44409   0.45510   0.46834   0.48451   0.50124
     Eigenvalues ---    0.52041   0.53000   0.53197   0.58194
 Eigenvectors required to have negative eigenvalues:
                          R18       D46       D54       D45       D53
   1                   -0.87636  -0.17096   0.16649  -0.15366   0.12781
                          D51       D47      A107       D48      A105
   1                   -0.12533   0.11289  -0.11270   0.09560   0.09521
 Eigenvalue     2 is  -2.70D-04 should be greater than     0.000000 Eigenvector:
                          D69       D71       D72       D70       D75
   1                    0.26756   0.25139   0.25043   0.24590   0.24289
                          D74       D73       D77       D76       D83
   1                    0.23427   0.22877   0.22673   0.22123  -0.15804
 RFO step:  Lambda0=4.894855281D-08 Lambda=-7.53283353D-04.
 Linear search not attempted -- option 19 set.
 Iteration  1 RMS(Cart)=  0.23385914 RMS(Int)=  0.01898638
 Iteration  2 RMS(Cart)=  0.08971309 RMS(Int)=  0.00174206
 Iteration  3 RMS(Cart)=  0.00369813 RMS(Int)=  0.00022010
 Iteration  4 RMS(Cart)=  0.00000489 RMS(Int)=  0.00022010
 Iteration  5 RMS(Cart)=  0.00000000 RMS(Int)=  0.00022010
 ITry= 1 IFail=0 DXMaxC= 1.29D+00 DCOld= 1.00D+10 DXMaxT= 3.00D-01 DXLimC= 3.00D+00 Rises=F
 Variable       Old X    -DE/DX   Delta X   Delta X   Delta X     New X
                                 (Linear)    (Quad)   (Total)
    R1        2.60018   0.00007   0.00000   0.00103   0.00103   2.60121
    R2        2.67759   0.00004   0.00000   0.00079   0.00081   2.67839
    R3        2.52948   0.00006   0.00000  -0.00065  -0.00065   2.52883
    R4        2.66992   0.00004   0.00000  -0.00166  -0.00167   2.66825
    R5        2.03949   0.00005   0.00000   0.00296   0.00296   2.04245
    R6        2.65417   0.00010   0.00000  -0.00078  -0.00082   2.65335
    R7        2.70874  -0.00002   0.00000  -0.00039  -0.00040   2.70833
    R8        2.65888   0.00001   0.00000   0.00036   0.00036   2.65924
    R9        2.59322   0.00009   0.00000   0.00071   0.00070   2.59393
   R10        2.57079   0.00005   0.00000   0.00121   0.00122   2.57201
   R11        2.04643  -0.00000   0.00000  -0.00003  -0.00003   2.04640
   R12        2.04355  -0.00000   0.00000   0.00005   0.00005   2.04360
   R13        2.58468   0.00000   0.00000  -0.00135  -0.00133   2.58334
   R14        2.85818  -0.00011   0.00000  -0.00609  -0.00609   2.85209
   R15        2.66178   0.00001   0.00000   0.00226   0.00229   2.66407
   R16        2.04293  -0.00001   0.00000   0.00016   0.00016   2.04310
   R17        2.53940   0.00012   0.00000   0.00236   0.00237   2.54176
   R18        4.22756   0.00009   0.00000  -0.01525  -0.01525   4.21232
   R19        2.04181  -0.00001   0.00000   0.00024   0.00024   2.04205
   R20        1.91110   0.00011   0.00000   0.00029   0.00029   1.91138
   R21        2.69355  -0.00000   0.00000   0.00175   0.00175   2.69530
   R22        2.06677  -0.00001   0.00000   0.00073   0.00073   2.06750
   R23        2.91217   0.00022   0.00000   0.01839   0.01839   2.93056
   R24        2.67777   0.00001   0.00000   0.00155   0.00155   2.67931
   R25        2.04956   0.00004   0.00000   0.00005   0.00005   2.04961
   R26        2.06318  -0.00001   0.00000  -0.00032  -0.00032   2.06286
   R27        2.06373  -0.00001   0.00000  -0.00030  -0.00030   2.06344
   R28        2.91888  -0.00001   0.00000   0.00575   0.00571   2.92459
   R29        2.06643   0.00001   0.00000  -0.00038  -0.00038   2.06605
   R30        2.77021   0.00013   0.00000   0.00572   0.00555   2.77576
   R31        2.89860  -0.00002   0.00000  -0.00037  -0.00023   2.89838
   R32        2.06157   0.00001   0.00000  -0.00496  -0.00496   2.05660
   R33        2.06396  -0.00001   0.00000  -0.00196  -0.00196   2.06200
   R34        2.06008  -0.00002   0.00000   0.00022   0.00022   2.06030
   R35        2.05489   0.00002   0.00000   0.00589   0.00589   2.06078
   R36        2.92450   0.00003   0.00000  -0.00016   0.00002   2.92453
   R37        2.78296  -0.00001   0.00000  -0.00474  -0.00473   2.77823
   R38        2.93424   0.00002   0.00000  -0.00209  -0.00225   2.93198
   R39        2.06113   0.00001   0.00000   0.00063   0.00063   2.06176
   R40        2.06872   0.00002   0.00000   0.00078   0.00078   2.06949
   R41        2.77651  -0.00001   0.00000  -0.00374  -0.00378   2.77273
   R42        2.89361   0.00001   0.00000   0.00147   0.00160   2.89521
   R43        2.90390  -0.00000   0.00000  -0.00253  -0.00260   2.90130
   R44        2.06001   0.00000   0.00000  -0.00004  -0.00004   2.05997
   R45        2.06324   0.00000   0.00000  -0.00032  -0.00032   2.06292
   R46        2.06232   0.00001   0.00000  -0.00034  -0.00034   2.06199
   R47        2.06872  -0.00001   0.00000   0.00032   0.00032   2.06904
   R48        2.88877   0.00002   0.00000  -0.00150  -0.00150   2.88728
   R49        2.07192   0.00000   0.00000  -0.00071  -0.00071   2.07120
   R50        2.06756  -0.00000   0.00000   0.00025   0.00025   2.06781
   R51        2.87880   0.00000   0.00000  -0.00008  -0.00008   2.87872
   R52        2.05965   0.00000   0.00000  -0.00008  -0.00008   2.05957
   R53        2.06321   0.00000   0.00000   0.00008   0.00008   2.06330
   R54        2.06211   0.00001   0.00000  -0.00032  -0.00032   2.06178
   R55        1.81883  -0.00001   0.00000  -0.00008  -0.00008   1.81876
   R56        2.50121   0.00005   0.00000  -0.00027  -0.00027   2.50094
   R57        2.49333   0.00004   0.00000  -0.00025  -0.00025   2.49308
   R58        2.05688   0.00000   0.00000   0.00002   0.00002   2.05690
    A1        2.10024  -0.00002   0.00000   0.00068   0.00067   2.10091
    A2        2.18051   0.00007   0.00000  -0.00281  -0.00281   2.17770
    A3        2.00243  -0.00005   0.00000   0.00214   0.00214   2.00458
    A4        2.09552  -0.00002   0.00000  -0.00338  -0.00343   2.09209
    A5        2.10046   0.00001   0.00000   0.00295   0.00294   2.10341
    A6        2.08717   0.00000   0.00000   0.00034   0.00034   2.08751
    A7        2.06885   0.00003   0.00000   0.00453   0.00450   2.07335
    A8        2.14942  -0.00002   0.00000  -0.00646  -0.00640   2.14301
    A9        2.06480  -0.00001   0.00000   0.00196   0.00193   2.06672
   A10        2.11209  -0.00003   0.00000  -0.00166  -0.00169   2.11040
   A11        2.07857  -0.00002   0.00000  -0.00208  -0.00212   2.07646
   A12        2.09249   0.00005   0.00000   0.00375   0.00380   2.09630
   A13        2.08460  -0.00000   0.00000  -0.00109  -0.00112   2.08347
   A14        2.09391   0.00001   0.00000   0.00087   0.00089   2.09480
   A15        2.10467  -0.00001   0.00000   0.00022   0.00024   2.10491
   A16        2.10508   0.00004   0.00000   0.00086   0.00084   2.10592
   A17        2.06032  -0.00002   0.00000  -0.00011  -0.00011   2.06021
   A18        2.11779  -0.00001   0.00000  -0.00076  -0.00076   2.11703
   A19        2.08843   0.00005   0.00000   0.00247   0.00232   2.09075
   A20        2.09487  -0.00013   0.00000  -0.01665  -0.01676   2.07811
   A21        2.09965   0.00008   0.00000   0.01478   0.01467   2.11431
   A22        2.13331   0.00001   0.00000  -0.00102  -0.00101   2.13230
   A23        2.06999  -0.00000   0.00000   0.00165   0.00166   2.07165
   A24        1.71849  -0.00015   0.00000  -0.00737  -0.00737   1.71113
   A25        2.02727  -0.00002   0.00000  -0.00135  -0.00136   2.02591
   A26        1.57064   0.00007   0.00000   0.00730   0.00731   1.57794
   A27        1.72622   0.00015   0.00000   0.00235   0.00232   1.72854
   A28        2.10363  -0.00001   0.00000  -0.00354  -0.00356   2.10007
   A29        2.09913   0.00000   0.00000   0.00202   0.00199   2.10112
   A30        2.07971   0.00000   0.00000   0.00101   0.00097   2.08069
   A31        2.14765  -0.00002   0.00000   0.00024   0.00019   2.14784
   A32        2.05566  -0.00001   0.00000  -0.00033  -0.00034   2.05532
   A33        2.07486   0.00001   0.00000  -0.00103  -0.00103   2.07383
   A34        2.05899   0.00006   0.00000  -0.00271  -0.00271   2.05628
   A35        1.90218   0.00001   0.00000  -0.02251  -0.02240   1.87978
   A36        1.91239  -0.00026   0.00000   0.02183   0.02165   1.93404
   A37        1.93753   0.00002   0.00000   0.00462   0.00420   1.94173
   A38        1.86065   0.00001   0.00000  -0.01329  -0.01312   1.84753
   A39        1.91794  -0.00006   0.00000  -0.00388  -0.00385   1.91409
   A40        1.93138   0.00027   0.00000   0.01204   0.01177   1.94315
   A41        1.84739  -0.00002   0.00000  -0.00063  -0.00063   1.84676
   A42        1.93358   0.00003   0.00000   0.00042   0.00042   1.93400
   A43        1.93460  -0.00001   0.00000   0.00003   0.00003   1.93463
   A44        1.91406   0.00001   0.00000   0.00149   0.00149   1.91555
   A45        1.91458   0.00001   0.00000   0.00241   0.00241   1.91699
   A46        1.91843  -0.00002   0.00000  -0.00352  -0.00352   1.91491
   A47        1.98509   0.00000   0.00000   0.00733   0.00759   1.99267
   A48        1.85460  -0.00005   0.00000   0.02284   0.02245   1.87705
   A49        1.93846   0.00009   0.00000  -0.03479  -0.03407   1.90438
   A50        1.89145   0.00003   0.00000   0.00308   0.00312   1.89457
   A51        1.95531  -0.00005   0.00000   0.00354   0.00207   1.95738
   A52        1.82849  -0.00002   0.00000  -0.00019   0.00031   1.82880
   A53        1.86621   0.00004   0.00000   0.00494   0.00323   1.86944
   A54        1.94296  -0.00005   0.00000   0.00210   0.00249   1.94545
   A55        1.92841   0.00001   0.00000   0.00061   0.00122   1.92963
   A56        1.90186   0.00005   0.00000  -0.00206  -0.00156   1.90029
   A57        1.94716  -0.00005   0.00000  -0.00481  -0.00429   1.94287
   A58        1.87791   0.00000   0.00000  -0.00084  -0.00114   1.87677
   A59        1.87325  -0.00003   0.00000  -0.00553  -0.00561   1.86764
   A60        1.94363   0.00001   0.00000   0.00368   0.00401   1.94764
   A61        1.87114   0.00000   0.00000   0.00644   0.00658   1.87772
   A62        1.93813   0.00002   0.00000  -0.00216  -0.00216   1.93597
   A63        1.89642  -0.00000   0.00000  -0.00230  -0.00201   1.89441
   A64        1.93852  -0.00001   0.00000  -0.00014  -0.00083   1.93769
   A65        1.94553  -0.00000   0.00000  -0.00005   0.00038   1.94591
   A66        1.92202   0.00002   0.00000  -0.00144  -0.00133   1.92069
   A67        1.95567   0.00000   0.00000   0.00626   0.00522   1.96089
   A68        1.87080  -0.00001   0.00000   0.00099   0.00085   1.87165
   A69        1.87558   0.00001   0.00000  -0.00090  -0.00062   1.87496
   A70        1.89116  -0.00002   0.00000  -0.00521  -0.00482   1.88634
   A71        1.88399   0.00002   0.00000   0.00374   0.00348   1.88747
   A72        1.92601  -0.00004   0.00000   0.00337   0.00306   1.92907
   A73        1.91993   0.00000   0.00000  -0.00478  -0.00448   1.91545
   A74        1.89082   0.00003   0.00000   0.00294   0.00303   1.89385
   A75        1.91701  -0.00001   0.00000  -0.00375  -0.00367   1.91334
   A76        1.92540   0.00000   0.00000  -0.00133  -0.00127   1.92414
   A77        1.89047  -0.00000   0.00000   0.00215   0.00158   1.89205
   A78        1.93565  -0.00000   0.00000  -0.00390  -0.00370   1.93194
   A79        1.93095   0.00001   0.00000   0.00117   0.00130   1.93225
   A80        1.91277   0.00000   0.00000  -0.00008   0.00015   1.91293
   A81        1.92290   0.00001   0.00000  -0.00036  -0.00025   1.92265
   A82        1.87131  -0.00002   0.00000   0.00097   0.00088   1.87218
   A83        1.86822  -0.00000   0.00000  -0.00082  -0.00141   1.86681
   A84        1.90288  -0.00002   0.00000   0.00099   0.00122   1.90410
   A85        1.94810   0.00004   0.00000  -0.00359  -0.00344   1.94466
   A86        1.87256   0.00001   0.00000   0.00096   0.00113   1.87369
   A87        1.99308  -0.00002   0.00000   0.00148   0.00169   1.99477
   A88        1.87631   0.00000   0.00000   0.00119   0.00102   1.87733
   A89        1.94167   0.00002   0.00000  -0.02016  -0.02079   1.92088
   A90        1.87958  -0.00004   0.00000   0.01767   0.01753   1.89712
   A91        1.88499   0.00003   0.00000   0.01228   0.01255   1.89754
   A92        1.91600   0.00001   0.00000  -0.00353  -0.00353   1.91247
   A93        1.88445   0.00001   0.00000  -0.00003  -0.00003   1.88442
   A94        1.99004  -0.00001   0.00000   0.00199   0.00200   1.99204
   A95        1.84300  -0.00002   0.00000   0.00033   0.00033   1.84332
   A96        1.91552  -0.00000   0.00000   0.00188   0.00188   1.91740
   A97        1.90881   0.00001   0.00000  -0.00079  -0.00079   1.90802
   A98        1.93972   0.00000   0.00000  -0.00117  -0.00117   1.93856
   A99        1.93482   0.00000   0.00000  -0.00032  -0.00032   1.93450
   A100       1.95164   0.00000   0.00000   0.00244   0.00244   1.95408
   A101       1.87981  -0.00000   0.00000   0.00011   0.00011   1.87992
   A102       1.87706  -0.00000   0.00000  -0.00130  -0.00130   1.87577
   A103       1.87766  -0.00000   0.00000   0.00017   0.00017   1.87784
   A104       1.90434   0.00008   0.00000  -0.00290  -0.00290   1.90144
   A105       1.75019   0.00024   0.00000   0.00610   0.00608   1.75626
   A106       1.80813  -0.00009   0.00000   0.00992   0.00992   1.81805
   A107       1.93263  -0.00001   0.00000  -0.01260  -0.01259   1.92004
   A108       1.93972   0.00002   0.00000   0.00058   0.00051   1.94023
   A109       2.00416  -0.00012   0.00000  -0.00178  -0.00177   2.00239
   A110       2.00174  -0.00000   0.00000  -0.00071  -0.00068   2.00106
    D1       -0.00038   0.00001   0.00000   0.00110   0.00111   0.00073
    D2        3.13197  -0.00001   0.00000  -0.01052  -0.01052   3.12145
    D3       -3.13954   0.00000   0.00000   0.00099   0.00100  -3.13855
    D4       -0.00719  -0.00001   0.00000  -0.01063  -0.01064  -0.01783
    D5       -0.00271  -0.00002   0.00000  -0.01105  -0.01105  -0.01376
    D6        3.14047  -0.00000   0.00000  -0.00507  -0.00508   3.13539
    D7        3.13669  -0.00001   0.00000  -0.01095  -0.01095   3.12574
    D8       -0.00332   0.00000   0.00000  -0.00498  -0.00498  -0.00829
    D9        0.00577   0.00005   0.00000   0.00634   0.00634   0.01212
   D10       -3.13351   0.00004   0.00000   0.00624   0.00624  -3.12728
   D11        0.00325   0.00002   0.00000   0.01351   0.01353   0.01678
   D12        3.12742  -0.00001   0.00000   0.01538   0.01537  -3.14040
   D13       -3.12918   0.00003   0.00000   0.02503   0.02504  -3.10413
   D14       -0.00501   0.00000   0.00000   0.02691   0.02689   0.02188
   D15       -0.00320  -0.00003   0.00000  -0.01888  -0.01891  -0.02211
   D16        3.12925  -0.00002   0.00000  -0.01854  -0.01859   3.11066
   D17       -3.12822  -0.00001   0.00000  -0.02058  -0.02059   3.13438
   D18        0.00422   0.00001   0.00000  -0.02024  -0.02026  -0.01604
   D19        3.12039   0.00006   0.00000   0.02530   0.02538  -3.13741
   D20       -0.04470   0.00004   0.00000   0.05439   0.05422   0.00952
   D21       -0.03859   0.00003   0.00000   0.02720   0.02724  -0.01135
   D22        3.07950   0.00001   0.00000   0.05628   0.05608   3.13558
   D23        0.00020   0.00002   0.00000   0.00932   0.00930   0.00950
   D24       -3.13655   0.00001   0.00000   0.00800   0.00799  -3.12856
   D25       -3.13217   0.00001   0.00000   0.00900   0.00900  -3.12317
   D26        0.01426   0.00000   0.00000   0.00769   0.00769   0.02195
   D27        0.11326  -0.00000   0.00000   0.00539   0.00541   0.11867
   D28       -3.13713  -0.00011   0.00000  -0.00678  -0.00677   3.13928
   D29       -3.03737   0.00001   0.00000   0.00570   0.00570  -3.03167
   D30       -0.00458  -0.00009   0.00000  -0.00646  -0.00648  -0.01106
   D31        0.00277   0.00000   0.00000   0.00577   0.00577   0.00853
   D32       -3.14046  -0.00001   0.00000  -0.00040  -0.00040  -3.14087
   D33        3.13949   0.00001   0.00000   0.00710   0.00708  -3.13661
   D34       -0.00374  -0.00000   0.00000   0.00092   0.00091  -0.00283
   D35       -0.03660  -0.00008   0.00000  -0.01925  -0.01920  -0.05581
   D36       -3.13730  -0.00007   0.00000  -0.00477  -0.00470   3.14119
   D37        3.12855  -0.00006   0.00000  -0.04799  -0.04822   3.08034
   D38        0.02786  -0.00005   0.00000  -0.03351  -0.03371  -0.00585
   D39        0.73681   0.00004   0.00000   0.01565   0.01561   0.75242
   D40       -1.29306   0.00016   0.00000   0.03213   0.03223  -1.26083
   D41        2.85163  -0.00002   0.00000  -0.00104  -0.00104   2.85059
   D42       -2.42843   0.00002   0.00000   0.04475   0.04467  -2.38376
   D43        1.82488   0.00014   0.00000   0.06123   0.06130   1.88618
   D44       -0.31362  -0.00004   0.00000   0.02807   0.02802  -0.28559
   D45        2.93327   0.00003   0.00000   0.00151   0.00149   2.93477
   D46       -0.24876   0.00002   0.00000  -0.01278  -0.01282  -0.26158
   D47        0.14780   0.00009   0.00000   0.00411   0.00406   0.15186
   D48       -3.03424   0.00008   0.00000  -0.01018  -0.01025  -3.04449
   D49       -1.68537   0.00001   0.00000   0.00530   0.00529  -1.68008
   D50        1.41578  -0.00000   0.00000  -0.00899  -0.00902   1.40675
   D51       -0.18864  -0.00005   0.00000   0.00285   0.00286  -0.18578
   D52        3.06289   0.00006   0.00000   0.01510   0.01512   3.07801
   D53       -2.99545   0.00000   0.00000   0.00528   0.00525  -2.99021
   D54        0.25608   0.00011   0.00000   0.01753   0.01750   0.27358
   D55        1.64010  -0.00014   0.00000  -0.00391  -0.00392   1.63618
   D56       -1.39156  -0.00003   0.00000   0.00834   0.00834  -1.38322
   D57        3.00287  -0.00007   0.00000  -0.05825  -0.05822   2.94465
   D58        0.99761  -0.00014   0.00000  -0.06410  -0.06412   0.93349
   D59       -1.15685  -0.00007   0.00000  -0.06254  -0.06253  -1.21938
   D60       -1.14008  -0.00006   0.00000  -0.05869  -0.05869  -1.19877
   D61        3.13784  -0.00014   0.00000  -0.06455  -0.06459   3.07326
   D62        0.98338  -0.00007   0.00000  -0.06298  -0.06299   0.92039
   D63        0.89316  -0.00006   0.00000  -0.05860  -0.05858   0.83459
   D64       -1.11210  -0.00013   0.00000  -0.06446  -0.06448  -1.17657
   D65        3.01662  -0.00007   0.00000  -0.06289  -0.06288   2.95374
   D66        3.13214   0.00000   0.00000   0.00008   0.00008   3.13221
   D67       -1.07736   0.00002   0.00000   0.00171   0.00171  -1.07564
   D68        1.05728   0.00001   0.00000  -0.00246  -0.00246   1.05482
   D69       -1.42613  -0.00028   0.00000  -0.32334  -0.32394  -1.75007
   D70        0.65323  -0.00028   0.00000  -0.30007  -0.30004   0.35320
   D71        2.63209  -0.00029   0.00000  -0.30467  -0.30444   2.32766
   D72        2.80107  -0.00017   0.00000  -0.30072  -0.30121   2.49986
   D73       -1.40275  -0.00017   0.00000  -0.27745  -0.27731  -1.68006
   D74        0.57611  -0.00017   0.00000  -0.28205  -0.28170   0.29441
   D75        0.71602  -0.00025   0.00000  -0.29475  -0.29512   0.42089
   D76        2.79539  -0.00025   0.00000  -0.27148  -0.27123   2.52416
   D77       -1.50894  -0.00026   0.00000  -0.27607  -0.27562  -1.78456
   D78       -1.52860  -0.00024   0.00000  -0.00111  -0.00111  -1.52971
   D79        0.57693  -0.00025   0.00000  -0.02886  -0.02887   0.54806
   D80        2.62713  -0.00011   0.00000  -0.04028  -0.04027   2.58686
   D81       -2.46023  -0.00007   0.00000   0.13564   0.13571  -2.32452
   D82       -0.38475  -0.00002   0.00000   0.13736   0.13721  -0.24754
   D83        1.70079  -0.00004   0.00000   0.13806   0.13821   1.83900
   D84        1.76472  -0.00002   0.00000   0.10053   0.10048   1.86520
   D85       -2.44299   0.00003   0.00000   0.10224   0.10198  -2.34100
   D86       -0.35744   0.00001   0.00000   0.10295   0.10298  -0.25446
   D87       -0.24403   0.00001   0.00000   0.09693   0.09706  -0.14697
   D88        1.83145   0.00006   0.00000   0.09864   0.09856   1.93000
   D89       -2.36619   0.00004   0.00000   0.09934   0.09955  -2.26664
   D90        1.37301   0.00002   0.00000  -0.09626  -0.09599   1.27702
   D91       -2.84771   0.00005   0.00000  -0.08202  -0.08212  -2.92982
   D92       -0.86807  -0.00001   0.00000  -0.08045  -0.08045  -0.94852
   D93        1.19440   0.00002   0.00000  -0.06622  -0.06658   1.12782
   D94       -2.91492  -0.00001   0.00000  -0.08580  -0.08541  -3.00033
   D95       -0.85245   0.00002   0.00000  -0.07157  -0.07153  -0.92399
   D96        1.17552  -0.00001   0.00000  -0.05241  -0.05264   1.12288
   D97       -0.88777  -0.00003   0.00000  -0.06010  -0.06014  -0.94791
   D98       -3.01618  -0.00001   0.00000  -0.05748  -0.05759  -3.07377
   D99       -0.92642   0.00000   0.00000  -0.05662  -0.05661  -0.98303
   D100      -2.98971  -0.00002   0.00000  -0.06431  -0.06411  -3.05382
   D101       1.16507   0.00000   0.00000  -0.06169  -0.06156   1.10350
   D102      -2.99738   0.00000   0.00000  -0.05134  -0.05162  -3.04900
   D103       1.22252  -0.00002   0.00000  -0.05903  -0.05912   1.16339
   D104      -0.90589   0.00000   0.00000  -0.05641  -0.05657  -0.96246
   D105      -2.21889  -0.00001   0.00000   0.03316   0.03309  -2.18579
   D106      -0.11920  -0.00001   0.00000   0.03206   0.03204  -0.08716
   D107       1.95501  -0.00003   0.00000   0.03152   0.03160   1.98661
   D108       1.97773   0.00000   0.00000   0.03914   0.03896   2.01669
   D109      -2.20577   0.00000   0.00000   0.03804   0.03791  -2.16786
   D110      -0.13156  -0.00001   0.00000   0.03750   0.03747  -0.09409
   D111      -0.13473  -0.00000   0.00000   0.04363   0.04354  -0.09119
   D112       1.96495  -0.00000   0.00000   0.04253   0.04248   2.00744
   D113      -2.24402  -0.00002   0.00000   0.04199   0.04204  -2.20197
   D114      -3.06785   0.00001   0.00000   0.00545   0.00499  -3.06286
   D115       1.15613   0.00003   0.00000  -0.01200  -0.01189   1.14424
   D116      -1.04847  -0.00002   0.00000   0.00119   0.00084  -1.04763
   D117      -3.10767  -0.00001   0.00000  -0.01627  -0.01604  -3.12372
   D118       1.08835   0.00000   0.00000  -0.00315  -0.00374   1.08461
   D119      -0.97086   0.00002   0.00000  -0.02060  -0.02062  -0.99148
   D120       1.94622   0.00001   0.00000   0.06508   0.06505   2.01128
   D121      -0.07408   0.00002   0.00000   0.06389   0.06386  -0.01022
   D122      -2.14429   0.00001   0.00000   0.06398   0.06392  -2.08036
   D123      -2.26286   0.00002   0.00000   0.06534   0.06550  -2.19736
   D124       2.00002   0.00002   0.00000   0.06416   0.06431   2.06432
   D125      -0.07019   0.00001   0.00000   0.06425   0.06437  -0.00582
   D126      -0.15655   0.00000   0.00000   0.06192   0.06194  -0.09461
   D127      -2.17686   0.00001   0.00000   0.06073   0.06075  -2.11611
   D128       2.03612  -0.00001   0.00000   0.06082   0.06081   2.09693
   D129      -0.94704  -0.00003   0.00000  -0.03338  -0.03286  -0.97990
   D130       1.15158  -0.00001   0.00000  -0.04059  -0.04055   1.11103
   D131      -3.08997  -0.00003   0.00000  -0.03668  -0.03624  -3.12621
   D132      -0.99134  -0.00001   0.00000  -0.04389  -0.04393  -1.03528
   D133       1.17705  -0.00002   0.00000  -0.03473  -0.03448   1.14258
   D134      -3.00750  -0.00000   0.00000  -0.04194  -0.04217  -3.04968
   D135      -0.96444   0.00001   0.00000  -0.03049  -0.03018  -0.99463
   D136      -3.07833   0.00001   0.00000  -0.02701  -0.02673  -3.10507
   D137       1.14983   0.00003   0.00000  -0.02793  -0.02775   1.12208
   D138       1.12126  -0.00001   0.00000  -0.02272  -0.02283   1.09843
   D139      -0.99263  -0.00001   0.00000  -0.01923  -0.01938  -1.01201
   D140      -3.04765   0.00000   0.00000  -0.02015  -0.02040  -3.06804
   D141      -3.05777  -0.00000   0.00000  -0.02477  -0.02472  -3.08249
   D142       1.11152   0.00000   0.00000  -0.02129  -0.02127   1.09026
   D143      -0.94350   0.00001   0.00000  -0.02221  -0.02228  -0.96578
   D144       1.10878   0.00003   0.00000  -0.02655  -0.02690   1.08188
   D145      -3.13400   0.00002   0.00000  -0.02534  -0.02564   3.12355
   D146      -1.05659   0.00001   0.00000  -0.02230  -0.02256  -1.07915
   D147      -0.95031   0.00001   0.00000  -0.03476  -0.03471  -0.98503
   D148       1.09009  -0.00001   0.00000  -0.03355  -0.03345   1.05664
   D149      -3.11569  -0.00001   0.00000  -0.03051  -0.03037   3.13713
   D150      -3.04923   0.00001   0.00000  -0.03121  -0.03134  -3.08058
   D151      -1.00883  -0.00001   0.00000  -0.03000  -0.03008  -1.03891
   D152       1.06858  -0.00001   0.00000  -0.02696  -0.02700   1.04158
   D153      -0.97097  -0.00002   0.00000  -0.02180  -0.02155  -0.99252
   D154       1.02997  -0.00003   0.00000  -0.02327  -0.02302   1.00695
   D155      -3.12825  -0.00003   0.00000  -0.02299  -0.02274   3.13219
   D156       1.15095  -0.00002   0.00000  -0.02457  -0.02481   1.12613
   D157      -3.13130  -0.00003   0.00000  -0.02604  -0.02628   3.12560
   D158      -1.00634  -0.00002   0.00000  -0.02576  -0.02600  -1.03234
   D159      -3.05695  -0.00003   0.00000  -0.02166  -0.02167  -3.07862
   D160      -1.05602  -0.00004   0.00000  -0.02313  -0.02314  -1.07915
   D161       1.06895  -0.00003   0.00000  -0.02285  -0.02286   1.04609
   D162      -3.03023  -0.00002   0.00000  -0.00904  -0.00904  -3.03927
   D163      -0.94019  -0.00002   0.00000  -0.00988  -0.00988  -0.95006
   D164       1.15508  -0.00002   0.00000  -0.00824  -0.00823   1.14685
   D165       1.09541  -0.00003   0.00000  -0.00730  -0.00730   1.08811
   D166      -3.09773  -0.00003   0.00000  -0.00815  -0.00815  -3.10587
   D167      -1.00246  -0.00003   0.00000  -0.00650  -0.00650  -1.00896
   D168      -0.91877  -0.00001   0.00000  -0.00830  -0.00830  -0.92708
   D169       1.17127  -0.00001   0.00000  -0.00914  -0.00914   1.16213
   D170      -3.01664  -0.00001   0.00000  -0.00750  -0.00750  -3.02415
         Item               Value     Threshold  Converged?
 Maximum Force            0.000288     0.000450     YES
 RMS     Force            0.000066     0.000300     YES
 Maximum Displacement     1.287377     0.001800     NO 
 RMS     Displacement     0.310999     0.001200     NO 
 Predicted change in Energy=-7.911316D-04
 GradGradGradGradGradGradGradGradGradGradGradGradGradGradGradGradGradGrad

 Leave Link  103 at Mon Dec  1 22:46:03 2025, MaxMem=   104857600 cpu:               0.0 elap:               0.0
 (Enter /home/zhouoh/g16/l202.exe)
 Stoichiometry    C21H28F2N2O2(1+,2)
 Framework group  C1[X(C21H28F2N2O2)]
 Deg. of freedom   159
 Full point group                 C1      NOp   1
 RotChk:  IX=0 Diff= 1.23D-01
 Largest Abelian subgroup         C1      NOp   1
 Largest concise Abelian subgroup C1      NOp   1
                         Standard orientation:                         
 ---------------------------------------------------------------------
 Center     Atomic      Atomic             Coordinates (Angstroms)
 Number     Number       Type             X           Y           Z
 ---------------------------------------------------------------------
      1          6           0        1.506414    2.887779   -0.056787
      2          6           0        0.950269    1.660738   -0.339340
      3          6           0        1.534439    0.486638    0.184025
      4          6           0        2.667843    0.603009    1.004594
      5          6           0        3.232890    1.861397    1.282836
      6          6           0        2.663598    2.979984    0.756410
      7          1           0        0.057179    1.589051   -0.943837
      8          6           0        1.008706   -0.821991   -0.071168
      9          1           0        4.114334    1.933331    1.907792
     10          1           0        3.072357    3.962401    0.949431
     11          6           0        2.804052   -1.772121    1.223574
     12          6           0        1.620832   -1.917490    0.471049
     13          1           0        3.210086   -2.577856    1.819253
     14          1           0        1.232377   -2.908593    0.285220
     15          7           0        3.216780   -0.533026    1.545194
     16          8           0        1.033364    4.059687   -0.496820
     17          6           0       -0.213836   -0.963522   -0.944801
     18          1           0       -0.089470   -0.295008   -1.801899
     19          6           0       -0.140738    4.041757   -1.306428
     20          1           0       -0.353417    5.078983   -1.541601
     21          1           0        0.032049    3.482492   -2.227838
     22          1           0       -0.981059    3.605302   -0.762676
     23          6           0       -1.482097   -0.468752   -0.202071
     24          6           0       -2.348002   -1.602561    0.397785
     25          1           0       -1.154215    0.185406    0.610264
     26          6           0       -2.915630   -0.399428   -2.136105
     27          6           0       -3.281940    1.093667   -0.309773
     28          6           0       -3.803777   -1.309912    0.013752
     29          1           0       -2.066269   -2.573939   -0.004040
     30          1           0       -2.224699   -1.646664    1.481061
     31          1           0       -3.407912    0.290562   -2.821848
     32          1           0       -2.150232   -0.925442   -2.707688
     33          6           0       -3.921408   -1.396007   -1.511379
     34          6           0       -4.202593    0.105748    0.454220
     35          1           0       -3.851881    1.722034   -0.995833
     36          1           0       -2.777437    1.760209    0.397692
     37          1           0       -4.461471   -2.047459    0.473922
     38          1           0       -4.942090   -1.154732   -1.814189
     39          1           0       -3.715767   -2.413510   -1.847566
     40          1           0       -5.239045    0.265814    0.139687
     41          7           0       -2.254155    0.403276   -1.097097
     42          6           0       -4.137919    0.336111    1.963249
     43          1           0       -3.100064    0.247161    2.304178
     44          1           0       -4.424278    1.373939    2.158885
     45          6           0       -5.030590   -0.594502    2.774240
     46          1           0       -5.025473   -0.321365    3.829323
     47          1           0       -6.063373   -0.545372    2.423410
     48          1           0       -4.707373   -1.634168    2.703413
     49          8           0       -0.369447   -2.297660   -1.398792
     50          1           0        0.129422   -2.410475   -2.214085
     51          6           0        4.263651   -2.216598   -0.401458
     52          9           0        5.394746   -1.849364    0.179280
     53          9           0        3.932766   -1.383494   -1.369426
     54          1           0        4.211364   -3.269798   -0.671256
     55          1           0        4.034063   -0.428214    2.131808
 ---------------------------------------------------------------------
 Rotational constants (GHZ):           0.2695153           0.1244932           0.1039774
 Leave Link  202 at Mon Dec  1 22:46:03 2025, MaxMem=   104857600 cpu:               0.0 elap:               0.0
 (Enter /home/zhouoh/g16/l301.exe)
 Standard basis: STO-3G (5D, 7F)
 Ernie: Thresh=  0.10000D-02 Tol=  0.10000D-05 Strict=F.
 There are   163 symmetry adapted cartesian basis functions of A   symmetry.
 There are   163 symmetry adapted basis functions of A   symmetry.
   163 basis functions,   489 primitive gaussians,   163 cartesian basis functions
   101 alpha electrons      100 beta electrons
       nuclear repulsion energy      2698.7245392770 Hartrees.
 IExCor=    0 DFT=F Ex=HF Corr=None ExCW=0 ScaHFX=  1.000000
 ScaDFX=  1.000000  1.000000  1.000000  1.000000 ScalE2=  1.000000  1.000000
 IRadAn=      5 IRanWt=     -1 IRanGd=            0 ICorTp=0 IEmpDi=  4
 NAtoms=   55 NActive=   55 NUniq=   55 SFac= 1.00D+00 NAtFMM=   60 NAOKFM=F Big=F
 Integral buffers will be    131072 words long.
 Raffenetti 2 integral format.
 Two-electron integral symmetry is turned on.
 Leave Link  301 at Mon Dec  1 22:46:03 2025, MaxMem=   104857600 cpu:               0.0 elap:               0.0
 (Enter /home/zhouoh/g16/l402.exe)
 External calculation of energy, first and second derivatives.
 Running external command "python ../GauUMA_client.py R"
         input file       "/home/zhouoh/scratch/Gau-3548948.EIn"
         output file      "/home/zhouoh/scratch/Gau-3548948.EOu"
         message file     "/home/zhouoh/scratch/Gau-3548948.EMs"
         fchk file        "/home/zhouoh/scratch/Gau-3548948.EFC"
         mat. el file     "/home/zhouoh/scratch/Gau-3548948.EUF"
Sent job to server.
Received result from server:
SCF Done:  E(UMA) =  -1276.4432187071147     A.U.
 Recovered energy= -1276.44321871     dipole=      0.000000000000      0.000000000000      0.000000000000
 Energy=    -1276.44322     NIter=   0.
 Dipole moment=       0.000000       0.000000       0.000000
 Leave Link  402 at Mon Dec  1 22:46:14 2025, MaxMem=   104857600 cpu:               0.0 elap:              11.2
 (Enter /home/zhouoh/g16/l716.exe)
 Dipole        = 0.00000000D+00 0.00000000D+00 0.00000000D+00
 ***** Axes restored to original set *****
 -------------------------------------------------------------------
 Center     Atomic                   Forces (Hartrees/Bohr)
 Number     Number              X              Y              Z
 -------------------------------------------------------------------
      1        6           0.000215250   -0.000316466    0.000299068
      2        6           0.000253468    0.000149514   -0.000022495
      3        6          -0.000247530    0.000068687    0.000136115
      4        6           0.000282375   -0.000091615    0.000253309
      5        6          -0.000241082   -0.000148230    0.000078024
      6        6          -0.000218301    0.000037443    0.000057928
      7        1          -0.000443489   -0.000123707   -0.000092701
      8        6           0.000152549    0.000878641   -0.000077244
      9        1           0.000008480   -0.000011618    0.000002009
     10        1           0.000034655    0.000010330    0.000014412
     11        6           0.000165141   -0.000097703   -0.000309058
     12        6          -0.000011190    0.000055223   -0.000153753
     13        1          -0.000058031   -0.000047775   -0.000000261
     14        1           0.000092002    0.000016102    0.000007592
     15        7          -0.000113311    0.000133575    0.000091568
     16        8          -0.000007879    0.000191668   -0.000038452
     17        6          -0.000358053   -0.000890046   -0.000726759
     18        1           0.000250186   -0.000392546   -0.000192656
     19        6          -0.000009603    0.000040417    0.000044855
     20        1           0.000016530    0.000055377    0.000011795
     21        1           0.000032353   -0.000018137    0.000000743
     22        1           0.000034728   -0.000159660   -0.000052941
     23        6           0.000144327   -0.000134840    0.000915148
     24        6          -0.001113818    0.000696123   -0.000743532
     25        1           0.000593672   -0.000426480    0.000341714
     26        6          -0.000595880   -0.000355606    0.000449220
     27        6           0.000034827    0.000206530    0.000169867
     28        6           0.000054118   -0.000343735    0.000096364
     29        1           0.000197795   -0.000107467    0.000145636
     30        1           0.000152454    0.000295419   -0.000059558
     31        1          -0.000013262    0.000005651    0.000056896
     32        1          -0.000232541    0.000050894   -0.000128198
     33        6          -0.000257002    0.000177121   -0.000033321
     34        6           0.000031891    0.000048972   -0.000061316
     35        1          -0.000122920    0.000119660    0.000019943
     36        1           0.000142405   -0.000046675   -0.000030946
     37        1          -0.000057669   -0.000019676   -0.000041413
     38        1           0.000003502   -0.000090136    0.000002779
     39        1           0.000005862   -0.000030456    0.000056197
     40        1           0.000013300   -0.000049745   -0.000120370
     41        7           0.000318993   -0.000074744   -0.000785563
     42        6           0.000022807    0.000041952    0.000087440
     43        1           0.000111110    0.000144753    0.000130934
     44        1          -0.000018530   -0.000007927    0.000007311
     45        6          -0.000054660    0.000027630   -0.000013848
     46        1          -0.000010587   -0.000009654   -0.000032128
     47        1          -0.000008521    0.000015185    0.000018482
     48        1           0.000180609    0.000009526   -0.000116761
     49        8           0.000635277    0.000553446    0.000212582
     50        1           0.000021678   -0.000064939    0.000067487
     51        6          -0.000162930    0.000043185    0.000243460
     52        9           0.000096960    0.000024791   -0.000052071
     53        9          -0.000014788   -0.000029519   -0.000145839
     54        1           0.000078071   -0.000010308    0.000016705
     55        1          -0.000005801    0.000001588   -0.000004399
 -------------------------------------------------------------------
 Cartesian Forces:  Max     0.001113818 RMS     0.000253374
 FormGI is forming the generalized inverse of G from B-inverse, IUseBI=4.
 Leave Link  716 at Mon Dec  1 22:46:14 2025, MaxMem=   104857600 cpu:               0.0 elap:               0.0
 (Enter /home/zhouoh/g16/l103.exe)

 GradGradGradGradGradGradGradGradGradGradGradGradGradGradGradGradGradGrad
 Berny optimization.
 Red2BG is reusing G-inverse.
 Internal  Forces:  Max     0.002162414 RMS     0.000293538
 Search for a saddle point.
 Step number   3 out of a maximum of  330
 All quantities printed in internal units (Hartrees-Bohrs-Radians)
 Swapping is turned off.
 Second derivative matrix not updated -- analytic derivatives used.
 ITU=  0  0  0
     Eigenvalues ---   -0.02228  -0.00006   0.00077   0.00217   0.00221
     Eigenvalues ---    0.00241   0.00352   0.00505   0.00548   0.00660
     Eigenvalues ---    0.00908   0.00988   0.01318   0.01371   0.01479
     Eigenvalues ---    0.01731   0.01798   0.01854   0.02000   0.02050
     Eigenvalues ---    0.02074   0.02117   0.02226   0.02297   0.02482
     Eigenvalues ---    0.02602   0.02625   0.02835   0.03051   0.03209
     Eigenvalues ---    0.03318   0.03331   0.03595   0.03816   0.03897
     Eigenvalues ---    0.03943   0.04032   0.04248   0.04300   0.04319
     Eigenvalues ---    0.04399   0.04451   0.04466   0.04522   0.04578
     Eigenvalues ---    0.04627   0.04819   0.05188   0.05230   0.05404
     Eigenvalues ---    0.05553   0.05736   0.06128   0.06434   0.06542
     Eigenvalues ---    0.06822   0.06900   0.07008   0.07124   0.07517
     Eigenvalues ---    0.07786   0.07904   0.08257   0.08373   0.08458
     Eigenvalues ---    0.08581   0.09215   0.09808   0.10095   0.10144
     Eigenvalues ---    0.10722   0.10817   0.10964   0.11077   0.11741
     Eigenvalues ---    0.11953   0.12010   0.12376   0.12568   0.13072
     Eigenvalues ---    0.13413   0.14219   0.14343   0.15589   0.15846
     Eigenvalues ---    0.16089   0.17156   0.18090   0.18201   0.18279
     Eigenvalues ---    0.18774   0.19147   0.19331   0.19676   0.20240
     Eigenvalues ---    0.20336   0.20702   0.21427   0.21786   0.22103
     Eigenvalues ---    0.22620   0.23074   0.23876   0.24167   0.25241
     Eigenvalues ---    0.26282   0.27719   0.28426   0.29242   0.29245
     Eigenvalues ---    0.29702   0.29943   0.30604   0.31112   0.31665
     Eigenvalues ---    0.32395   0.32589   0.32659   0.32878   0.32942
     Eigenvalues ---    0.33013   0.33292   0.33524   0.33583   0.33614
     Eigenvalues ---    0.33703   0.33776   0.33793   0.33900   0.34103
     Eigenvalues ---    0.34189   0.34357   0.34667   0.34705   0.34852
     Eigenvalues ---    0.35243   0.35466   0.35739   0.36061   0.36365
     Eigenvalues ---    0.36808   0.36898   0.37267   0.37389   0.37617
     Eigenvalues ---    0.37886   0.39195   0.40031   0.41641   0.43845
     Eigenvalues ---    0.44981   0.46451   0.46723   0.48496   0.50106
     Eigenvalues ---    0.51973   0.53012   0.53199   0.58458
 Eigenvectors required to have negative eigenvalues:
                          R18       D46       D54       D45       D53
   1                    0.87960   0.16948  -0.16427   0.15334  -0.12821
                          D51       D47      A107       D48      A105
   1                    0.12189  -0.11001   0.09740  -0.09387  -0.09366
 Eigenvalue     2 is  -5.98D-05 should be greater than     0.000000 Eigenvector:
                         D110      D109      D107      D106      D108
   1                   -0.17452  -0.17313  -0.17103  -0.16965  -0.16844
                         D105      D113      D112      D111       D86
   1                   -0.16495  -0.15884  -0.15745  -0.15276  -0.14401
 RFO step:  Lambda0=1.922279941D-06 Lambda=-6.78434760D-04.
 Linear search not attempted -- option 19 set.
 Iteration  1 RMS(Cart)=  0.15006274 RMS(Int)=  0.00369951
 Iteration  2 RMS(Cart)=  0.00867260 RMS(Int)=  0.00024119
 Iteration  3 RMS(Cart)=  0.00002322 RMS(Int)=  0.00024101
 Iteration  4 RMS(Cart)=  0.00000000 RMS(Int)=  0.00024101
 ITry= 1 IFail=0 DXMaxC= 6.98D-01 DCOld= 1.00D+10 DXMaxT= 3.00D-01 DXLimC= 3.00D+00 Rises=F
 Variable       Old X    -DE/DX   Delta X   Delta X   Delta X     New X
                                 (Linear)    (Quad)   (Total)
    R1        2.60121  -0.00002   0.00000  -0.00023  -0.00022   2.60099
    R2        2.67839  -0.00015   0.00000  -0.00062  -0.00061   2.67778
    R3        2.52883   0.00008   0.00000   0.00107   0.00107   2.52990
    R4        2.66825  -0.00009   0.00000  -0.00008  -0.00008   2.66816
    R5        2.04245   0.00044   0.00000   0.00231   0.00231   2.04476
    R6        2.65335   0.00022   0.00000   0.00045   0.00043   2.65378
    R7        2.70833  -0.00014   0.00000  -0.00011  -0.00012   2.70822
    R8        2.65924  -0.00027   0.00000  -0.00056  -0.00057   2.65867
    R9        2.59393  -0.00022   0.00000  -0.00031  -0.00031   2.59361
   R10        2.57201  -0.00008   0.00000   0.00005   0.00006   2.57207
   R11        2.04640   0.00001   0.00000   0.00001   0.00001   2.04641
   R12        2.04360   0.00003   0.00000   0.00005   0.00005   2.04365
   R13        2.58334   0.00004   0.00000   0.00017   0.00017   2.58352
   R14        2.85209   0.00017   0.00000   0.00320   0.00320   2.85529
   R15        2.66407  -0.00008   0.00000  -0.00074  -0.00073   2.66334
   R16        2.04310   0.00001   0.00000  -0.00001  -0.00001   2.04308
   R17        2.54176  -0.00011   0.00000  -0.00134  -0.00133   2.54043
   R18        4.21232  -0.00006   0.00000   0.01312   0.01312   4.22544
   R19        2.04205  -0.00005   0.00000  -0.00034  -0.00034   2.04172
   R20        1.91138  -0.00001   0.00000  -0.00004  -0.00004   1.91134
   R21        2.69530  -0.00006   0.00000   0.00016   0.00016   2.69545
   R22        2.06750  -0.00003   0.00000   0.00065   0.00065   2.06815
   R23        2.93056   0.00059   0.00000   0.00793   0.00793   2.93848
   R24        2.67931  -0.00064   0.00000  -0.00476  -0.00476   2.67456
   R25        2.04961   0.00005   0.00000   0.00015   0.00015   2.04976
   R26        2.06286   0.00001   0.00000   0.00010   0.00010   2.06296
   R27        2.06344  -0.00000   0.00000  -0.00006  -0.00006   2.06338
   R28        2.92459  -0.00015   0.00000  -0.00543  -0.00548   2.91910
   R29        2.06605   0.00017   0.00000  -0.00078  -0.00078   2.06527
   R30        2.77576   0.00087   0.00000   0.00331   0.00321   2.77897
   R31        2.89838  -0.00035   0.00000  -0.00135  -0.00129   2.89709
   R32        2.05660   0.00010   0.00000   0.00044   0.00044   2.05704
   R33        2.06200  -0.00003   0.00000   0.00079   0.00079   2.06279
   R34        2.06030  -0.00003   0.00000  -0.00010  -0.00010   2.06019
   R35        2.06078  -0.00011   0.00000   0.00115   0.00115   2.06193
   R36        2.92453  -0.00002   0.00000  -0.00121  -0.00116   2.92337
   R37        2.77823   0.00049   0.00000   0.00178   0.00181   2.78004
   R38        2.93198  -0.00026   0.00000  -0.00037  -0.00037   2.93161
   R39        2.06176   0.00012   0.00000   0.00075   0.00075   2.06251
   R40        2.06949   0.00003   0.00000   0.00094   0.00094   2.07044
   R41        2.77273   0.00015   0.00000   0.00113   0.00119   2.77392
   R42        2.89521  -0.00017   0.00000  -0.00153  -0.00150   2.89371
   R43        2.90130   0.00001   0.00000   0.00150   0.00143   2.90274
   R44        2.05997   0.00003   0.00000  -0.00021  -0.00021   2.05976
   R45        2.06292  -0.00003   0.00000   0.00028   0.00028   2.06320
   R46        2.06199   0.00002   0.00000  -0.00023  -0.00023   2.06176
   R47        2.06904   0.00001   0.00000  -0.00038  -0.00038   2.06866
   R48        2.88728   0.00015   0.00000   0.00113   0.00113   2.88841
   R49        2.07120   0.00013   0.00000   0.00056   0.00056   2.07177
   R50        2.06781  -0.00000   0.00000  -0.00014  -0.00014   2.06767
   R51        2.87872  -0.00017   0.00000  -0.00033  -0.00033   2.87840
   R52        2.05957  -0.00003   0.00000  -0.00010  -0.00010   2.05947
   R53        2.06330   0.00000   0.00000   0.00002   0.00002   2.06332
   R54        2.06178   0.00004   0.00000   0.00011   0.00011   2.06190
   R55        1.81876  -0.00004   0.00000  -0.00034  -0.00034   1.81842
   R56        2.50094   0.00007   0.00000   0.00004   0.00004   2.50098
   R57        2.49308   0.00010   0.00000  -0.00020  -0.00020   2.49289
   R58        2.05690   0.00000   0.00000   0.00017   0.00017   2.05707
    A1        2.10091   0.00016   0.00000   0.00104   0.00103   2.10194
    A2        2.17770  -0.00010   0.00000  -0.00095  -0.00094   2.17676
    A3        2.00458  -0.00006   0.00000  -0.00009  -0.00009   2.00448
    A4        2.09209  -0.00019   0.00000  -0.00122  -0.00124   2.09085
    A5        2.10341   0.00021   0.00000   0.00278   0.00279   2.10620
    A6        2.08751  -0.00002   0.00000  -0.00166  -0.00165   2.08585
    A7        2.07335   0.00006   0.00000   0.00087   0.00085   2.07420
    A8        2.14301   0.00007   0.00000  -0.00071  -0.00068   2.14233
    A9        2.06672  -0.00014   0.00000  -0.00026  -0.00030   2.06642
   A10        2.11040  -0.00003   0.00000  -0.00028  -0.00028   2.11012
   A11        2.07646   0.00014   0.00000   0.00049   0.00046   2.07692
   A12        2.09630  -0.00011   0.00000  -0.00023  -0.00019   2.09610
   A13        2.08347   0.00002   0.00000  -0.00001  -0.00003   2.08345
   A14        2.09480  -0.00002   0.00000  -0.00005  -0.00004   2.09475
   A15        2.10491   0.00000   0.00000   0.00006   0.00007   2.10498
   A16        2.10592  -0.00001   0.00000  -0.00014  -0.00015   2.10577
   A17        2.06021   0.00004   0.00000   0.00042   0.00042   2.06063
   A18        2.11703  -0.00002   0.00000  -0.00026  -0.00026   2.11678
   A19        2.09075  -0.00006   0.00000  -0.00081  -0.00086   2.08988
   A20        2.07811   0.00060   0.00000   0.00232   0.00231   2.08043
   A21        2.11431  -0.00054   0.00000  -0.00145  -0.00145   2.11286
   A22        2.13230   0.00001   0.00000  -0.00079  -0.00079   2.13151
   A23        2.07165  -0.00009   0.00000   0.00017   0.00017   2.07181
   A24        1.71113   0.00010   0.00000   0.00164   0.00164   1.71277
   A25        2.02591   0.00001   0.00000   0.00012   0.00013   2.02604
   A26        1.57794  -0.00005   0.00000  -0.00091  -0.00091   1.57703
   A27        1.72854   0.00012   0.00000   0.00063   0.00063   1.72916
   A28        2.10007   0.00014   0.00000   0.00021   0.00018   2.10025
   A29        2.10112  -0.00001   0.00000   0.00033   0.00033   2.10145
   A30        2.08069  -0.00013   0.00000  -0.00010  -0.00010   2.08058
   A31        2.14784  -0.00001   0.00000  -0.00092  -0.00095   2.14689
   A32        2.05532  -0.00000   0.00000  -0.00007  -0.00006   2.05527
   A33        2.07383   0.00002   0.00000   0.00085   0.00087   2.07470
   A34        2.05628  -0.00028   0.00000  -0.00198  -0.00198   2.05430
   A35        1.87978   0.00063   0.00000  -0.00191  -0.00193   1.87785
   A36        1.93404  -0.00216   0.00000  -0.00994  -0.00994   1.92409
   A37        1.94173   0.00005   0.00000   0.00124   0.00126   1.94300
   A38        1.84753   0.00010   0.00000   0.00060   0.00056   1.84810
   A39        1.91409  -0.00044   0.00000   0.00228   0.00227   1.91636
   A40        1.94315   0.00179   0.00000   0.00751   0.00750   1.95066
   A41        1.84676  -0.00000   0.00000   0.00007   0.00007   1.84682
   A42        1.93400  -0.00009   0.00000  -0.00131  -0.00131   1.93268
   A43        1.93463   0.00002   0.00000   0.00107   0.00107   1.93570
   A44        1.91555   0.00004   0.00000   0.00106   0.00106   1.91661
   A45        1.91699   0.00010   0.00000   0.00127   0.00127   1.91826
   A46        1.91491  -0.00006   0.00000  -0.00202  -0.00202   1.91289
   A47        1.99267   0.00143   0.00000   0.01439   0.01489   2.00756
   A48        1.87705  -0.00107   0.00000  -0.00596  -0.00619   1.87086
   A49        1.90438  -0.00008   0.00000   0.00092   0.00148   1.90587
   A50        1.89457  -0.00014   0.00000  -0.00812  -0.00792   1.88666
   A51        1.95738  -0.00076   0.00000  -0.00554  -0.00677   1.95061
   A52        1.82880   0.00053   0.00000   0.00317   0.00335   1.83216
   A53        1.86944   0.00073   0.00000   0.00040  -0.00118   1.86826
   A54        1.94545  -0.00016   0.00000   0.00047   0.00087   1.94632
   A55        1.92963  -0.00047   0.00000  -0.00630  -0.00578   1.92385
   A56        1.90029  -0.00004   0.00000   0.00533   0.00577   1.90606
   A57        1.94287  -0.00020   0.00000   0.00153   0.00203   1.94489
   A58        1.87677   0.00013   0.00000  -0.00121  -0.00149   1.87528
   A59        1.86764  -0.00002   0.00000   0.00103   0.00085   1.86849
   A60        1.94764  -0.00006   0.00000  -0.00049  -0.00006   1.94758
   A61        1.87772  -0.00003   0.00000   0.00366   0.00409   1.88181
   A62        1.93597  -0.00006   0.00000  -0.00070  -0.00042   1.93555
   A63        1.89441   0.00005   0.00000  -0.00420  -0.00375   1.89066
   A64        1.93769   0.00011   0.00000   0.00072  -0.00065   1.93704
   A65        1.94591  -0.00010   0.00000   0.00139   0.00177   1.94768
   A66        1.92069   0.00009   0.00000  -0.00097  -0.00065   1.92005
   A67        1.96089   0.00004   0.00000  -0.00291  -0.00426   1.95663
   A68        1.87165   0.00001   0.00000   0.00130   0.00112   1.87277
   A69        1.87496   0.00014   0.00000   0.00133   0.00171   1.87667
   A70        1.88634  -0.00018   0.00000   0.00007   0.00054   1.88689
   A71        1.88747   0.00014   0.00000  -0.00407  -0.00422   1.88325
   A72        1.92907  -0.00019   0.00000   0.00051   0.00023   1.92930
   A73        1.91545   0.00008   0.00000   0.00243   0.00263   1.91807
   A74        1.89385   0.00003   0.00000  -0.00192  -0.00212   1.89173
   A75        1.91334  -0.00009   0.00000   0.00239   0.00259   1.91592
   A76        1.92414   0.00003   0.00000   0.00055   0.00077   1.92490
   A77        1.89205  -0.00012   0.00000  -0.00412  -0.00548   1.88657
   A78        1.93194   0.00015   0.00000   0.00247   0.00283   1.93478
   A79        1.93225  -0.00002   0.00000  -0.00086  -0.00042   1.93183
   A80        1.91293  -0.00003   0.00000   0.00224   0.00266   1.91559
   A81        1.92265   0.00006   0.00000   0.00140   0.00180   1.92444
   A82        1.87218  -0.00004   0.00000  -0.00099  -0.00122   1.87097
   A83        1.86681   0.00005   0.00000  -0.00084  -0.00174   1.86507
   A84        1.90410   0.00008   0.00000  -0.00094  -0.00075   1.90335
   A85        1.94466  -0.00021   0.00000   0.00145   0.00185   1.94651
   A86        1.87369  -0.00017   0.00000   0.00022   0.00046   1.87415
   A87        1.99477   0.00017   0.00000  -0.00158  -0.00126   1.99351
   A88        1.87733   0.00007   0.00000   0.00162   0.00138   1.87871
   A89        1.92088   0.00020   0.00000  -0.00400  -0.00437   1.91651
   A90        1.89712   0.00006   0.00000  -0.00466  -0.00485   1.89227
   A91        1.89754  -0.00030   0.00000   0.00179   0.00165   1.89919
   A92        1.91247   0.00018   0.00000   0.00215   0.00215   1.91462
   A93        1.88442   0.00004   0.00000   0.00029   0.00029   1.88471
   A94        1.99204  -0.00026   0.00000  -0.00244  -0.00244   1.98960
   A95        1.84332  -0.00008   0.00000  -0.00044  -0.00044   1.84288
   A96        1.91740  -0.00002   0.00000  -0.00140  -0.00140   1.91600
   A97        1.90802   0.00015   0.00000   0.00203   0.00203   1.91006
   A98        1.93856   0.00005   0.00000   0.00082   0.00082   1.93938
   A99        1.93450   0.00007   0.00000   0.00053   0.00053   1.93503
   A100       1.95408  -0.00031   0.00000  -0.00284  -0.00284   1.95124
   A101       1.87992  -0.00002   0.00000   0.00016   0.00015   1.88007
   A102       1.87577   0.00010   0.00000   0.00086   0.00086   1.87662
   A103       1.87784   0.00012   0.00000   0.00057   0.00057   1.87841
   A104       1.90144   0.00010   0.00000   0.00245   0.00245   1.90389
   A105       1.75626   0.00014   0.00000   0.00089   0.00089   1.75715
   A106       1.81805   0.00015   0.00000   0.00485   0.00485   1.82290
   A107       1.92004   0.00001   0.00000  -0.00427  -0.00426   1.91578
   A108       1.94023  -0.00007   0.00000   0.00036   0.00035   1.94058
   A109       2.00239  -0.00008   0.00000  -0.00097  -0.00097   2.00142
   A110       2.00106  -0.00009   0.00000  -0.00033  -0.00033   2.00073
    D1        0.00073   0.00001   0.00000   0.00096   0.00096   0.00169
    D2        3.12145  -0.00016   0.00000  -0.00415  -0.00416   3.11729
    D3       -3.13855   0.00006   0.00000   0.00232   0.00232  -3.13623
    D4       -0.01783  -0.00011   0.00000  -0.00279  -0.00280  -0.02063
    D5       -0.01376   0.00004   0.00000   0.00677   0.00677  -0.00699
    D6        3.13539   0.00002   0.00000   0.00304   0.00304   3.13843
    D7        3.12574  -0.00001   0.00000   0.00554   0.00554   3.13128
    D8       -0.00829  -0.00003   0.00000   0.00181   0.00181  -0.00649
    D9        0.01212  -0.00022   0.00000  -0.01315  -0.01315  -0.00103
   D10       -3.12728  -0.00016   0.00000  -0.01186  -0.01186  -3.13914
   D11        0.01678  -0.00003   0.00000  -0.01055  -0.01055   0.00623
   D12       -3.14040  -0.00033   0.00000  -0.01859  -0.01859   3.12420
   D13       -3.10413   0.00013   0.00000  -0.00554  -0.00555  -3.10968
   D14        0.02188  -0.00017   0.00000  -0.01358  -0.01358   0.00829
   D15       -0.02211   0.00002   0.00000   0.01289   0.01289  -0.00922
   D16        3.11066  -0.00010   0.00000   0.01082   0.01083   3.12148
   D17        3.13438   0.00031   0.00000   0.02058   0.02058  -3.12823
   D18       -0.01604   0.00019   0.00000   0.01851   0.01852   0.00248
   D19       -3.13741   0.00020   0.00000  -0.01252  -0.01252   3.13326
   D20        0.00952  -0.00015   0.00000  -0.02400  -0.02401  -0.01449
   D21       -0.01135  -0.00010   0.00000  -0.02052  -0.02051  -0.03186
   D22        3.13558  -0.00044   0.00000  -0.03200  -0.03200   3.10358
   D23        0.00950   0.00002   0.00000  -0.00540  -0.00540   0.00410
   D24       -3.12856  -0.00004   0.00000  -0.00531  -0.00531  -3.13387
   D25       -3.12317   0.00014   0.00000  -0.00332  -0.00331  -3.12648
   D26        0.02195   0.00008   0.00000  -0.00322  -0.00322   0.01873
   D27        0.11867  -0.00008   0.00000  -0.00430  -0.00430   0.11437
   D28        3.13928  -0.00002   0.00000  -0.00557  -0.00557   3.13371
   D29       -3.03167  -0.00020   0.00000  -0.00635  -0.00635  -3.03803
   D30       -0.01106  -0.00013   0.00000  -0.00762  -0.00762  -0.01868
   D31        0.00853  -0.00005   0.00000  -0.00451  -0.00451   0.00402
   D32       -3.14087  -0.00003   0.00000  -0.00065  -0.00065  -3.14152
   D33       -3.13661   0.00001   0.00000  -0.00461  -0.00460  -3.14122
   D34       -0.00283   0.00003   0.00000  -0.00074  -0.00074  -0.00357
   D35       -0.05581  -0.00010   0.00000   0.00819   0.00820  -0.04760
   D36        3.14119  -0.00007   0.00000  -0.00125  -0.00125   3.13994
   D37        3.08034   0.00026   0.00000   0.01993   0.01992   3.10026
   D38       -0.00585   0.00029   0.00000   0.01048   0.01047   0.00462
   D39        0.75242   0.00065   0.00000   0.07037   0.07038   0.82280
   D40       -1.26083   0.00132   0.00000   0.07605   0.07604  -1.18478
   D41        2.85059   0.00054   0.00000   0.07269   0.07269   2.92328
   D42       -2.38376   0.00029   0.00000   0.05873   0.05874  -2.32503
   D43        1.88618   0.00097   0.00000   0.06440   0.06440   1.95058
   D44       -0.28559   0.00019   0.00000   0.06105   0.06104  -0.22455
   D45        2.93477   0.00002   0.00000   0.00480   0.00480   2.93957
   D46       -0.26158  -0.00001   0.00000   0.01415   0.01415  -0.24743
   D47        0.15186   0.00020   0.00000   0.00639   0.00638   0.15824
   D48       -3.04449   0.00017   0.00000   0.01574   0.01573  -3.02876
   D49       -1.68008   0.00003   0.00000   0.00461   0.00461  -1.67548
   D50        1.40675  -0.00000   0.00000   0.01396   0.01396   1.42071
   D51       -0.18578  -0.00010   0.00000  -0.00844  -0.00844  -0.19422
   D52        3.07801  -0.00016   0.00000  -0.00710  -0.00710   3.07091
   D53       -2.99021   0.00008   0.00000  -0.00676  -0.00676  -2.99697
   D54        0.27358   0.00001   0.00000  -0.00542  -0.00542   0.26816
   D55        1.63618   0.00007   0.00000  -0.00607  -0.00607   1.63011
   D56       -1.38322   0.00000   0.00000  -0.00473  -0.00473  -1.38794
   D57        2.94465  -0.00005   0.00000  -0.02753  -0.02753   2.91711
   D58        0.93349  -0.00007   0.00000  -0.02983  -0.02984   0.90365
   D59       -1.21938  -0.00006   0.00000  -0.03005  -0.03005  -1.24943
   D60       -1.19877  -0.00003   0.00000  -0.02833  -0.02833  -1.22710
   D61        3.07326  -0.00005   0.00000  -0.03063  -0.03064   3.04262
   D62        0.92039  -0.00005   0.00000  -0.03085  -0.03085   0.88954
   D63        0.83459  -0.00001   0.00000  -0.02832  -0.02832   0.80627
   D64       -1.17657  -0.00004   0.00000  -0.03062  -0.03062  -1.20720
   D65        2.95374  -0.00003   0.00000  -0.03083  -0.03083   2.92291
   D66        3.13221  -0.00007   0.00000  -0.00682  -0.00682   3.12540
   D67       -1.07564  -0.00007   0.00000  -0.00621  -0.00621  -1.08186
   D68        1.05482  -0.00020   0.00000  -0.00895  -0.00895   1.04588
   D69       -1.75007   0.00004   0.00000  -0.06963  -0.06996  -1.82003
   D70        0.35320   0.00000   0.00000  -0.07502  -0.07503   0.27816
   D71        2.32766   0.00004   0.00000  -0.07393  -0.07356   2.25409
   D72        2.49986   0.00033   0.00000  -0.06266  -0.06300   2.43686
   D73       -1.68006   0.00029   0.00000  -0.06806  -0.06807  -1.74813
   D74        0.29441   0.00033   0.00000  -0.06697  -0.06661   0.22780
   D75        0.42089  -0.00018   0.00000  -0.06984  -0.07020   0.35070
   D76        2.52416  -0.00021   0.00000  -0.07524  -0.07527   2.44889
   D77       -1.78456  -0.00018   0.00000  -0.07415  -0.07380  -1.85836
   D78       -1.52971  -0.00063   0.00000  -0.01743  -0.01743  -1.54714
   D79        0.54806  -0.00009   0.00000  -0.01757  -0.01758   0.53048
   D80        2.58686   0.00083   0.00000  -0.01093  -0.01093   2.57593
   D81       -2.32452  -0.00046   0.00000  -0.09615  -0.09610  -2.42062
   D82       -0.24754  -0.00014   0.00000  -0.08915  -0.08931  -0.33685
   D83        1.83900  -0.00039   0.00000  -0.09455  -0.09444   1.74456
   D84        1.86520   0.00008   0.00000  -0.09208  -0.09212   1.77309
   D85       -2.34100   0.00040   0.00000  -0.08508  -0.08533  -2.42633
   D86       -0.25446   0.00014   0.00000  -0.09048  -0.09046  -0.34492
   D87       -0.14697  -0.00006   0.00000  -0.08788  -0.08767  -0.23464
   D88        1.93000   0.00026   0.00000  -0.08088  -0.08088   1.84913
   D89       -2.26664   0.00001   0.00000  -0.08628  -0.08600  -2.35265
   D90        1.27702   0.00146   0.00000   0.07238   0.07263   1.34965
   D91       -2.92982   0.00125   0.00000   0.06938   0.06917  -2.86065
   D92       -0.94852   0.00022   0.00000   0.05690   0.05698  -0.89154
   D93        1.12782   0.00001   0.00000   0.05391   0.05353   1.18135
   D94       -3.00033   0.00046   0.00000   0.06753   0.06787  -2.93247
   D95       -0.92399   0.00025   0.00000   0.06453   0.06441  -0.85958
   D96        1.12288   0.00014   0.00000   0.05027   0.04997   1.17285
   D97       -0.94791   0.00013   0.00000   0.05477   0.05494  -0.89297
   D98       -3.07377   0.00016   0.00000   0.05214   0.05209  -3.02168
   D99       -0.98303  -0.00008   0.00000   0.04648   0.04636  -0.93667
   D100      -3.05382  -0.00008   0.00000   0.05099   0.05134  -3.00249
   D101       1.10350  -0.00005   0.00000   0.04835   0.04848   1.15199
   D102      -3.04900  -0.00009   0.00000   0.04371   0.04332  -3.00568
   D103       1.16339  -0.00010   0.00000   0.04821   0.04830   1.21169
   D104      -0.96246  -0.00006   0.00000   0.04558   0.04544  -0.91702
   D105      -2.18579   0.00003   0.00000  -0.08950  -0.08938  -2.27518
   D106      -0.08716   0.00001   0.00000  -0.08785  -0.08787  -0.17503
   D107       1.98661   0.00004   0.00000  -0.08806  -0.08784   1.89877
   D108       2.01669   0.00013   0.00000  -0.09000  -0.09013   1.92656
   D109      -2.16786   0.00011   0.00000  -0.08836  -0.08862  -2.25648
   D110      -0.09409   0.00015   0.00000  -0.08856  -0.08859  -0.18268
   D111      -0.09119   0.00003   0.00000  -0.08470  -0.08468  -0.17587
   D112       2.00744   0.00001   0.00000  -0.08306  -0.08316   1.92428
   D113      -2.20197   0.00004   0.00000  -0.08326  -0.08314  -2.28511
   D114      -3.06286  -0.00000   0.00000   0.05026   0.04984  -3.01302
   D115       1.14424  -0.00001   0.00000   0.05720   0.05730   1.20154
   D116      -1.04763  -0.00001   0.00000   0.05123   0.05104  -0.99659
   D117      -3.12372  -0.00003   0.00000   0.05817   0.05851  -3.06521
   D118       1.08461   0.00002   0.00000   0.04803   0.04763   1.13224
   D119      -0.99148   0.00001   0.00000   0.05497   0.05509  -0.93638
   D120       2.01128  -0.00005   0.00000  -0.07334  -0.07347   1.93781
   D121      -0.01022   0.00007   0.00000  -0.07267  -0.07271  -0.08293
   D122      -2.08036   0.00006   0.00000  -0.07496  -0.07507  -2.15543
   D123      -2.19736  -0.00005   0.00000  -0.07147  -0.07137  -2.26873
   D124       2.06432   0.00008   0.00000  -0.07080  -0.07061   1.99372
   D125      -0.00582   0.00006   0.00000  -0.07309  -0.07296  -0.07878
   D126      -0.09461  -0.00019   0.00000  -0.07399  -0.07394  -0.16856
   D127      -2.11611  -0.00006   0.00000  -0.07333  -0.07318  -2.18929
   D128       2.09693  -0.00008   0.00000  -0.07562  -0.07554   2.02140
   D129      -0.97990  -0.00008   0.00000   0.04535   0.04569  -0.93421
   D130       1.11103   0.00002   0.00000   0.03885   0.03856   1.14959
   D131      -3.12621  -0.00008   0.00000   0.04455   0.04501  -3.08120
   D132      -1.03528   0.00002   0.00000   0.03805   0.03788  -0.99740
   D133       1.14258  -0.00007   0.00000   0.04232   0.04255   1.18513
   D134      -3.04968   0.00003   0.00000   0.03582   0.03542  -3.01426
   D135      -0.99463   0.00020   0.00000   0.05026   0.05046  -0.94417
   D136      -3.10507   0.00011   0.00000   0.04843   0.04878  -3.05628
   D137       1.12208   0.00013   0.00000   0.04746   0.04758   1.16967
   D138       1.09843   0.00006   0.00000   0.04743   0.04712   1.14556
   D139      -1.01201  -0.00003   0.00000   0.04560   0.04545  -0.96656
   D140      -3.06804  -0.00001   0.00000   0.04463   0.04425  -3.02380
   D141      -3.08249   0.00006   0.00000   0.04836   0.04831  -3.03418
   D142       1.09026  -0.00003   0.00000   0.04653   0.04663   1.13689
   D143      -0.96578  -0.00000   0.00000   0.04556   0.04543  -0.92035
   D144       1.08188  -0.00004   0.00000   0.03512   0.03494   1.11682
   D145       3.12355   0.00000   0.00000   0.03372   0.03343  -3.12621
   D146      -1.07915   0.00009   0.00000   0.03494   0.03471  -1.04444
   D147      -0.98503  -0.00011   0.00000   0.04094   0.04122  -0.94381
   D148       1.05664  -0.00007   0.00000   0.03954   0.03970   1.09634
   D149       3.13713   0.00001   0.00000   0.04076   0.04098  -3.10507
   D150      -3.08058  -0.00004   0.00000   0.03887   0.03891  -3.04167
   D151      -1.03891  -0.00000   0.00000   0.03747   0.03739  -1.00152
   D152       1.04158   0.00008   0.00000   0.03869   0.03867   1.08025
   D153      -0.99252   0.00005   0.00000   0.01690   0.01722  -0.97530
   D154       1.00695   0.00008   0.00000   0.01765   0.01797   1.02492
   D155       3.13219   0.00012   0.00000   0.01885   0.01917  -3.13182
   D156       1.12613   0.00008   0.00000   0.01574   0.01542   1.14155
   D157       3.12560   0.00010   0.00000   0.01649   0.01616  -3.14142
   D158      -1.03234   0.00015   0.00000   0.01769   0.01737  -1.01497
   D159      -3.07862   0.00003   0.00000   0.01617   0.01618  -3.06244
   D160      -1.07915   0.00005   0.00000   0.01692   0.01693  -1.06223
   D161       1.04609   0.00010   0.00000   0.01812   0.01813   1.06422
   D162      -3.03927  -0.00001   0.00000  -0.00105  -0.00105  -3.04031
   D163      -0.95006   0.00004   0.00000   0.00004   0.00004  -0.95002
   D164       1.14685   0.00003   0.00000  -0.00078  -0.00078   1.14607
   D165       1.08811  -0.00005   0.00000  -0.00101  -0.00101   1.08710
   D166      -3.10587   0.00000   0.00000   0.00008   0.00008  -3.10579
   D167      -1.00896  -0.00001   0.00000  -0.00074  -0.00074  -1.00970
   D168      -0.92708  -0.00003   0.00000  -0.00084  -0.00084  -0.92792
   D169       1.16213   0.00003   0.00000   0.00025   0.00025   1.16238
   D170      -3.02415   0.00002   0.00000  -0.00057  -0.00057  -3.02472
         Item               Value     Threshold  Converged?
 Maximum Force            0.002162     0.000450     NO 
 RMS     Force            0.000294     0.000300     YES
 Maximum Displacement     0.698114     0.001800     NO 
 RMS     Displacement     0.150695     0.001200     NO 
 Predicted change in Energy=-4.692207D-04
 GradGradGradGradGradGradGradGradGradGradGradGradGradGradGradGradGradGrad

 Leave Link  103 at Mon Dec  1 22:46:14 2025, MaxMem=   104857600 cpu:               0.0 elap:               0.0
 (Enter /home/zhouoh/g16/l202.exe)
 Stoichiometry    C21H28F2N2O2(1+,2)
 Framework group  C1[X(C21H28F2N2O2)]
 Deg. of freedom   159
 Full point group                 C1      NOp   1
 RotChk:  IX=0 Diff= 7.41D-02
 Largest Abelian subgroup         C1      NOp   1
 Largest concise Abelian subgroup C1      NOp   1
                         Standard orientation:                         
 ---------------------------------------------------------------------
 Center     Atomic      Atomic             Coordinates (Angstroms)
 Number     Number       Type             X           Y           Z
 ---------------------------------------------------------------------
      1          6           0        1.265940    2.860858   -0.136518
      2          6           0        0.813355    1.590898   -0.413653
      3          6           0        1.471702    0.473883    0.145281
      4          6           0        2.577491    0.688873    0.983808
      5          6           0        3.034100    1.991108    1.257826
      6          6           0        2.389740    3.054714    0.704579
      7          1           0       -0.057826    1.439140   -1.037213
      8          6           0        1.042040   -0.873959   -0.083985
      9          1           0        3.892645    2.140120    1.900782
     10          1           0        2.714407    4.068692    0.894278
     11          6           0        2.894100   -1.664074    1.237886
     12          6           0        1.731507   -1.910876    0.480380
     13          1           0        3.357342   -2.428772    1.845780
     14          1           0        1.416105   -2.931067    0.315878
     15          7           0        3.205122   -0.393496    1.547952
     16          8           0        0.714648    3.986417   -0.607137
     17          6           0       -0.175704   -1.123426   -0.942965
     18          1           0       -0.072938   -0.515387   -1.847106
     19          6           0       -0.423179    3.861946   -1.458250
     20          1           0       -0.717422    4.875516   -1.708535
     21          1           0       -0.167360    3.315554   -2.368061
     22          1           0       -1.241088    3.353721   -0.943509
     23          6           0       -1.455024   -0.606864   -0.225706
     24          6           0       -2.347379   -1.706523    0.391239
     25          1           0       -1.128568    0.056614    0.579059
     26          6           0       -2.940904   -0.572090   -2.118838
     27          6           0       -3.179631    1.032651   -0.363928
     28          6           0       -3.802012   -1.323184    0.095585
     29          1           0       -2.138263   -2.681710   -0.044878
     30          1           0       -2.165138   -1.782270    1.464832
     31          1           0       -3.379994    0.094610   -2.861310
     32          1           0       -2.220487   -1.203168   -2.641619
     33          6           0       -4.019120   -1.430694   -1.416415
     34          6           0       -4.074604    0.127006    0.522350
     35          1           0       -3.773489    1.620244   -1.066276
     36          1           0       -2.623483    1.738581    0.262779
     37          1           0       -4.477629   -2.003191    0.614408
     38          1           0       -5.021433   -1.080676   -1.671120
     39          1           0       -3.950397   -2.471942   -1.734915
     40          1           0       -5.125920    0.340033    0.303946
     41          7           0       -2.210669    0.255695   -1.146336
     42          6           0       -3.846621    0.396371    2.009533
     43          1           0       -2.784145    0.271191    2.249152
     44          1           0       -4.068733    1.450713    2.199852
     45          6           0       -4.689263   -0.473873    2.932959
     46          1           0       -4.566852   -0.175146    3.973867
     47          1           0       -5.749486   -0.390400    2.685738
     48          1           0       -4.414736   -1.527291    2.859040
     49          8           0       -0.286582   -2.489958   -1.294271
     50          1           0        0.202429   -2.646273   -2.108145
     51          6           0        4.402730   -2.012808   -0.375231
     52          9           0        5.489998   -1.518417    0.194834
     53          9           0        3.999225   -1.250647   -1.373495
     54          1           0        4.454412   -3.075032   -0.607530
     55          1           0        4.003756   -0.217514    2.143116
 ---------------------------------------------------------------------
 Rotational constants (GHZ):           0.2729886           0.1270816           0.1070902
 Leave Link  202 at Mon Dec  1 22:46:14 2025, MaxMem=   104857600 cpu:               0.0 elap:               0.0
 (Enter /home/zhouoh/g16/l301.exe)
 Standard basis: STO-3G (5D, 7F)
 Ernie: Thresh=  0.10000D-02 Tol=  0.10000D-05 Strict=F.
 There are   163 symmetry adapted cartesian basis functions of A   symmetry.
 There are   163 symmetry adapted basis functions of A   symmetry.
   163 basis functions,   489 primitive gaussians,   163 cartesian basis functions
   101 alpha electrons      100 beta electrons
       nuclear repulsion energy      2711.3702184238 Hartrees.
 IExCor=    0 DFT=F Ex=HF Corr=None ExCW=0 ScaHFX=  1.000000
 ScaDFX=  1.000000  1.000000  1.000000  1.000000 ScalE2=  1.000000  1.000000
 IRadAn=      5 IRanWt=     -1 IRanGd=            0 ICorTp=0 IEmpDi=  4
 NAtoms=   55 NActive=   55 NUniq=   55 SFac= 1.00D+00 NAtFMM=   60 NAOKFM=F Big=F
 Integral buffers will be    131072 words long.
 Raffenetti 2 integral format.
 Two-electron integral symmetry is turned on.
 Leave Link  301 at Mon Dec  1 22:46:14 2025, MaxMem=   104857600 cpu:               0.0 elap:               0.0
 (Enter /home/zhouoh/g16/l402.exe)
 External calculation of energy, first and second derivatives.
 Running external command "python ../GauUMA_client.py R"
         input file       "/home/zhouoh/scratch/Gau-3548948.EIn"
         output file      "/home/zhouoh/scratch/Gau-3548948.EOu"
         message file     "/home/zhouoh/scratch/Gau-3548948.EMs"
         fchk file        "/home/zhouoh/scratch/Gau-3548948.EFC"
         mat. el file     "/home/zhouoh/scratch/Gau-3548948.EUF"
Sent job to server.
Received result from server:
SCF Done:  E(UMA) =  -1276.443529397746     A.U.
 Recovered energy= -1276.44352940     dipole=      0.000000000000      0.000000000000      0.000000000000
 Energy=    -1276.44353     NIter=   0.
 Dipole moment=       0.000000       0.000000       0.000000
 Leave Link  402 at Mon Dec  1 22:46:25 2025, MaxMem=   104857600 cpu:               0.0 elap:              10.8
 (Enter /home/zhouoh/g16/l716.exe)
 Dipole        = 0.00000000D+00 0.00000000D+00 0.00000000D+00
 ***** Axes restored to original set *****
 -------------------------------------------------------------------
 Center     Atomic                   Forces (Hartrees/Bohr)
 Number     Number              X              Y              Z
 -------------------------------------------------------------------
      1        6           0.000045712   -0.000050776    0.000009182
      2        6           0.000245481    0.000119634   -0.000038404
      3        6           0.000054682   -0.000011811    0.000001361
      4        6           0.000037344    0.000007437    0.000037080
      5        6          -0.000043696    0.000001756   -0.000005458
      6        6           0.000056417    0.000026851    0.000006543
      7        1           0.000065801    0.000023159   -0.000041483
      8        6           0.000016382    0.000152663   -0.000005319
      9        1           0.000003890    0.000002831    0.000014028
     10        1           0.000007593    0.000004432    0.000001328
     11        6          -0.000008386   -0.000046911    0.000001893
     12        6           0.000033324    0.000030697   -0.000098800
     13        1          -0.000023416   -0.000024898   -0.000018859
     14        1           0.000003506   -0.000005264    0.000036704
     15        7           0.000039809    0.000013687    0.000024161
     16        8           0.000056427    0.000027644    0.000022987
     17        6          -0.000132753    0.000148335    0.000084538
     18        1          -0.000022927   -0.000108722   -0.000074096
     19        6          -0.000039792    0.000006710   -0.000026263
     20        1           0.000008835    0.000012206   -0.000010611
     21        1           0.000016465    0.000008578   -0.000014121
     22        1           0.000154042    0.000117877   -0.000118061
     23        6           0.000164590   -0.000122139   -0.000042844
     24        6           0.000149112    0.000282099   -0.000058418
     25        1          -0.000090789   -0.000187197   -0.000003652
     26        6          -0.000355766   -0.000005186    0.000067747
     27        6          -0.000033860   -0.000218799    0.000186619
     28        6          -0.000213192   -0.000227004    0.000141903
     29        1           0.000059690   -0.000076407   -0.000152591
     30        1           0.000080762   -0.000084054   -0.000038578
     31        1          -0.000009325   -0.000050162   -0.000063023
     32        1           0.000026447   -0.000004504    0.000073300
     33        6           0.000135195   -0.000053877   -0.000132256
     34        6          -0.000011124    0.000045189   -0.000111889
     35        1          -0.000061162   -0.000074233   -0.000036514
     36        1          -0.000105410   -0.000059959    0.000091700
     37        1          -0.000017042    0.000015777    0.000032913
     38        1           0.000050346    0.000157076    0.000052796
     39        1          -0.000037947    0.000038601   -0.000084327
     40        1          -0.000007853    0.000069336    0.000039316
     41        7           0.000020256    0.000125263   -0.000258303
     42        6           0.000056077   -0.000019025    0.000036931
     43        1          -0.000162883    0.000025376    0.000120467
     44        1          -0.000104437    0.000006041    0.000057405
     45        6          -0.000038181   -0.000005766   -0.000025913
     46        1           0.000003668    0.000005557   -0.000001528
     47        1           0.000031219    0.000000730    0.000014487
     48        1          -0.000006719   -0.000005704   -0.000005309
     49        8          -0.000012086   -0.000064223    0.000318659
     50        1          -0.000050021    0.000000593   -0.000008912
     51        6          -0.000024851    0.000019493   -0.000006336
     52        9          -0.000006778    0.000025849   -0.000009445
     53        9          -0.000021131   -0.000013130   -0.000013409
     54        1           0.000022970    0.000009314    0.000027062
     55        1          -0.000004506   -0.000011042    0.000003608
 -------------------------------------------------------------------
 Cartesian Forces:  Max     0.000355766 RMS     0.000086902
 FormGI is forming the generalized inverse of G from B-inverse, IUseBI=4.
 Leave Link  716 at Mon Dec  1 22:46:25 2025, MaxMem=   104857600 cpu:               0.0 elap:               0.0
 (Enter /home/zhouoh/g16/l103.exe)

 GradGradGradGradGradGradGradGradGradGradGradGradGradGradGradGradGradGrad
 Berny optimization.
 Red2BG is reusing G-inverse.
 Internal  Forces:  Max     0.001825492 RMS     0.000252885
 Search for a saddle point.
 Step number   4 out of a maximum of  330
 All quantities printed in internal units (Hartrees-Bohrs-Radians)
 Swapping is turned off.
 Second derivative matrix not updated -- analytic derivatives used.
 ITU=  0  0  0  0
     Eigenvalues ---   -0.02113   0.00068   0.00109   0.00220   0.00232
     Eigenvalues ---    0.00307   0.00386   0.00530   0.00568   0.00654
     Eigenvalues ---    0.00948   0.01009   0.01319   0.01375   0.01516
     Eigenvalues ---    0.01735   0.01808   0.01855   0.02024   0.02057
     Eigenvalues ---    0.02142   0.02170   0.02251   0.02296   0.02491
     Eigenvalues ---    0.02579   0.02664   0.02816   0.03032   0.03306
     Eigenvalues ---    0.03341   0.03684   0.03813   0.03899   0.03937
     Eigenvalues ---    0.04009   0.04156   0.04216   0.04290   0.04328
     Eigenvalues ---    0.04407   0.04462   0.04488   0.04501   0.04570
     Eigenvalues ---    0.04655   0.04815   0.05138   0.05310   0.05483
     Eigenvalues ---    0.05722   0.05810   0.06159   0.06441   0.06543
     Eigenvalues ---    0.06772   0.06995   0.07127   0.07263   0.07478
     Eigenvalues ---    0.07791   0.07984   0.08306   0.08375   0.08449
     Eigenvalues ---    0.08554   0.09298   0.09783   0.10081   0.10109
     Eigenvalues ---    0.10617   0.10830   0.10973   0.11060   0.11752
     Eigenvalues ---    0.11931   0.12023   0.12383   0.12681   0.13093
     Eigenvalues ---    0.13376   0.14196   0.14334   0.15596   0.15750
     Eigenvalues ---    0.16264   0.17191   0.18121   0.18295   0.18417
     Eigenvalues ---    0.18842   0.19223   0.19366   0.19766   0.20268
     Eigenvalues ---    0.20439   0.20782   0.21442   0.21834   0.22180
     Eigenvalues ---    0.22597   0.23066   0.23893   0.24314   0.25842
     Eigenvalues ---    0.26544   0.27644   0.28644   0.29187   0.29298
     Eigenvalues ---    0.29723   0.30543   0.30812   0.31096   0.31688
     Eigenvalues ---    0.32387   0.32592   0.32704   0.32839   0.33002
     Eigenvalues ---    0.33284   0.33334   0.33540   0.33562   0.33570
     Eigenvalues ---    0.33634   0.33772   0.33898   0.34086   0.34112
     Eigenvalues ---    0.34307   0.34466   0.34673   0.34711   0.34850
     Eigenvalues ---    0.35253   0.35449   0.35522   0.36080   0.36235
     Eigenvalues ---    0.36815   0.36923   0.37314   0.37411   0.37858
     Eigenvalues ---    0.38092   0.39439   0.40249   0.41809   0.43966
     Eigenvalues ---    0.45193   0.46756   0.47951   0.50123   0.51518
     Eigenvalues ---    0.52333   0.53092   0.53321   0.59042
 Eigenvectors required to have negative eigenvalues:
                          R18       D46       D54       D45       D53
   1                    0.88025   0.16936  -0.16484   0.15253  -0.12739
                          D51       D47      A107       D48      A105
   1                    0.12342  -0.11121   0.09602  -0.09439  -0.09309
 RFO step:  Lambda0=5.631832556D-09 Lambda=-1.07343099D-04.
 Linear search not attempted -- option 19 set.
 Iteration  1 RMS(Cart)=  0.02459645 RMS(Int)=  0.00010149
 Iteration  2 RMS(Cart)=  0.00016591 RMS(Int)=  0.00000144
 Iteration  3 RMS(Cart)=  0.00000001 RMS(Int)=  0.00000144
 ITry= 1 IFail=0 DXMaxC= 1.03D-01 DCOld= 1.00D+10 DXMaxT= 3.00D-01 DXLimC= 3.00D+00 Rises=F
 Variable       Old X    -DE/DX   Delta X   Delta X   Delta X     New X
                                 (Linear)    (Quad)   (Total)
    R1        2.60099   0.00032   0.00000   0.00020   0.00020   2.60119
    R2        2.67778  -0.00012   0.00000   0.00000   0.00000   2.67779
    R3        2.52990   0.00013   0.00000  -0.00004  -0.00004   2.52986
    R4        2.66816   0.00032   0.00000  -0.00010  -0.00010   2.66807
    R5        2.04476  -0.00003   0.00000  -0.00003  -0.00003   2.04473
    R6        2.65378   0.00038   0.00000   0.00062   0.00062   2.65440
    R7        2.70822   0.00078   0.00000   0.00004   0.00004   2.70825
    R8        2.65867  -0.00009   0.00000  -0.00007  -0.00007   2.65860
    R9        2.59361  -0.00011   0.00000  -0.00032  -0.00032   2.59329
   R10        2.57207  -0.00026   0.00000  -0.00016  -0.00016   2.57191
   R11        2.04641   0.00001   0.00000   0.00004   0.00004   2.04645
   R12        2.04365   0.00001   0.00000   0.00000   0.00000   2.04366
   R13        2.58352   0.00007   0.00000   0.00008   0.00008   2.58360
   R14        2.85529   0.00052   0.00000   0.00106   0.00106   2.85635
   R15        2.66334  -0.00022   0.00000  -0.00009  -0.00009   2.66325
   R16        2.04308  -0.00000   0.00000   0.00003   0.00003   2.04311
   R17        2.54043  -0.00024   0.00000   0.00026   0.00026   2.54069
   R18        4.22544  -0.00003   0.00000  -0.00248  -0.00248   4.22296
   R19        2.04172  -0.00000   0.00000  -0.00006  -0.00006   2.04166
   R20        1.91134  -0.00000   0.00000  -0.00007  -0.00007   1.91127
   R21        2.69545  -0.00003   0.00000   0.00002   0.00002   2.69547
   R22        2.06815   0.00000   0.00000  -0.00018  -0.00018   2.06797
   R23        2.93848   0.00016   0.00000   0.00008   0.00008   2.93856
   R24        2.67456   0.00001   0.00000   0.00057   0.00057   2.67513
   R25        2.04976   0.00001   0.00000   0.00001   0.00001   2.04977
   R26        2.06296   0.00001   0.00000   0.00007   0.00007   2.06303
   R27        2.06338  -0.00022   0.00000  -0.00026  -0.00026   2.06312
   R28        2.91910   0.00004   0.00000   0.00001   0.00001   2.91911
   R29        2.06527  -0.00015   0.00000   0.00009   0.00009   2.06536
   R30        2.77897   0.00025   0.00000   0.00037   0.00037   2.77934
   R31        2.89709   0.00019   0.00000   0.00054   0.00054   2.89763
   R32        2.05704   0.00013   0.00000   0.00019   0.00019   2.05723
   R33        2.06279  -0.00002   0.00000   0.00002   0.00002   2.06281
   R34        2.06019   0.00002   0.00000   0.00005   0.00005   2.06025
   R35        2.06193  -0.00002   0.00000   0.00017   0.00017   2.06210
   R36        2.92337  -0.00027   0.00000  -0.00111  -0.00111   2.92226
   R37        2.78004   0.00008   0.00000   0.00055   0.00055   2.78058
   R38        2.93161   0.00010   0.00000   0.00034   0.00034   2.93195
   R39        2.06251   0.00002   0.00000   0.00005   0.00005   2.06256
   R40        2.07044  -0.00005   0.00000  -0.00020  -0.00020   2.07023
   R41        2.77392   0.00027   0.00000   0.00114   0.00114   2.77506
   R42        2.89371   0.00004   0.00000   0.00029   0.00029   2.89400
   R43        2.90274   0.00003   0.00000  -0.00036  -0.00036   2.90238
   R44        2.05976   0.00002   0.00000  -0.00007  -0.00007   2.05969
   R45        2.06320   0.00000   0.00000   0.00007   0.00007   2.06327
   R46        2.06176  -0.00002   0.00000  -0.00011  -0.00011   2.06165
   R47        2.06866   0.00002   0.00000   0.00009   0.00009   2.06876
   R48        2.88841   0.00015   0.00000   0.00014   0.00014   2.88855
   R49        2.07177  -0.00014   0.00000  -0.00036  -0.00036   2.07141
   R50        2.06767   0.00003   0.00000   0.00007   0.00007   2.06774
   R51        2.87840  -0.00000   0.00000   0.00022   0.00022   2.87862
   R52        2.05947   0.00000   0.00000   0.00001   0.00001   2.05947
   R53        2.06332  -0.00003   0.00000  -0.00008  -0.00008   2.06323
   R54        2.06190   0.00000   0.00000  -0.00002  -0.00002   2.06188
   R55        1.81842  -0.00002   0.00000   0.00002   0.00002   1.81844
   R56        2.50098  -0.00000   0.00000  -0.00014  -0.00014   2.50084
   R57        2.49289   0.00001   0.00000  -0.00009  -0.00009   2.49280
   R58        2.05707  -0.00001   0.00000  -0.00003  -0.00003   2.05704
    A1        2.10194   0.00008   0.00000   0.00011   0.00011   2.10205
    A2        2.17676   0.00042   0.00000   0.00043   0.00043   2.17719
    A3        2.00448  -0.00049   0.00000  -0.00054  -0.00054   2.00394
    A4        2.09085   0.00005   0.00000   0.00019   0.00019   2.09104
    A5        2.10620  -0.00005   0.00000   0.00052   0.00052   2.10671
    A6        2.08585   0.00001   0.00000  -0.00071  -0.00071   2.08514
    A7        2.07420  -0.00042   0.00000  -0.00040  -0.00040   2.07380
    A8        2.14233   0.00077   0.00000   0.00047   0.00047   2.14280
    A9        2.06642  -0.00034   0.00000  -0.00002  -0.00002   2.06639
   A10        2.11012   0.00023   0.00000   0.00010   0.00010   2.11022
   A11        2.07692   0.00025   0.00000   0.00036   0.00036   2.07727
   A12        2.09610  -0.00048   0.00000  -0.00045  -0.00045   2.09566
   A13        2.08345   0.00008   0.00000   0.00020   0.00020   2.08364
   A14        2.09475  -0.00004   0.00000  -0.00020  -0.00020   2.09455
   A15        2.10498  -0.00004   0.00000   0.00000   0.00000   2.10498
   A16        2.10577  -0.00001   0.00000  -0.00019  -0.00019   2.10558
   A17        2.06063   0.00001   0.00000   0.00004   0.00004   2.06067
   A18        2.11678   0.00000   0.00000   0.00015   0.00015   2.11693
   A19        2.08988  -0.00028   0.00000  -0.00067  -0.00067   2.08921
   A20        2.08043   0.00183   0.00000   0.00340   0.00340   2.08383
   A21        2.11286  -0.00155   0.00000  -0.00273  -0.00273   2.11013
   A22        2.13151  -0.00000   0.00000  -0.00049  -0.00049   2.13102
   A23        2.07181  -0.00001   0.00000  -0.00026  -0.00026   2.07156
   A24        1.71277   0.00000   0.00000  -0.00162  -0.00162   1.71115
   A25        2.02604   0.00001   0.00000   0.00016   0.00015   2.02619
   A26        1.57703   0.00003   0.00000   0.00235   0.00235   1.57938
   A27        1.72916  -0.00004   0.00000   0.00107   0.00107   1.73023
   A28        2.10025   0.00037   0.00000   0.00065   0.00065   2.10090
   A29        2.10145  -0.00016   0.00000  -0.00007  -0.00007   2.10138
   A30        2.08058  -0.00020   0.00000  -0.00062  -0.00062   2.07997
   A31        2.14689  -0.00000   0.00000  -0.00060  -0.00060   2.14628
   A32        2.05527   0.00001   0.00000   0.00000   0.00000   2.05527
   A33        2.07470  -0.00002   0.00000   0.00021   0.00021   2.07491
   A34        2.05430   0.00049   0.00000   0.00040   0.00040   2.05470
   A35        1.87785  -0.00019   0.00000   0.00186   0.00185   1.87971
   A36        1.92409   0.00115   0.00000   0.00104   0.00104   1.92513
   A37        1.94300  -0.00037   0.00000  -0.00253  -0.00253   1.94046
   A38        1.84810   0.00039   0.00000   0.00185   0.00185   1.84994
   A39        1.91636   0.00024   0.00000  -0.00069  -0.00069   1.91567
   A40        1.95066  -0.00115   0.00000  -0.00120  -0.00120   1.94946
   A41        1.84682  -0.00002   0.00000  -0.00005  -0.00005   1.84677
   A42        1.93268  -0.00002   0.00000  -0.00052  -0.00052   1.93217
   A43        1.93570   0.00004   0.00000   0.00038   0.00038   1.93609
   A44        1.91661  -0.00001   0.00000  -0.00006  -0.00006   1.91654
   A45        1.91826  -0.00001   0.00000  -0.00006  -0.00006   1.91820
   A46        1.91289   0.00002   0.00000   0.00029   0.00029   1.91318
   A47        2.00756  -0.00091   0.00000  -0.00239  -0.00238   2.00518
   A48        1.87086   0.00020   0.00000   0.00035   0.00035   1.87121
   A49        1.90587   0.00087   0.00000   0.00205   0.00204   1.90791
   A50        1.88666   0.00022   0.00000   0.00101   0.00101   1.88766
   A51        1.95061  -0.00020   0.00000  -0.00134  -0.00134   1.94927
   A52        1.83216  -0.00010   0.00000   0.00064   0.00064   1.83279
   A53        1.86826   0.00021   0.00000   0.00212   0.00212   1.87038
   A54        1.94632  -0.00022   0.00000  -0.00167  -0.00167   1.94466
   A55        1.92385   0.00002   0.00000   0.00038   0.00038   1.92423
   A56        1.90606   0.00003   0.00000  -0.00121  -0.00121   1.90485
   A57        1.94489  -0.00008   0.00000   0.00086   0.00086   1.94575
   A58        1.87528   0.00003   0.00000  -0.00052  -0.00052   1.87476
   A59        1.86849   0.00002   0.00000  -0.00026  -0.00026   1.86823
   A60        1.94758  -0.00003   0.00000   0.00026   0.00026   1.94784
   A61        1.88181   0.00003   0.00000   0.00111   0.00111   1.88292
   A62        1.93555  -0.00005   0.00000  -0.00070  -0.00070   1.93486
   A63        1.89066  -0.00009   0.00000  -0.00129  -0.00129   1.88937
   A64        1.93704   0.00011   0.00000   0.00084   0.00083   1.93787
   A65        1.94768  -0.00013   0.00000  -0.00175  -0.00175   1.94593
   A66        1.92005  -0.00008   0.00000   0.00052   0.00052   1.92057
   A67        1.95663   0.00016   0.00000   0.00159   0.00159   1.95822
   A68        1.87277   0.00008   0.00000   0.00033   0.00033   1.87310
   A69        1.87667  -0.00008   0.00000  -0.00112  -0.00112   1.87555
   A70        1.88689   0.00006   0.00000   0.00041   0.00041   1.88729
   A71        1.88325   0.00003   0.00000   0.00094   0.00093   1.88418
   A72        1.92930  -0.00005   0.00000   0.00031   0.00031   1.92961
   A73        1.91807   0.00010   0.00000   0.00027   0.00027   1.91834
   A74        1.89173  -0.00003   0.00000  -0.00284  -0.00284   1.88889
   A75        1.91592  -0.00001   0.00000   0.00075   0.00075   1.91667
   A76        1.92490  -0.00005   0.00000   0.00054   0.00054   1.92545
   A77        1.88657   0.00007   0.00000  -0.00003  -0.00004   1.88653
   A78        1.93478  -0.00000   0.00000  -0.00126  -0.00127   1.93351
   A79        1.93183  -0.00010   0.00000   0.00017   0.00017   1.93200
   A80        1.91559  -0.00010   0.00000  -0.00203  -0.00203   1.91356
   A81        1.92444   0.00008   0.00000   0.00261   0.00261   1.92705
   A82        1.87097   0.00004   0.00000   0.00056   0.00056   1.87153
   A83        1.86507  -0.00014   0.00000  -0.00050  -0.00050   1.86456
   A84        1.90335   0.00002   0.00000  -0.00110  -0.00110   1.90226
   A85        1.94651   0.00021   0.00000   0.00273   0.00273   1.94924
   A86        1.87415   0.00006   0.00000  -0.00011  -0.00010   1.87404
   A87        1.99351   0.00001   0.00000   0.00061   0.00061   1.99412
   A88        1.87871  -0.00017   0.00000  -0.00180  -0.00180   1.87691
   A89        1.91651   0.00017   0.00000  -0.00094  -0.00094   1.91556
   A90        1.89227  -0.00008   0.00000  -0.00089  -0.00089   1.89138
   A91        1.89919  -0.00022   0.00000  -0.00009  -0.00010   1.89909
   A92        1.91462   0.00016   0.00000   0.00178   0.00178   1.91639
   A93        1.88471   0.00005   0.00000   0.00023   0.00023   1.88493
   A94        1.98960  -0.00012   0.00000  -0.00094  -0.00094   1.98866
   A95        1.84288  -0.00000   0.00000   0.00068   0.00068   1.84356
   A96        1.91600  -0.00006   0.00000  -0.00068  -0.00068   1.91533
   A97        1.91006  -0.00002   0.00000  -0.00095  -0.00095   1.90911
   A98        1.93938  -0.00001   0.00000  -0.00021  -0.00021   1.93917
   A99        1.93503   0.00000   0.00000   0.00008   0.00008   1.93512
   A100       1.95124   0.00001   0.00000   0.00015   0.00015   1.95139
   A101       1.88007  -0.00000   0.00000  -0.00008  -0.00008   1.88000
   A102       1.87662   0.00001   0.00000  -0.00003  -0.00003   1.87660
   A103       1.87841  -0.00000   0.00000   0.00008   0.00008   1.87849
   A104       1.90389   0.00003   0.00000  -0.00012  -0.00012   1.90377
   A105       1.75715  -0.00001   0.00000   0.00100   0.00100   1.75815
   A106       1.82290  -0.00001   0.00000   0.00516   0.00517   1.82807
   A107       1.91578  -0.00000   0.00000  -0.00508  -0.00508   1.91070
   A108       1.94058   0.00000   0.00000   0.00012   0.00011   1.94069
   A109       2.00142   0.00000   0.00000  -0.00046  -0.00047   2.00095
   A110       2.00073   0.00000   0.00000  -0.00027  -0.00026   2.00047
    D1        0.00169  -0.00013   0.00000  -0.00328  -0.00328  -0.00159
    D2        3.11729   0.00004   0.00000  -0.00347  -0.00347   3.11383
    D3       -3.13623  -0.00025   0.00000  -0.00362  -0.00362  -3.13985
    D4       -0.02063  -0.00008   0.00000  -0.00380  -0.00380  -0.02443
    D5       -0.00699   0.00015   0.00000   0.00178   0.00178  -0.00521
    D6        3.13843   0.00001   0.00000   0.00135   0.00135   3.13979
    D7        3.13128   0.00026   0.00000   0.00209   0.00209   3.13336
    D8       -0.00649   0.00013   0.00000   0.00166   0.00166  -0.00483
    D9       -0.00103  -0.00019   0.00000  -0.00694  -0.00694  -0.00797
   D10       -3.13914  -0.00031   0.00000  -0.00726  -0.00726   3.13679
   D11        0.00623  -0.00005   0.00000   0.00200   0.00200   0.00823
   D12        3.12420   0.00022   0.00000   0.00404   0.00404   3.12824
   D13       -3.10968  -0.00021   0.00000   0.00216   0.00216  -3.10751
   D14        0.00829   0.00005   0.00000   0.00420   0.00420   0.01249
   D15       -0.00922   0.00020   0.00000   0.00078   0.00078  -0.00844
   D16        3.12148   0.00030   0.00000   0.00212   0.00212   3.12361
   D17       -3.12823  -0.00007   0.00000  -0.00117  -0.00117  -3.12940
   D18        0.00248   0.00004   0.00000   0.00017   0.00017   0.00264
   D19        3.13326  -0.00047   0.00000  -0.00397  -0.00397   3.12929
   D20       -0.01449  -0.00036   0.00000  -0.00315  -0.00315  -0.01764
   D21       -0.03186  -0.00021   0.00000  -0.00194  -0.00194  -0.03380
   D22        3.10358  -0.00010   0.00000  -0.00113  -0.00113   3.10245
   D23        0.00410  -0.00018   0.00000  -0.00228  -0.00228   0.00182
   D24       -3.13387  -0.00003   0.00000  -0.00097  -0.00097  -3.13484
   D25       -3.12648  -0.00029   0.00000  -0.00364  -0.00364  -3.13013
   D26        0.01873  -0.00014   0.00000  -0.00233  -0.00233   0.01640
   D27        0.11437   0.00011   0.00000   0.00283   0.00283   0.11720
   D28        3.13371  -0.00001   0.00000  -0.00087  -0.00087   3.13285
   D29       -3.03803   0.00022   0.00000   0.00416   0.00416  -3.03386
   D30       -0.01868   0.00010   0.00000   0.00047   0.00047  -0.01822
   D31        0.00402   0.00001   0.00000   0.00102   0.00102   0.00504
   D32       -3.14152   0.00015   0.00000   0.00145   0.00145  -3.14007
   D33       -3.14122  -0.00014   0.00000  -0.00030  -0.00030  -3.14152
   D34       -0.00357  -0.00000   0.00000   0.00013   0.00013  -0.00344
   D35       -0.04760   0.00023   0.00000   0.00085   0.00085  -0.04675
   D36        3.13994   0.00012   0.00000   0.00189   0.00189  -3.14136
   D37        3.10026   0.00011   0.00000   0.00000   0.00000   3.10026
   D38        0.00462  -0.00000   0.00000   0.00104   0.00104   0.00566
   D39        0.82280  -0.00024   0.00000  -0.00829  -0.00829   0.81451
   D40       -1.18478  -0.00119   0.00000  -0.01206  -0.01206  -1.19684
   D41        2.92328  -0.00029   0.00000  -0.00946  -0.00946   2.91382
   D42       -2.32503  -0.00012   0.00000  -0.00746  -0.00746  -2.33248
   D43        1.95058  -0.00108   0.00000  -0.01123  -0.01123   1.93935
   D44       -0.22455  -0.00017   0.00000  -0.00863  -0.00863  -0.23318
   D45        2.93957  -0.00007   0.00000   0.00017   0.00017   2.93974
   D46       -0.24743   0.00005   0.00000  -0.00084  -0.00084  -0.24827
   D47        0.15824  -0.00007   0.00000   0.00205   0.00205   0.16029
   D48       -3.02876   0.00004   0.00000   0.00104   0.00104  -3.02772
   D49       -1.67548  -0.00003   0.00000   0.00185   0.00185  -1.67363
   D50        1.42071   0.00008   0.00000   0.00084   0.00084   1.42155
   D51       -0.19422  -0.00009   0.00000  -0.00390  -0.00390  -0.19812
   D52        3.07091   0.00003   0.00000  -0.00014  -0.00014   3.07077
   D53       -2.99697  -0.00009   0.00000  -0.00201  -0.00201  -2.99897
   D54        0.26816   0.00003   0.00000   0.00175   0.00175   0.26991
   D55        1.63011  -0.00010   0.00000  -0.00524  -0.00524   1.62487
   D56       -1.38794   0.00002   0.00000  -0.00149  -0.00149  -1.38943
   D57        2.91711  -0.00003   0.00000  -0.02714  -0.02714   2.88998
   D58        0.90365  -0.00003   0.00000  -0.02935  -0.02936   0.87429
   D59       -1.24943  -0.00003   0.00000  -0.02936  -0.02936  -1.27879
   D60       -1.22710  -0.00003   0.00000  -0.02739  -0.02739  -1.25449
   D61        3.04262  -0.00003   0.00000  -0.02960  -0.02961   3.01301
   D62        0.88954  -0.00003   0.00000  -0.02961  -0.02961   0.85993
   D63        0.80627  -0.00001   0.00000  -0.02671  -0.02671   0.77956
   D64       -1.20720  -0.00001   0.00000  -0.02893  -0.02893  -1.23613
   D65        2.92291  -0.00001   0.00000  -0.02894  -0.02893   2.89398
   D66        3.12540   0.00002   0.00000   0.00337   0.00337   3.12877
   D67       -1.08186  -0.00001   0.00000   0.00299   0.00299  -1.07887
   D68        1.04588   0.00003   0.00000   0.00326   0.00326   1.04913
   D69       -1.82003   0.00025   0.00000  -0.00799  -0.00799  -1.82802
   D70        0.27816   0.00010   0.00000  -0.00796  -0.00796   0.27021
   D71        2.25409   0.00050   0.00000  -0.00604  -0.00604   2.24806
   D72        2.43686  -0.00031   0.00000  -0.01171  -0.01171   2.42515
   D73       -1.74813  -0.00046   0.00000  -0.01168  -0.01168  -1.75981
   D74        0.22780  -0.00006   0.00000  -0.00976  -0.00976   0.21804
   D75        0.35070  -0.00020   0.00000  -0.01136  -0.01136   0.33933
   D76        2.44889  -0.00035   0.00000  -0.01133  -0.01133   2.43756
   D77       -1.85836   0.00005   0.00000  -0.00941  -0.00941  -1.86777
   D78       -1.54714   0.00021   0.00000   0.00019   0.00019  -1.54694
   D79        0.53048  -0.00011   0.00000   0.00046   0.00046   0.53095
   D80        2.57593  -0.00018   0.00000   0.00159   0.00159   2.57752
   D81       -2.42062  -0.00023   0.00000  -0.00050  -0.00050  -2.42112
   D82       -0.33685  -0.00019   0.00000  -0.00160  -0.00161  -0.33846
   D83        1.74456  -0.00027   0.00000  -0.00308  -0.00308   1.74148
   D84        1.77309  -0.00006   0.00000  -0.00015  -0.00015   1.77294
   D85       -2.42633  -0.00001   0.00000  -0.00125  -0.00125  -2.42758
   D86       -0.34492  -0.00010   0.00000  -0.00273  -0.00273  -0.34765
   D87       -0.23464   0.00005   0.00000  -0.00078  -0.00078  -0.23542
   D88        1.84913   0.00009   0.00000  -0.00189  -0.00189   1.84724
   D89       -2.35265   0.00001   0.00000  -0.00336  -0.00336  -2.35601
   D90        1.34965  -0.00055   0.00000  -0.00177  -0.00177   1.34788
   D91       -2.86065  -0.00077   0.00000  -0.00296  -0.00296  -2.86361
   D92       -0.89154   0.00012   0.00000   0.00079   0.00079  -0.89075
   D93        1.18135  -0.00010   0.00000  -0.00040  -0.00040   1.18095
   D94       -2.93247   0.00002   0.00000  -0.00011  -0.00011  -2.93257
   D95       -0.85958  -0.00020   0.00000  -0.00130  -0.00130  -0.86087
   D96        1.17285  -0.00017   0.00000  -0.00163  -0.00163   1.17121
   D97       -0.89297  -0.00013   0.00000   0.00106   0.00106  -0.89191
   D98       -3.02168  -0.00010   0.00000  -0.00001  -0.00001  -3.02169
   D99       -0.93667  -0.00004   0.00000  -0.00020  -0.00020  -0.93687
   D100      -3.00249  -0.00000   0.00000   0.00250   0.00250  -2.99999
   D101       1.15199   0.00002   0.00000   0.00143   0.00143   1.15341
   D102      -3.00568  -0.00005   0.00000   0.00070   0.00070  -3.00498
   D103       1.21169  -0.00001   0.00000   0.00339   0.00339   1.21508
   D104      -0.91702   0.00001   0.00000   0.00232   0.00232  -0.91470
   D105      -2.27518   0.00002   0.00000  -0.00836  -0.00836  -2.28354
   D106      -0.17503  -0.00006   0.00000  -0.01164  -0.01164  -0.18667
   D107       1.89877  -0.00007   0.00000  -0.01165  -0.01165   1.88712
   D108       1.92656   0.00004   0.00000  -0.00774  -0.00774   1.91882
   D109      -2.25648  -0.00004   0.00000  -0.01102  -0.01102  -2.26750
   D110      -0.18268  -0.00005   0.00000  -0.01102  -0.01102  -0.19371
   D111      -0.17587   0.00012   0.00000  -0.00620  -0.00620  -0.18207
   D112       1.92428   0.00004   0.00000  -0.00948  -0.00948   1.91479
   D113      -2.28511   0.00003   0.00000  -0.00949  -0.00949  -2.29460
   D114      -3.01302  -0.00004   0.00000   0.00586   0.00586  -3.00717
   D115       1.20154   0.00009   0.00000   0.00754   0.00754   1.20909
   D116      -0.99659  -0.00005   0.00000   0.00547   0.00547  -0.99112
   D117      -3.06521   0.00008   0.00000   0.00716   0.00716  -3.05805
   D118       1.13224  -0.00010   0.00000   0.00428   0.00428   1.13652
   D119      -0.93638   0.00003   0.00000   0.00597   0.00597  -0.93041
   D120       1.93781  -0.00003   0.00000   0.00045   0.00045   1.93825
   D121      -0.08293  -0.00003   0.00000   0.00139   0.00139  -0.08154
   D122      -2.15543   0.00003   0.00000   0.00265   0.00265  -2.15278
   D123      -2.26873  -0.00007   0.00000   0.00009   0.00009  -2.26864
   D124       1.99372  -0.00007   0.00000   0.00103   0.00103   1.99475
   D125      -0.07878  -0.00001   0.00000   0.00229   0.00229  -0.07649
   D126      -0.16856   0.00005   0.00000   0.00201   0.00201  -0.16654
   D127      -2.18929   0.00005   0.00000   0.00295   0.00295  -2.18633
   D128       2.02140   0.00011   0.00000   0.00421   0.00422   2.02561
   D129      -0.93421  -0.00012   0.00000  -0.00173  -0.00174  -0.93595
   D130       1.14959  -0.00010   0.00000  -0.00344  -0.00344   1.14615
   D131      -3.08120  -0.00001   0.00000   0.00022   0.00022  -3.08098
   D132      -0.99740   0.00002   0.00000  -0.00149  -0.00149  -0.99888
   D133       1.18513  -0.00009   0.00000   0.00020   0.00020   1.18533
   D134      -3.01426  -0.00006   0.00000  -0.00150  -0.00150  -3.01576
   D135      -0.94417   0.00012   0.00000   0.00624   0.00624  -0.93793
   D136      -3.05628   0.00014   0.00000   0.00902   0.00901  -3.04727
   D137       1.16967   0.00010   0.00000   0.00800   0.00800   1.17767
   D138       1.14556   0.00007   0.00000   0.00554   0.00554   1.15110
   D139      -0.96656   0.00009   0.00000   0.00832   0.00832  -0.95824
   D140      -3.02380   0.00004   0.00000   0.00731   0.00731  -3.01649
   D141      -3.03418  -0.00001   0.00000   0.00491   0.00491  -3.02927
   D142       1.13689   0.00001   0.00000   0.00769   0.00769   1.14458
   D143      -0.92035  -0.00004   0.00000   0.00668   0.00668  -0.91367
   D144       1.11682  -0.00006   0.00000  -0.00299  -0.00299   1.11384
   D145      -3.12621  -0.00008   0.00000  -0.00457  -0.00457  -3.13078
   D146      -1.04444  -0.00024   0.00000  -0.00653  -0.00653  -1.05097
   D147      -0.94381  -0.00005   0.00000  -0.00260  -0.00260  -0.94641
   D148       1.09634  -0.00007   0.00000  -0.00418  -0.00417   1.09217
   D149      -3.10507  -0.00023   0.00000  -0.00614  -0.00613  -3.11121
   D150      -3.04167   0.00001   0.00000  -0.00208  -0.00208  -3.04375
   D151      -1.00152  -0.00001   0.00000  -0.00365  -0.00365  -1.00517
   D152       1.08025  -0.00017   0.00000  -0.00561  -0.00561   1.07464
   D153      -0.97530  -0.00002   0.00000  -0.00084  -0.00084  -0.97614
   D154       1.02492   0.00009   0.00000   0.00101   0.00101   1.02593
   D155      -3.13182   0.00002   0.00000  -0.00065  -0.00065  -3.13247
   D156       1.14155  -0.00003   0.00000   0.00104   0.00104   1.14259
   D157      -3.14142   0.00008   0.00000   0.00289   0.00289  -3.13853
   D158      -1.01497   0.00001   0.00000   0.00123   0.00123  -1.01374
   D159      -3.06244  -0.00006   0.00000   0.00004   0.00004  -3.06241
   D160      -1.06223   0.00004   0.00000   0.00189   0.00189  -1.06033
   D161       1.06422  -0.00002   0.00000   0.00023   0.00023   1.06445
   D162      -3.04031   0.00003   0.00000   0.00043   0.00043  -3.03988
   D163      -0.95002   0.00003   0.00000   0.00025   0.00025  -0.94977
   D164       1.14607   0.00003   0.00000   0.00051   0.00051   1.14658
   D165       1.08710  -0.00004   0.00000  -0.00070  -0.00070   1.08640
   D166      -3.10579  -0.00005   0.00000  -0.00088  -0.00088  -3.10668
   D167      -1.00970  -0.00004   0.00000  -0.00063  -0.00063  -1.01033
   D168      -0.92792   0.00000   0.00000  -0.00060  -0.00060  -0.92852
   D169       1.16238  -0.00000   0.00000  -0.00079  -0.00079   1.16159
   D170      -3.02472   0.00000   0.00000  -0.00053  -0.00053  -3.02524
         Item               Value     Threshold  Converged?
 Maximum Force            0.001825     0.000450     NO 
 RMS     Force            0.000253     0.000300     YES
 Maximum Displacement     0.103455     0.001800     NO 
 RMS     Displacement     0.024573     0.001200     NO 
 Predicted change in Energy=-5.427432D-05
 GradGradGradGradGradGradGradGradGradGradGradGradGradGradGradGradGradGrad

 Leave Link  103 at Mon Dec  1 22:46:25 2025, MaxMem=   104857600 cpu:               0.0 elap:               0.0
 (Enter /home/zhouoh/g16/l202.exe)
 Stoichiometry    C21H28F2N2O2(1+,2)
 Framework group  C1[X(C21H28F2N2O2)]
 Deg. of freedom   159
 Full point group                 C1      NOp   1
 RotChk:  IX=0 Diff= 2.28D-02
 Largest Abelian subgroup         C1      NOp   1
 Largest concise Abelian subgroup C1      NOp   1
                         Standard orientation:                         
 ---------------------------------------------------------------------
 Center     Atomic      Atomic             Coordinates (Angstroms)
 Number     Number       Type             X           Y           Z
 ---------------------------------------------------------------------
      1          6           0        1.314398    2.861267   -0.112724
      2          6           0        0.842135    1.600385   -0.398847
      3          6           0        1.480745    0.469392    0.154719
      4          6           0        2.586361    0.661852    0.999470
      5          6           0        3.060972    1.955052    1.285247
      6          6           0        2.436510    3.032186    0.735573
      7          1           0       -0.029769    1.465950   -1.025338
      8          6           0        1.033244   -0.870356   -0.087616
      9          1           0        3.918441    2.086315    1.933521
     10          1           0        2.776210    4.039704    0.933211
     11          6           0        2.871523   -1.696909    1.232005
     12          6           0        1.707924   -1.921086    0.469120
     13          1           0        3.322596   -2.473780    1.833608
     14          1           0        1.380535   -2.935634    0.293698
     15          7           0        3.196958   -0.433498    1.556800
     16          8           0        0.785345    3.998526   -0.580676
     17          6           0       -0.185294   -1.100634   -0.951803
     18          1           0       -0.079242   -0.481855   -1.848130
     19          6           0       -0.344042    3.898202   -1.446113
     20          1           0       -0.617851    4.918034   -1.694157
     21          1           0       -0.085932    3.352721   -2.355869
     22          1           0       -1.176778    3.401272   -0.944576
     23          6           0       -1.463969   -0.591158   -0.228267
     24          6           0       -2.364749   -1.700586    0.358203
     25          1           0       -1.136558    0.051335    0.593031
     26          6           0       -2.943402   -0.506431   -2.124362
     27          6           0       -3.181681    1.057915   -0.332430
     28          6           0       -3.817399   -1.304642    0.067977
     29          1           0       -2.158771   -2.665072   -0.102742
     30          1           0       -2.185509   -1.805687    1.429837
     31          1           0       -3.372841    0.177333   -2.856935
     32          1           0       -2.223517   -1.132148   -2.654452
     33          6           0       -4.031369   -1.371752   -1.446956
     34          6           0       -4.085870    0.136020    0.527672
     35          1           0       -3.770556    1.664255   -1.022983
     36          1           0       -2.625324    1.746327    0.313110
     37          1           0       -4.497173   -1.994405    0.568083
     38          1           0       -5.028955   -1.002687   -1.693359
     39          1           0       -3.974033   -2.404489   -1.793951
     40          1           0       -5.134654    0.359433    0.307234
     41          7           0       -2.212763    0.296312   -1.130958
     42          6           0       -3.869770    0.368601    2.022893
     43          1           0       -2.810547    0.233362    2.270450
     44          1           0       -4.090828    1.418599    2.237156
     45          6           0       -4.724636   -0.520626    2.916715
     46          1           0       -4.610960   -0.247785    3.965694
     47          1           0       -5.782100   -0.426763    2.661723
     48          1           0       -4.453492   -1.573045    2.819791
     49          8           0       -0.300445   -2.462354   -1.321176
     50          1           0        0.189513   -2.609691   -2.136167
     51          6           0        4.376229   -2.046932   -0.382677
     52          9           0        5.462593   -1.541174    0.178910
     53          9           0        3.967859   -1.299281   -1.389829
     54          1           0        4.432277   -3.111693   -0.601897
     55          1           0        3.996021   -0.273435    2.155810
 ---------------------------------------------------------------------
 Rotational constants (GHZ):           0.2719750           0.1268189           0.1068750
 Leave Link  202 at Mon Dec  1 22:46:25 2025, MaxMem=   104857600 cpu:               0.0 elap:               0.0
 (Enter /home/zhouoh/g16/l301.exe)
 Standard basis: STO-3G (5D, 7F)
 Ernie: Thresh=  0.10000D-02 Tol=  0.10000D-05 Strict=F.
 There are   163 symmetry adapted cartesian basis functions of A   symmetry.
 There are   163 symmetry adapted basis functions of A   symmetry.
   163 basis functions,   489 primitive gaussians,   163 cartesian basis functions
   101 alpha electrons      100 beta electrons
       nuclear repulsion energy      2709.3818727843 Hartrees.
 IExCor=    0 DFT=F Ex=HF Corr=None ExCW=0 ScaHFX=  1.000000
 ScaDFX=  1.000000  1.000000  1.000000  1.000000 ScalE2=  1.000000  1.000000
 IRadAn=      5 IRanWt=     -1 IRanGd=            0 ICorTp=0 IEmpDi=  4
 NAtoms=   55 NActive=   55 NUniq=   55 SFac= 1.00D+00 NAtFMM=   60 NAOKFM=F Big=F
 Integral buffers will be    131072 words long.
 Raffenetti 2 integral format.
 Two-electron integral symmetry is turned on.
 Leave Link  301 at Mon Dec  1 22:46:25 2025, MaxMem=   104857600 cpu:               0.0 elap:               0.0
 (Enter /home/zhouoh/g16/l402.exe)
 External calculation of energy, first and second derivatives.
 Running external command "python ../GauUMA_client.py R"
         input file       "/home/zhouoh/scratch/Gau-3548948.EIn"
         output file      "/home/zhouoh/scratch/Gau-3548948.EOu"
         message file     "/home/zhouoh/scratch/Gau-3548948.EMs"
         fchk file        "/home/zhouoh/scratch/Gau-3548948.EFC"
         mat. el file     "/home/zhouoh/scratch/Gau-3548948.EUF"
Sent job to server.
Received result from server:
SCF Done:  E(UMA) =  -1276.443585455238     A.U.
 Recovered energy= -1276.44358545     dipole=      0.000000000000      0.000000000000      0.000000000000
 Energy=    -1276.44359     NIter=   0.
 Dipole moment=       0.000000       0.000000       0.000000
 Leave Link  402 at Mon Dec  1 22:46:36 2025, MaxMem=   104857600 cpu:               0.0 elap:              10.6
 (Enter /home/zhouoh/g16/l716.exe)
 Dipole        = 0.00000000D+00 0.00000000D+00 0.00000000D+00
 ***** Axes restored to original set *****
 -------------------------------------------------------------------
 Center     Atomic                   Forces (Hartrees/Bohr)
 Number     Number              X              Y              Z
 -------------------------------------------------------------------
      1        6          -0.000002559   -0.000001325    0.000003015
      2        6           0.000009131    0.000010547   -0.000005926
      3        6           0.000001209   -0.000001470   -0.000002059
      4        6           0.000003085   -0.000001356    0.000000335
      5        6           0.000000494    0.000001039    0.000000276
      6        6           0.000001436    0.000001595   -0.000000309
      7        1           0.000011803    0.000006315   -0.000005789
      8        6          -0.000001498    0.000007823    0.000000835
      9        1          -0.000000294    0.000000084   -0.000000065
     10        1           0.000000150   -0.000000355   -0.000000452
     11        6           0.000000338    0.000001256    0.000004678
     12        6          -0.000000907    0.000003651    0.000001264
     13        1          -0.000003379   -0.000002246   -0.000003405
     14        1           0.000001192   -0.000000923   -0.000000606
     15        7          -0.000001641   -0.000002169    0.000003375
     16        8          -0.000001150   -0.000003925    0.000003774
     17        6          -0.000007411    0.000006080   -0.000000815
     18        1          -0.000001072   -0.000000273   -0.000001168
     19        6          -0.000003859   -0.000000415   -0.000000931
     20        1           0.000000961    0.000001312   -0.000001941
     21        1           0.000000463   -0.000000744    0.000000952
     22        1           0.000018769    0.000018082   -0.000012931
     23        6          -0.000000438   -0.000009819    0.000014717
     24        6          -0.000002708    0.000002660   -0.000002701
     25        1          -0.000011229   -0.000014945    0.000000951
     26        6          -0.000000981    0.000000195   -0.000000800
     27        6          -0.000003379   -0.000010119    0.000008516
     28        6          -0.000003923   -0.000003800    0.000002708
     29        1          -0.000002393    0.000000642    0.000000744
     30        1           0.000000755   -0.000001093   -0.000001206
     31        1          -0.000000344   -0.000001559   -0.000001705
     32        1          -0.000000032   -0.000000959    0.000001468
     33        6           0.000002536    0.000000184   -0.000002187
     34        6           0.000001440   -0.000000233    0.000000082
     35        1           0.000002506    0.000001971    0.000000807
     36        1          -0.000018075   -0.000019227    0.000005866
     37        1           0.000001572   -0.000000565    0.000000144
     38        1           0.000000581    0.000001340    0.000000563
     39        1          -0.000001937    0.000001104   -0.000001986
     40        1           0.000000447    0.000000064    0.000000228
     41        7          -0.000005342    0.000006573    0.000001655
     42        6           0.000002183    0.000000861   -0.000002109
     43        1           0.000002545    0.000005474   -0.000002116
     44        1           0.000003625    0.000000760   -0.000001232
     45        6           0.000000579    0.000000446    0.000000903
     46        1           0.000000259   -0.000000595   -0.000000444
     47        1          -0.000002811    0.000000097   -0.000000432
     48        1           0.000000065    0.000000335    0.000000776
     49        8           0.000004753    0.000000986   -0.000001166
     50        1           0.000001445   -0.000000863   -0.000000627
     51        6           0.000003941   -0.000000195   -0.000002174
     52        9          -0.000001080    0.000002570   -0.000003100
     53        9          -0.000002228   -0.000006296   -0.000001474
     54        1           0.000003113    0.000000646    0.000003132
     55        1          -0.000000701    0.000000775    0.000000088
 -------------------------------------------------------------------
 Cartesian Forces:  Max     0.000019227 RMS     0.000004683
 FormGI is forming the generalized inverse of G from B-inverse, IUseBI=4.
 Leave Link  716 at Mon Dec  1 22:46:36 2025, MaxMem=   104857600 cpu:               0.0 elap:               0.0
 (Enter /home/zhouoh/g16/l103.exe)

 GradGradGradGradGradGradGradGradGradGradGradGradGradGradGradGradGradGrad
 Berny optimization.
 Red2BG is reusing G-inverse.
 Internal  Forces:  Max     0.000114220 RMS     0.000016227
 Search for a saddle point.
 Step number   5 out of a maximum of  330
 All quantities printed in internal units (Hartrees-Bohrs-Radians)
 Swapping is turned off.
 Second derivative matrix not updated -- analytic derivatives used.
 ITU=  0  0  0  0  0
     Eigenvalues ---   -0.02121   0.00064   0.00100   0.00222   0.00232
     Eigenvalues ---    0.00279   0.00381   0.00526   0.00566   0.00648
     Eigenvalues ---    0.00933   0.00994   0.01313   0.01379   0.01521
     Eigenvalues ---    0.01736   0.01813   0.01853   0.02016   0.02054
     Eigenvalues ---    0.02135   0.02164   0.02239   0.02288   0.02494
     Eigenvalues ---    0.02576   0.02646   0.02809   0.03024   0.03287
     Eigenvalues ---    0.03345   0.03669   0.03814   0.03864   0.03925
     Eigenvalues ---    0.03981   0.04067   0.04229   0.04267   0.04323
     Eigenvalues ---    0.04401   0.04463   0.04469   0.04539   0.04559
     Eigenvalues ---    0.04661   0.04798   0.05191   0.05311   0.05461
     Eigenvalues ---    0.05704   0.05769   0.06139   0.06447   0.06541
     Eigenvalues ---    0.06772   0.06980   0.07118   0.07162   0.07462
     Eigenvalues ---    0.07793   0.07997   0.08301   0.08379   0.08450
     Eigenvalues ---    0.08567   0.09288   0.09768   0.10106   0.10180
     Eigenvalues ---    0.10620   0.10827   0.10953   0.11065   0.11749
     Eigenvalues ---    0.11923   0.12023   0.12377   0.12658   0.13090
     Eigenvalues ---    0.13345   0.14200   0.14326   0.15574   0.15667
     Eigenvalues ---    0.16178   0.17184   0.18099   0.18302   0.18378
     Eigenvalues ---    0.18826   0.19226   0.19351   0.19780   0.20337
     Eigenvalues ---    0.20423   0.20751   0.21423   0.21839   0.22174
     Eigenvalues ---    0.22581   0.23067   0.23879   0.24292   0.25776
     Eigenvalues ---    0.26427   0.27672   0.28607   0.29159   0.29285
     Eigenvalues ---    0.29697   0.30561   0.30773   0.31135   0.31682
     Eigenvalues ---    0.32401   0.32599   0.32694   0.32824   0.32984
     Eigenvalues ---    0.33274   0.33293   0.33542   0.33555   0.33560
     Eigenvalues ---    0.33634   0.33773   0.33902   0.34079   0.34114
     Eigenvalues ---    0.34259   0.34338   0.34580   0.34685   0.34850
     Eigenvalues ---    0.35195   0.35450   0.35618   0.36070   0.36243
     Eigenvalues ---    0.36806   0.36899   0.37304   0.37424   0.37857
     Eigenvalues ---    0.38010   0.39427   0.40218   0.41823   0.43931
     Eigenvalues ---    0.45182   0.46748   0.47771   0.50046   0.50239
     Eigenvalues ---    0.52049   0.53087   0.53228   0.58760
 Eigenvectors required to have negative eigenvalues:
                          R18       D46       D54       D45       D53
   1                    0.88002   0.16938  -0.16498   0.15237  -0.12753
                          D51       D47       D48      A105      A107
   1                    0.12375  -0.11173  -0.09472  -0.09328   0.09220
 RFO step:  Lambda0=1.704826022D-09 Lambda=-8.65179220D-07.
 Linear search not attempted -- option 19 set.
 Iteration  1 RMS(Cart)=  0.00272667 RMS(Int)=  0.00000323
 Iteration  2 RMS(Cart)=  0.00000367 RMS(Int)=  0.00000004
 Iteration  3 RMS(Cart)=  0.00000000 RMS(Int)=  0.00000004
 ITry= 1 IFail=0 DXMaxC= 1.35D-02 DCOld= 1.00D+10 DXMaxT= 3.00D-01 DXLimC= 3.00D+00 Rises=F
 Variable       Old X    -DE/DX   Delta X   Delta X   Delta X     New X
                                 (Linear)    (Quad)   (Total)
    R1        2.60119   0.00003   0.00000   0.00001   0.00001   2.60120
    R2        2.67779  -0.00001   0.00000   0.00001   0.00001   2.67780
    R3        2.52986   0.00001   0.00000  -0.00003  -0.00003   2.52983
    R4        2.66807   0.00004   0.00000   0.00003   0.00003   2.66810
    R5        2.04473  -0.00001   0.00000  -0.00004  -0.00004   2.04469
    R6        2.65440   0.00003   0.00000   0.00005   0.00005   2.65445
    R7        2.70825   0.00006   0.00000   0.00002   0.00002   2.70827
    R8        2.65860  -0.00001   0.00000   0.00001   0.00001   2.65862
    R9        2.59329  -0.00001   0.00000  -0.00004  -0.00004   2.59325
   R10        2.57191  -0.00002   0.00000  -0.00003  -0.00003   2.57188
   R11        2.04645  -0.00000   0.00000  -0.00000  -0.00000   2.04644
   R12        2.04366  -0.00000   0.00000  -0.00000  -0.00000   2.04366
   R13        2.58360   0.00001   0.00000  -0.00002  -0.00002   2.58358
   R14        2.85635   0.00002   0.00000  -0.00000  -0.00000   2.85635
   R15        2.66325  -0.00002   0.00000   0.00003   0.00003   2.66328
   R16        2.04311  -0.00000   0.00000   0.00000   0.00000   2.04311
   R17        2.54069  -0.00002   0.00000   0.00007   0.00007   2.54076
   R18        4.22296   0.00001   0.00000  -0.00061  -0.00061   4.22235
   R19        2.04166   0.00000   0.00000   0.00001   0.00001   2.04167
   R20        1.91127  -0.00000   0.00000  -0.00001  -0.00001   1.91126
   R21        2.69547  -0.00001   0.00000  -0.00002  -0.00002   2.69545
   R22        2.06797   0.00000   0.00000  -0.00003  -0.00003   2.06794
   R23        2.93856   0.00002   0.00000  -0.00011  -0.00011   2.93845
   R24        2.67513  -0.00000   0.00000   0.00002   0.00002   2.67515
   R25        2.04977   0.00000   0.00000   0.00000   0.00000   2.04977
   R26        2.06303  -0.00000   0.00000  -0.00000  -0.00000   2.06303
   R27        2.06312  -0.00003   0.00000  -0.00005  -0.00005   2.06307
   R28        2.91911   0.00001   0.00000   0.00002   0.00002   2.91914
   R29        2.06536  -0.00001   0.00000  -0.00001  -0.00001   2.06536
   R30        2.77934   0.00000   0.00000  -0.00004  -0.00004   2.77930
   R31        2.89763  -0.00001   0.00000  -0.00000  -0.00000   2.89763
   R32        2.05723  -0.00000   0.00000   0.00000   0.00000   2.05723
   R33        2.06281  -0.00000   0.00000   0.00000   0.00000   2.06281
   R34        2.06025   0.00000   0.00000   0.00000   0.00000   2.06025
   R35        2.06210  -0.00000   0.00000  -0.00001  -0.00001   2.06208
   R36        2.92226   0.00000   0.00000   0.00000   0.00000   2.92226
   R37        2.78058   0.00000   0.00000   0.00002   0.00002   2.78060
   R38        2.93195  -0.00002   0.00000  -0.00003  -0.00003   2.93193
   R39        2.06256  -0.00000   0.00000  -0.00001  -0.00001   2.06255
   R40        2.07023  -0.00002   0.00000  -0.00007  -0.00007   2.07017
   R41        2.77506   0.00000   0.00000   0.00000   0.00000   2.77506
   R42        2.89400   0.00000   0.00000   0.00002   0.00002   2.89402
   R43        2.90238  -0.00000   0.00000  -0.00001  -0.00001   2.90237
   R44        2.05969  -0.00000   0.00000   0.00000   0.00000   2.05969
   R45        2.06327  -0.00000   0.00000   0.00000   0.00000   2.06327
   R46        2.06165  -0.00000   0.00000  -0.00000  -0.00000   2.06165
   R47        2.06876  -0.00000   0.00000  -0.00000  -0.00000   2.06875
   R48        2.88855  -0.00000   0.00000  -0.00000  -0.00000   2.88855
   R49        2.07141   0.00000   0.00000   0.00001   0.00001   2.07142
   R50        2.06774   0.00000   0.00000   0.00000   0.00000   2.06774
   R51        2.87862   0.00000   0.00000  -0.00000  -0.00000   2.87861
   R52        2.05947  -0.00000   0.00000   0.00000   0.00000   2.05947
   R53        2.06323   0.00000   0.00000   0.00001   0.00001   2.06324
   R54        2.06188  -0.00000   0.00000   0.00000   0.00000   2.06188
   R55        1.81844   0.00000   0.00000   0.00002   0.00002   1.81846
   R56        2.50084  -0.00000   0.00000  -0.00004  -0.00004   2.50080
   R57        2.49280  -0.00000   0.00000  -0.00004  -0.00004   2.49276
   R58        2.05704  -0.00000   0.00000   0.00000   0.00000   2.05704
    A1        2.10205   0.00000   0.00000   0.00001   0.00001   2.10205
    A2        2.17719   0.00005   0.00000   0.00008   0.00008   2.17727
    A3        2.00394  -0.00005   0.00000  -0.00008  -0.00008   2.00386
    A4        2.09104   0.00000   0.00000   0.00001   0.00001   2.09105
    A5        2.10671  -0.00001   0.00000  -0.00004  -0.00004   2.10667
    A6        2.08514   0.00001   0.00000   0.00003   0.00003   2.08517
    A7        2.07380  -0.00003   0.00000  -0.00004  -0.00004   2.07376
    A8        2.14280   0.00006   0.00000   0.00008   0.00008   2.14288
    A9        2.06639  -0.00003   0.00000  -0.00004  -0.00004   2.06635
   A10        2.11022   0.00002   0.00000   0.00001   0.00001   2.11023
   A11        2.07727   0.00002   0.00000   0.00003   0.00003   2.07731
   A12        2.09566  -0.00004   0.00000  -0.00005  -0.00005   2.09561
   A13        2.08364   0.00001   0.00000   0.00001   0.00001   2.08365
   A14        2.09455  -0.00000   0.00000  -0.00002  -0.00002   2.09453
   A15        2.10498  -0.00000   0.00000   0.00000   0.00000   2.10499
   A16        2.10558   0.00000   0.00000  -0.00000  -0.00000   2.10558
   A17        2.06067  -0.00000   0.00000  -0.00002  -0.00002   2.06066
   A18        2.11693  -0.00000   0.00000   0.00002   0.00002   2.11695
   A19        2.08921  -0.00001   0.00000  -0.00001  -0.00001   2.08921
   A20        2.08383   0.00011   0.00000   0.00014   0.00014   2.08398
   A21        2.11013  -0.00010   0.00000  -0.00014  -0.00014   2.10999
   A22        2.13102   0.00000   0.00000  -0.00008  -0.00008   2.13094
   A23        2.07156  -0.00000   0.00000  -0.00008  -0.00008   2.07148
   A24        1.71115   0.00000   0.00000  -0.00022  -0.00022   1.71093
   A25        2.02619   0.00000   0.00000  -0.00001  -0.00001   2.02618
   A26        1.57938  -0.00000   0.00000   0.00023   0.00023   1.57961
   A27        1.73023   0.00000   0.00000   0.00049   0.00049   1.73072
   A28        2.10090   0.00002   0.00000   0.00004   0.00004   2.10094
   A29        2.10138  -0.00001   0.00000  -0.00003  -0.00003   2.10135
   A30        2.07997  -0.00001   0.00000  -0.00002  -0.00002   2.07994
   A31        2.14628   0.00000   0.00000  -0.00002  -0.00002   2.14626
   A32        2.05527  -0.00000   0.00000  -0.00005  -0.00005   2.05522
   A33        2.07491  -0.00000   0.00000   0.00003   0.00003   2.07493
   A34        2.05470   0.00006   0.00000   0.00012   0.00012   2.05482
   A35        1.87971  -0.00001   0.00000   0.00023   0.00023   1.87993
   A36        1.92513   0.00004   0.00000  -0.00015  -0.00015   1.92498
   A37        1.94046  -0.00002   0.00000  -0.00001  -0.00001   1.94046
   A38        1.84994   0.00003   0.00000   0.00009   0.00009   1.85003
   A39        1.91567   0.00000   0.00000  -0.00006  -0.00006   1.91561
   A40        1.94946  -0.00005   0.00000  -0.00008  -0.00008   1.94938
   A41        1.84677  -0.00000   0.00000  -0.00001  -0.00001   1.84677
   A42        1.93217  -0.00000   0.00000  -0.00002  -0.00002   1.93215
   A43        1.93609   0.00000   0.00000   0.00001   0.00001   1.93610
   A44        1.91654  -0.00000   0.00000  -0.00002  -0.00002   1.91653
   A45        1.91820  -0.00000   0.00000  -0.00004  -0.00004   1.91817
   A46        1.91318   0.00000   0.00000   0.00007   0.00007   1.91324
   A47        2.00518  -0.00003   0.00000  -0.00008  -0.00008   2.00509
   A48        1.87121   0.00001   0.00000  -0.00004  -0.00004   1.87117
   A49        1.90791   0.00003   0.00000   0.00009   0.00009   1.90800
   A50        1.88766   0.00000   0.00000  -0.00001  -0.00001   1.88766
   A51        1.94927  -0.00001   0.00000   0.00002   0.00002   1.94929
   A52        1.83279  -0.00000   0.00000   0.00002   0.00002   1.83281
   A53        1.87038   0.00001   0.00000   0.00000   0.00000   1.87038
   A54        1.94466  -0.00000   0.00000   0.00002   0.00002   1.94467
   A55        1.92423  -0.00000   0.00000   0.00001   0.00001   1.92424
   A56        1.90485  -0.00000   0.00000  -0.00004  -0.00004   1.90481
   A57        1.94575  -0.00000   0.00000   0.00000   0.00000   1.94575
   A58        1.87476   0.00000   0.00000   0.00001   0.00001   1.87477
   A59        1.86823   0.00000   0.00000   0.00004   0.00004   1.86827
   A60        1.94784  -0.00000   0.00000  -0.00001  -0.00001   1.94782
   A61        1.88292   0.00000   0.00000   0.00003   0.00003   1.88295
   A62        1.93486  -0.00000   0.00000  -0.00003  -0.00003   1.93483
   A63        1.88937  -0.00000   0.00000  -0.00001  -0.00001   1.88936
   A64        1.93787   0.00000   0.00000  -0.00001  -0.00001   1.93786
   A65        1.94593  -0.00000   0.00000   0.00005   0.00005   1.94598
   A66        1.92057  -0.00002   0.00000  -0.00011  -0.00011   1.92046
   A67        1.95822   0.00001   0.00000   0.00004   0.00004   1.95825
   A68        1.87310   0.00000   0.00000   0.00000   0.00000   1.87310
   A69        1.87555  -0.00000   0.00000   0.00000   0.00000   1.87555
   A70        1.88729   0.00001   0.00000   0.00002   0.00002   1.88732
   A71        1.88418   0.00000   0.00000   0.00001   0.00001   1.88419
   A72        1.92961  -0.00000   0.00000  -0.00003  -0.00003   1.92958
   A73        1.91834  -0.00000   0.00000  -0.00001  -0.00001   1.91833
   A74        1.88889  -0.00000   0.00000  -0.00005  -0.00005   1.88884
   A75        1.91667   0.00000   0.00000   0.00003   0.00003   1.91671
   A76        1.92545   0.00000   0.00000   0.00004   0.00004   1.92549
   A77        1.88653  -0.00000   0.00000   0.00002   0.00002   1.88655
   A78        1.93351   0.00000   0.00000  -0.00001  -0.00001   1.93350
   A79        1.93200  -0.00000   0.00000  -0.00000  -0.00000   1.93199
   A80        1.91356  -0.00000   0.00000  -0.00004  -0.00004   1.91351
   A81        1.92705   0.00000   0.00000   0.00005   0.00005   1.92710
   A82        1.87153  -0.00000   0.00000  -0.00001  -0.00001   1.87152
   A83        1.86456   0.00000   0.00000   0.00000   0.00000   1.86456
   A84        1.90226   0.00000   0.00000   0.00004   0.00004   1.90229
   A85        1.94924  -0.00001   0.00000  -0.00011  -0.00011   1.94913
   A86        1.87404  -0.00000   0.00000   0.00001   0.00001   1.87405
   A87        1.99412   0.00001   0.00000   0.00005   0.00005   1.99417
   A88        1.87691   0.00000   0.00000   0.00001   0.00001   1.87693
   A89        1.91556   0.00001   0.00000  -0.00004  -0.00004   1.91552
   A90        1.89138  -0.00000   0.00000  -0.00002  -0.00002   1.89136
   A91        1.89909  -0.00001   0.00000  -0.00002  -0.00002   1.89907
   A92        1.91639  -0.00000   0.00000  -0.00001  -0.00001   1.91638
   A93        1.88493  -0.00000   0.00000  -0.00003  -0.00003   1.88490
   A94        1.98866   0.00000   0.00000   0.00002   0.00002   1.98869
   A95        1.84356  -0.00000   0.00000  -0.00006  -0.00006   1.84350
   A96        1.91533   0.00000   0.00000   0.00005   0.00005   1.91537
   A97        1.90911   0.00000   0.00000   0.00002   0.00002   1.90913
   A98        1.93917  -0.00000   0.00000   0.00002   0.00002   1.93918
   A99        1.93512   0.00000   0.00000  -0.00000  -0.00000   1.93511
   A100       1.95139   0.00000   0.00000  -0.00000  -0.00000   1.95139
   A101       1.88000  -0.00000   0.00000   0.00000   0.00000   1.88000
   A102       1.87660  -0.00000   0.00000  -0.00000  -0.00000   1.87660
   A103       1.87849  -0.00000   0.00000  -0.00001  -0.00001   1.87848
   A104       1.90377   0.00000   0.00000  -0.00006  -0.00006   1.90371
   A105       1.75815   0.00000   0.00000   0.00026   0.00026   1.75841
   A106       1.82807   0.00000   0.00000   0.00104   0.00104   1.82911
   A107       1.91070  -0.00000   0.00000  -0.00109  -0.00109   1.90961
   A108       1.94069  -0.00000   0.00000   0.00004   0.00004   1.94074
   A109       2.00095  -0.00000   0.00000  -0.00009  -0.00009   2.00087
   A110       2.00047  -0.00000   0.00000  -0.00007  -0.00007   2.00040
    D1       -0.00159  -0.00001   0.00000  -0.00026  -0.00026  -0.00185
    D2        3.11383   0.00001   0.00000  -0.00017  -0.00017   3.11366
    D3       -3.13985  -0.00002   0.00000  -0.00039  -0.00039  -3.14024
    D4       -0.02443  -0.00001   0.00000  -0.00030  -0.00030  -0.02473
    D5       -0.00521   0.00001   0.00000   0.00016   0.00016  -0.00505
    D6        3.13979  -0.00000   0.00000   0.00008   0.00008   3.13986
    D7        3.13336   0.00002   0.00000   0.00028   0.00028   3.13365
    D8       -0.00483   0.00001   0.00000   0.00020   0.00020  -0.00463
    D9       -0.00797  -0.00001   0.00000  -0.00077  -0.00077  -0.00874
   D10        3.13679  -0.00003   0.00000  -0.00090  -0.00090   3.13590
   D11        0.00823  -0.00000   0.00000   0.00016   0.00016   0.00839
   D12        3.12824   0.00002   0.00000   0.00023   0.00023   3.12847
   D13       -3.10751  -0.00002   0.00000   0.00007   0.00007  -3.10744
   D14        0.01249   0.00000   0.00000   0.00014   0.00014   0.01264
   D15       -0.00844   0.00002   0.00000   0.00003   0.00003  -0.00841
   D16        3.12361   0.00002   0.00000   0.00004   0.00004   3.12365
   D17       -3.12940  -0.00000   0.00000  -0.00004  -0.00004  -3.12944
   D18        0.00264   0.00000   0.00000  -0.00003  -0.00003   0.00262
   D19        3.12929  -0.00004   0.00000  -0.00014  -0.00014   3.12915
   D20       -0.01764  -0.00003   0.00000  -0.00027  -0.00027  -0.01791
   D21       -0.03380  -0.00002   0.00000  -0.00007  -0.00007  -0.03387
   D22        3.10245  -0.00001   0.00000  -0.00020  -0.00020   3.10225
   D23        0.00182  -0.00001   0.00000  -0.00013  -0.00013   0.00169
   D24       -3.13484  -0.00000   0.00000  -0.00004  -0.00004  -3.13488
   D25       -3.13013  -0.00002   0.00000  -0.00014  -0.00014  -3.13027
   D26        0.01640  -0.00001   0.00000  -0.00005  -0.00005   0.01635
   D27        0.11720   0.00001   0.00000   0.00032   0.00032   0.11751
   D28        3.13285   0.00000   0.00000  -0.00006  -0.00006   3.13278
   D29       -3.03386   0.00002   0.00000   0.00033   0.00033  -3.03354
   D30       -0.01822   0.00001   0.00000  -0.00005  -0.00005  -0.01827
   D31        0.00504   0.00000   0.00000   0.00004   0.00004   0.00507
   D32       -3.14007   0.00001   0.00000   0.00012   0.00012  -3.13994
   D33       -3.14152  -0.00001   0.00000  -0.00005  -0.00005  -3.14157
   D34       -0.00344   0.00000   0.00000   0.00004   0.00004  -0.00340
   D35       -0.04675   0.00002   0.00000  -0.00011  -0.00011  -0.04686
   D36       -3.14136   0.00001   0.00000   0.00022   0.00022  -3.14113
   D37        3.10026   0.00001   0.00000   0.00002   0.00002   3.10028
   D38        0.00566   0.00000   0.00000   0.00036   0.00036   0.00601
   D39        0.81451  -0.00002   0.00000  -0.00160  -0.00160   0.81292
   D40       -1.19684  -0.00008   0.00000  -0.00175  -0.00175  -1.19859
   D41        2.91382  -0.00003   0.00000  -0.00153  -0.00153   2.91229
   D42       -2.33248  -0.00002   0.00000  -0.00173  -0.00173  -2.33421
   D43        1.93935  -0.00008   0.00000  -0.00188  -0.00188   1.93747
   D44       -0.23318  -0.00003   0.00000  -0.00166  -0.00166  -0.23484
   D45        2.93974  -0.00001   0.00000  -0.00016  -0.00016   2.93959
   D46       -0.24827   0.00000   0.00000  -0.00049  -0.00049  -0.24875
   D47        0.16029  -0.00000   0.00000   0.00038   0.00038   0.16067
   D48       -3.02772   0.00000   0.00000   0.00005   0.00005  -3.02767
   D49       -1.67363  -0.00001   0.00000  -0.00004  -0.00004  -1.67367
   D50        1.42155  -0.00000   0.00000  -0.00037  -0.00037   1.42118
   D51       -0.19812  -0.00001   0.00000  -0.00049  -0.00049  -0.19860
   D52        3.07077   0.00000   0.00000  -0.00010  -0.00010   3.07067
   D53       -2.99897  -0.00001   0.00000   0.00003   0.00003  -2.99894
   D54        0.26991   0.00000   0.00000   0.00042   0.00042   0.27033
   D55        1.62487  -0.00001   0.00000  -0.00047  -0.00047   1.62440
   D56       -1.38943   0.00000   0.00000  -0.00008  -0.00008  -1.38951
   D57        2.88998  -0.00000   0.00000  -0.00547  -0.00547   2.88450
   D58        0.87429  -0.00001   0.00000  -0.00597  -0.00597   0.86832
   D59       -1.27879  -0.00000   0.00000  -0.00591  -0.00591  -1.28470
   D60       -1.25449  -0.00000   0.00000  -0.00553  -0.00553  -1.26002
   D61        3.01301  -0.00000   0.00000  -0.00603  -0.00603   3.00698
   D62        0.85993  -0.00000   0.00000  -0.00597  -0.00597   0.85396
   D63        0.77956  -0.00000   0.00000  -0.00546  -0.00546   0.77411
   D64       -1.23613  -0.00000   0.00000  -0.00595  -0.00595  -1.24208
   D65        2.89398  -0.00000   0.00000  -0.00589  -0.00589   2.88809
   D66        3.12877   0.00001   0.00000   0.00111   0.00111   3.12988
   D67       -1.07887   0.00000   0.00000   0.00108   0.00108  -1.07779
   D68        1.04913   0.00001   0.00000   0.00116   0.00116   1.05029
   D69       -1.82802   0.00002   0.00000   0.00120   0.00120  -1.82683
   D70        0.27021   0.00001   0.00000   0.00111   0.00111   0.27131
   D71        2.24806   0.00003   0.00000   0.00116   0.00116   2.24921
   D72        2.42515  -0.00001   0.00000   0.00096   0.00096   2.42610
   D73       -1.75981  -0.00002   0.00000   0.00087   0.00087  -1.75894
   D74        0.21804  -0.00000   0.00000   0.00092   0.00092   0.21896
   D75        0.33933  -0.00001   0.00000   0.00102   0.00102   0.34035
   D76        2.43756  -0.00002   0.00000   0.00093   0.00093   2.43849
   D77       -1.86777   0.00000   0.00000   0.00098   0.00098  -1.86679
   D78       -1.54694   0.00001   0.00000   0.00165   0.00165  -1.54530
   D79        0.53095  -0.00001   0.00000   0.00189   0.00189   0.53283
   D80        2.57752   0.00000   0.00000   0.00191   0.00191   2.57943
   D81       -2.42112  -0.00001   0.00000  -0.00016  -0.00016  -2.42128
   D82       -0.33846  -0.00001   0.00000  -0.00020  -0.00020  -0.33866
   D83        1.74148  -0.00001   0.00000  -0.00017  -0.00017   1.74131
   D84        1.77294  -0.00000   0.00000  -0.00005  -0.00005   1.77289
   D85       -2.42758  -0.00000   0.00000  -0.00009  -0.00009  -2.42768
   D86       -0.34765  -0.00000   0.00000  -0.00006  -0.00006  -0.34771
   D87       -0.23542   0.00000   0.00000  -0.00008  -0.00008  -0.23551
   D88        1.84724   0.00000   0.00000  -0.00012  -0.00012   1.84712
   D89       -2.35601   0.00000   0.00000  -0.00009  -0.00009  -2.35610
   D90        1.34788  -0.00002   0.00000   0.00003   0.00003   1.34791
   D91       -2.86361  -0.00003   0.00000  -0.00003  -0.00003  -2.86363
   D92       -0.89075   0.00000   0.00000   0.00005   0.00005  -0.89070
   D93        1.18095  -0.00001   0.00000  -0.00000  -0.00000   1.18095
   D94       -2.93257   0.00000   0.00000   0.00004   0.00004  -2.93254
   D95       -0.86087  -0.00000   0.00000  -0.00002  -0.00002  -0.86089
   D96        1.17121  -0.00000   0.00000  -0.00001  -0.00001   1.17120
   D97       -0.89191  -0.00000   0.00000   0.00006   0.00006  -0.89185
   D98       -3.02169   0.00000   0.00000   0.00003   0.00003  -3.02166
   D99       -0.93687  -0.00000   0.00000  -0.00001  -0.00001  -0.93688
   D100      -2.99999  -0.00000   0.00000   0.00006   0.00006  -2.99993
   D101       1.15341  -0.00000   0.00000   0.00003   0.00003   1.15345
   D102      -3.00498  -0.00000   0.00000   0.00000   0.00000  -3.00498
   D103       1.21508   0.00000   0.00000   0.00007   0.00007   1.21516
   D104      -0.91470   0.00000   0.00000   0.00005   0.00005  -0.91465
   D105      -2.28354   0.00000   0.00000  -0.00024  -0.00024  -2.28377
   D106      -0.18667  -0.00000   0.00000  -0.00028  -0.00028  -0.18695
   D107       1.88712  -0.00000   0.00000  -0.00030  -0.00030   1.88682
   D108       1.91882   0.00000   0.00000  -0.00025  -0.00025   1.91856
   D109      -2.26750  -0.00000   0.00000  -0.00030  -0.00030  -2.26780
   D110      -0.19371  -0.00000   0.00000  -0.00032  -0.00032  -0.19403
   D111      -0.18207   0.00000   0.00000  -0.00021  -0.00021  -0.18229
   D112       1.91479   0.00000   0.00000  -0.00026  -0.00026   1.91453
   D113      -2.29460   0.00000   0.00000  -0.00028  -0.00028  -2.29488
   D114      -3.00717  -0.00000   0.00000   0.00012   0.00012  -3.00705
   D115       1.20909   0.00000   0.00000   0.00017   0.00017   1.20926
   D116      -0.99112  -0.00000   0.00000   0.00017   0.00017  -0.99095
   D117      -3.05805   0.00000   0.00000   0.00022   0.00022  -3.05783
   D118       1.13652  -0.00000   0.00000   0.00012   0.00012   1.13664
   D119      -0.93041   0.00000   0.00000   0.00018   0.00018  -0.93024
   D120       1.93825  -0.00000   0.00000  -0.00007  -0.00007   1.93819
   D121      -0.08154   0.00000   0.00000  -0.00010  -0.00010  -0.08163
   D122      -2.15278   0.00000   0.00000  -0.00007  -0.00007  -2.15285
   D123      -2.26864  -0.00000   0.00000  -0.00011  -0.00011  -2.26875
   D124       1.99475  -0.00000   0.00000  -0.00014  -0.00014   1.99461
   D125      -0.07649   0.00000   0.00000  -0.00011  -0.00011  -0.07660
   D126      -0.16654  -0.00000   0.00000  -0.00013  -0.00013  -0.16667
   D127      -2.18633   0.00000   0.00000  -0.00016  -0.00016  -2.18649
   D128       2.02561   0.00000   0.00000  -0.00013  -0.00013   2.02548
   D129      -0.93595  -0.00000   0.00000   0.00011   0.00011  -0.93583
   D130       1.14615  -0.00000   0.00000   0.00004   0.00004   1.14620
   D131      -3.08098  -0.00000   0.00000   0.00003   0.00003  -3.08095
   D132      -0.99888  -0.00000   0.00000  -0.00004  -0.00004  -0.99893
   D133       1.18533  -0.00001   0.00000   0.00002   0.00002   1.18534
   D134      -3.01576  -0.00001   0.00000  -0.00005  -0.00005  -3.01582
   D135      -0.93793   0.00000   0.00000   0.00017   0.00017  -0.93776
   D136      -3.04727   0.00000   0.00000   0.00020   0.00020  -3.04707
   D137       1.17767   0.00000   0.00000   0.00021   0.00021   1.17787
   D138       1.15110  -0.00000   0.00000   0.00012   0.00012   1.15122
   D139      -0.95824  -0.00000   0.00000   0.00015   0.00015  -0.95809
   D140      -3.01649  -0.00000   0.00000   0.00015   0.00015  -3.01634
   D141      -3.02927   0.00000   0.00000   0.00016   0.00016  -3.02911
   D142       1.14458   0.00000   0.00000   0.00018   0.00018   1.14476
   D143      -0.91367   0.00000   0.00000   0.00019   0.00019  -0.91348
   D144       1.11384  -0.00000   0.00000   0.00005   0.00005   1.11388
   D145      -3.13078   0.00000   0.00000   0.00010   0.00010  -3.13068
   D146      -1.05097   0.00001   0.00000   0.00015   0.00015  -1.05081
   D147      -0.94641  -0.00000   0.00000   0.00008   0.00008  -0.94633
   D148       1.09217   0.00000   0.00000   0.00013   0.00013   1.09229
   D149      -3.11121   0.00001   0.00000   0.00018   0.00018  -3.11102
   D150      -3.04375  -0.00000   0.00000   0.00005   0.00005  -3.04370
   D151      -1.00517  -0.00000   0.00000   0.00010   0.00010  -1.00508
   D152       1.07464   0.00001   0.00000   0.00015   0.00015   1.07479
   D153      -0.97614   0.00000   0.00000   0.00010   0.00010  -0.97604
   D154       1.02593  -0.00000   0.00000   0.00001   0.00001   1.02594
   D155      -3.13247  -0.00000   0.00000   0.00003   0.00003  -3.13244
   D156       1.14259   0.00000   0.00000   0.00006   0.00006   1.14264
   D157      -3.13853  -0.00000   0.00000  -0.00004  -0.00004  -3.13856
   D158      -1.01374  -0.00000   0.00000  -0.00001  -0.00001  -1.01375
   D159      -3.06241   0.00000   0.00000   0.00011   0.00011  -3.06230
   D160      -1.06033   0.00000   0.00000   0.00002   0.00002  -1.06032
   D161       1.06445   0.00000   0.00000   0.00004   0.00004   1.06449
   D162      -3.03988   0.00000   0.00000  -0.00007  -0.00007  -3.03995
   D163      -0.94977   0.00000   0.00000  -0.00006  -0.00006  -0.94983
   D164       1.14658   0.00000   0.00000  -0.00008  -0.00008   1.14650
   D165       1.08640  -0.00000   0.00000  -0.00011  -0.00011   1.08629
   D166      -3.10668  -0.00000   0.00000  -0.00010  -0.00010  -3.10678
   D167      -1.01033  -0.00000   0.00000  -0.00011  -0.00011  -1.01044
   D168      -0.92852  -0.00000   0.00000  -0.00007  -0.00007  -0.92859
   D169       1.16159   0.00000   0.00000  -0.00007  -0.00007   1.16153
   D170      -3.02524   0.00000   0.00000  -0.00008  -0.00008  -3.02532
         Item               Value     Threshold  Converged?
 Maximum Force            0.000114     0.000450     YES
 RMS     Force            0.000016     0.000300     YES
 Maximum Displacement     0.013487     0.001800     NO 
 RMS     Displacement     0.002727     0.001200     NO 
 Predicted change in Energy=-4.317370D-07
 GradGradGradGradGradGradGradGradGradGradGradGradGradGradGradGradGradGrad

 Leave Link  103 at Mon Dec  1 22:46:36 2025, MaxMem=   104857600 cpu:               0.0 elap:               0.0
 (Enter /home/zhouoh/g16/l202.exe)
 Stoichiometry    C21H28F2N2O2(1+,2)
 Framework group  C1[X(C21H28F2N2O2)]
 Deg. of freedom   159
 Full point group                 C1      NOp   1
 RotChk:  IX=0 Diff= 1.49D-03
 Largest Abelian subgroup         C1      NOp   1
 Largest concise Abelian subgroup C1      NOp   1
                         Standard orientation:                         
 ---------------------------------------------------------------------
 Center     Atomic      Atomic             Coordinates (Angstroms)
 Number     Number       Type             X           Y           Z
 ---------------------------------------------------------------------
      1          6           0        1.319325    2.861593   -0.111385
      2          6           0        0.845107    1.601630   -0.398358
      3          6           0        1.481425    0.469293    0.155147
      4          6           0        2.586703    0.659566    1.000879
      5          6           0        3.063166    1.951862    1.287698
      6          6           0        2.440977    3.030269    0.737980
      7          1           0       -0.026546    1.468984   -1.025541
      8          6           0        1.032046   -0.869649   -0.088223
      9          1           0        3.920310    2.081399    1.936748
     10          1           0        2.782203    4.037135    0.936306
     11          6           0        2.868205   -1.699758    1.232176
     12          6           0        1.704720   -1.921692    0.468436
     13          1           0        3.317511   -2.477663    1.833767
     14          1           0        1.376006   -2.935650    0.292057
     15          7           0        3.195144   -0.436995    1.558137
     16          8           0        0.792853    3.999968   -0.579489
     17          6           0       -0.186305   -1.097811   -0.953233
     18          1           0       -0.079867   -0.477585   -1.848498
     19          6           0       -0.335234    3.902145   -1.446891
     20          1           0       -0.606209    4.922577   -1.695581
     21          1           0       -0.076776    3.355934   -2.356110
     22          1           0       -1.170013    3.407305   -0.946743
     23          6           0       -1.464832   -0.589157   -0.228979
     24          6           0       -2.365302   -1.699321    0.356608
     25          1           0       -1.137271    0.052521    0.592891
     26          6           0       -2.944792   -0.502756   -2.124529
     27          6           0       -3.182770    1.059772   -0.330981
     28          6           0       -3.818094   -1.303235    0.067287
     29          1           0       -2.159407   -2.663294   -0.105451
     30          1           0       -2.185699   -1.805561    1.428071
     31          1           0       -3.374436    0.181627   -2.856404
     32          1           0       -2.224998   -1.127989   -2.655298
     33          6           0       -4.032571   -1.368729   -1.447655
     34          6           0       -4.086517    0.136930    0.528542
     35          1           0       -3.771927    1.666724   -1.020746
     36          1           0       -2.626372    1.747588    0.315100
     37          1           0       -4.497616   -1.993597    0.566910
     38          1           0       -5.030219   -0.999316   -1.693292
     39          1           0       -3.975451   -2.401089   -1.795806
     40          1           0       -5.135420    0.360457    0.308799
     41          7           0       -2.213961    0.299125   -1.130556
     42          6           0       -3.869724    0.368130    2.023875
     43          1           0       -2.810347    0.232857    2.270767
     44          1           0       -4.090792    1.417910    2.239198
     45          6           0       -4.724030   -0.522027    2.917303
     46          1           0       -4.609820   -0.250199    3.966486
     47          1           0       -5.781642   -0.428012    2.662963
     48          1           0       -4.452853   -1.574331    2.819211
     49          8           0       -0.302020   -2.458844   -1.324990
     50          1           0        0.189400   -2.605298   -2.139272
     51          6           0        4.372793   -2.051522   -0.381789
     52          9           0        5.458409   -1.541574    0.177397
     53          9           0        3.963021   -1.308980   -1.392123
     54          1           0        4.430668   -3.117111   -0.596464
     55          1           0        3.994009   -0.278434    2.157797
 ---------------------------------------------------------------------
 Rotational constants (GHZ):           0.2717687           0.1268360           0.1068853
 Leave Link  202 at Mon Dec  1 22:46:36 2025, MaxMem=   104857600 cpu:               0.0 elap:               0.0
 (Enter /home/zhouoh/g16/l301.exe)
 Standard basis: STO-3G (5D, 7F)
 Ernie: Thresh=  0.10000D-02 Tol=  0.10000D-05 Strict=F.
 There are   163 symmetry adapted cartesian basis functions of A   symmetry.
 There are   163 symmetry adapted basis functions of A   symmetry.
   163 basis functions,   489 primitive gaussians,   163 cartesian basis functions
   101 alpha electrons      100 beta electrons
       nuclear repulsion energy      2709.2450529127 Hartrees.
 IExCor=    0 DFT=F Ex=HF Corr=None ExCW=0 ScaHFX=  1.000000
 ScaDFX=  1.000000  1.000000  1.000000  1.000000 ScalE2=  1.000000  1.000000
 IRadAn=      5 IRanWt=     -1 IRanGd=            0 ICorTp=0 IEmpDi=  4
 NAtoms=   55 NActive=   55 NUniq=   55 SFac= 1.00D+00 NAtFMM=   60 NAOKFM=F Big=F
 Integral buffers will be    131072 words long.
 Raffenetti 2 integral format.
 Two-electron integral symmetry is turned on.
 Leave Link  301 at Mon Dec  1 22:46:36 2025, MaxMem=   104857600 cpu:               0.0 elap:               0.0
 (Enter /home/zhouoh/g16/l402.exe)
 External calculation of energy, first and second derivatives.
 Running external command "python ../GauUMA_client.py R"
         input file       "/home/zhouoh/scratch/Gau-3548948.EIn"
         output file      "/home/zhouoh/scratch/Gau-3548948.EOu"
         message file     "/home/zhouoh/scratch/Gau-3548948.EMs"
         fchk file        "/home/zhouoh/scratch/Gau-3548948.EFC"
         mat. el file     "/home/zhouoh/scratch/Gau-3548948.EUF"
Sent job to server.
Received result from server:
SCF Done:  E(UMA) =  -1276.4435859458943     A.U.
 Recovered energy= -1276.44358595     dipole=      0.000000000000      0.000000000000      0.000000000000
 Energy=    -1276.44359     NIter=   0.
 Dipole moment=       0.000000       0.000000       0.000000
 Leave Link  402 at Mon Dec  1 22:46:47 2025, MaxMem=   104857600 cpu:               0.0 elap:              11.3
 (Enter /home/zhouoh/g16/l716.exe)
 Dipole        = 0.00000000D+00 0.00000000D+00 0.00000000D+00
 ***** Axes restored to original set *****
 -------------------------------------------------------------------
 Center     Atomic                   Forces (Hartrees/Bohr)
 Number     Number              X              Y              Z
 -------------------------------------------------------------------
      1        6           0.000000012    0.000000045   -0.000000120
      2        6           0.000000159    0.000000245    0.000000029
      3        6          -0.000000100   -0.000000100   -0.000000003
      4        6           0.000000016   -0.000000071    0.000000065
      5        6           0.000000131   -0.000000009    0.000000040
      6        6           0.000000162    0.000000164    0.000000183
      7        1           0.000000147   -0.000000064   -0.000000081
      8        6           0.000000015    0.000000163   -0.000000019
      9        1          -0.000000168   -0.000000017   -0.000000041
     10        1          -0.000000095   -0.000000234   -0.000000031
     11        6          -0.000000137    0.000000251    0.000000093
     12        6          -0.000000050   -0.000000028    0.000000168
     13        1           0.000000006    0.000000038   -0.000000015
     14        1          -0.000000008    0.000000063    0.000000035
     15        7           0.000000219   -0.000000106    0.000000021
     16        8           0.000000060    0.000000055    0.000000062
     17        6          -0.000000100    0.000000111    0.000000152
     18        1           0.000000009   -0.000000034   -0.000000010
     19        6          -0.000000177    0.000000025    0.000000162
     20        1          -0.000000021   -0.000000191    0.000000013
     21        1           0.000000053   -0.000000067   -0.000000129
     22        1           0.000000529    0.000000438   -0.000000303
     23        6          -0.000000146   -0.000000081    0.000000180
     24        6          -0.000000509   -0.000000030   -0.000000208
     25        1          -0.000000061   -0.000000117   -0.000000121
     26        6          -0.000000021   -0.000000074   -0.000000060
     27        6          -0.000000225    0.000000036    0.000000120
     28        6           0.000000210    0.000000120    0.000000021
     29        1          -0.000000005    0.000000062    0.000000063
     30        1           0.000000076   -0.000000024    0.000000066
     31        1           0.000000023   -0.000000026    0.000000055
     32        1          -0.000000008    0.000000058    0.000000039
     33        6          -0.000000016   -0.000000000    0.000000100
     34        6           0.000000140   -0.000000144   -0.000000141
     35        1           0.000000012    0.000000052    0.000000044
     36        1          -0.000000175   -0.000000171    0.000000018
     37        1          -0.000000082   -0.000000075    0.000000079
     38        1          -0.000000091    0.000000021   -0.000000040
     39        1          -0.000000007    0.000000004   -0.000000063
     40        1          -0.000000055    0.000000042    0.000000008
     41        7          -0.000000115   -0.000000225   -0.000000097
     42        6          -0.000000202    0.000000074    0.000000052
     43        1           0.000000217   -0.000000006    0.000000057
     44        1           0.000000011   -0.000000047   -0.000000001
     45        6          -0.000000257   -0.000000035   -0.000000164
     46        1           0.000000015    0.000000023    0.000000051
     47        1           0.000000304   -0.000000099   -0.000000014
     48        1          -0.000000032    0.000000016    0.000000035
     49        8           0.000000126   -0.000000007   -0.000000009
     50        1          -0.000000020   -0.000000046   -0.000000002
     51        6          -0.000000077    0.000000263   -0.000000368
     52        9           0.000000011   -0.000000116   -0.000000102
     53        9           0.000000074   -0.000000199    0.000000121
     54        1           0.000000198    0.000000090   -0.000000039
     55        1           0.000000025   -0.000000019    0.000000049
 -------------------------------------------------------------------
 Cartesian Forces:  Max     0.000000529 RMS     0.000000130
 FormGI is forming the generalized inverse of G from B-inverse, IUseBI=4.
 Leave Link  716 at Mon Dec  1 22:46:47 2025, MaxMem=   104857600 cpu:               0.0 elap:               0.0
 (Enter /home/zhouoh/g16/l103.exe)

 GradGradGradGradGradGradGradGradGradGradGradGradGradGradGradGradGradGrad
 Berny optimization.
 Red2BG is reusing G-inverse.
 Internal  Forces:  Max     0.000002484 RMS     0.000000326
 Search for a saddle point.
 Step number   6 out of a maximum of  330
 All quantities printed in internal units (Hartrees-Bohrs-Radians)
 Swapping is turned off.
 Second derivative matrix not updated -- analytic derivatives used.
 ITU=  0  0  0  0  0  0
     Eigenvalues ---   -0.02125   0.00063   0.00099   0.00222   0.00232
     Eigenvalues ---    0.00274   0.00383   0.00526   0.00564   0.00648
     Eigenvalues ---    0.00933   0.00995   0.01314   0.01378   0.01522
     Eigenvalues ---    0.01736   0.01810   0.01849   0.02014   0.02054
     Eigenvalues ---    0.02131   0.02158   0.02240   0.02288   0.02492
     Eigenvalues ---    0.02575   0.02643   0.02809   0.03024   0.03283
     Eigenvalues ---    0.03345   0.03672   0.03814   0.03842   0.03922
     Eigenvalues ---    0.03975   0.04058   0.04237   0.04266   0.04323
     Eigenvalues ---    0.04399   0.04463   0.04467   0.04545   0.04558
     Eigenvalues ---    0.04661   0.04798   0.05208   0.05309   0.05461
     Eigenvalues ---    0.05702   0.05767   0.06147   0.06447   0.06541
     Eigenvalues ---    0.06790   0.06975   0.07117   0.07149   0.07462
     Eigenvalues ---    0.07793   0.07998   0.08298   0.08379   0.08450
     Eigenvalues ---    0.08567   0.09287   0.09767   0.10105   0.10214
     Eigenvalues ---    0.10620   0.10826   0.10952   0.11063   0.11748
     Eigenvalues ---    0.11921   0.12022   0.12378   0.12655   0.13090
     Eigenvalues ---    0.13343   0.14198   0.14327   0.15572   0.15663
     Eigenvalues ---    0.16172   0.17185   0.18096   0.18301   0.18386
     Eigenvalues ---    0.18825   0.19228   0.19350   0.19770   0.20356
     Eigenvalues ---    0.20419   0.20746   0.21420   0.21837   0.22159
     Eigenvalues ---    0.22580   0.23069   0.23879   0.24290   0.25777
     Eigenvalues ---    0.26408   0.27669   0.28607   0.29158   0.29279
     Eigenvalues ---    0.29703   0.30547   0.30754   0.31130   0.31686
     Eigenvalues ---    0.32398   0.32605   0.32696   0.32827   0.32985
     Eigenvalues ---    0.33271   0.33293   0.33544   0.33554   0.33559
     Eigenvalues ---    0.33630   0.33772   0.33900   0.34078   0.34113
     Eigenvalues ---    0.34241   0.34337   0.34580   0.34684   0.34850
     Eigenvalues ---    0.35192   0.35454   0.35617   0.36072   0.36247
     Eigenvalues ---    0.36808   0.36898   0.37300   0.37420   0.37856
     Eigenvalues ---    0.38011   0.39415   0.40218   0.41818   0.43925
     Eigenvalues ---    0.45175   0.46743   0.47730   0.49937   0.50195
     Eigenvalues ---    0.52055   0.53077   0.53230   0.58732
 Eigenvectors required to have negative eigenvalues:
                          R18       D46       D54       D45       D53
   1                    0.87967   0.16958  -0.16510   0.15274  -0.12793
                          D51       D47       D48      A105      A107
   1                    0.12369  -0.11169  -0.09485  -0.09327   0.09132
 RFO step:  Lambda0=8.711925278D-12 Lambda= 0.00000000D+00.
 Linear search not attempted -- option 19 set.
 Iteration  1 RMS(Cart)=  0.00004537 RMS(Int)=  0.00000000
 Iteration  2 RMS(Cart)=  0.00000000 RMS(Int)=  0.00000000
 ITry= 1 IFail=0 DXMaxC= 2.69D-04 DCOld= 1.00D+10 DXMaxT= 3.00D-01 DXLimC= 3.00D+00 Rises=F
 Variable       Old X    -DE/DX   Delta X   Delta X   Delta X     New X
                                 (Linear)    (Quad)   (Total)
    R1        2.60120   0.00000   0.00000   0.00000   0.00000   2.60120
    R2        2.67780  -0.00000   0.00000   0.00000   0.00000   2.67780
    R3        2.52983   0.00000   0.00000  -0.00000  -0.00000   2.52983
    R4        2.66810   0.00000   0.00000   0.00000   0.00000   2.66810
    R5        2.04469  -0.00000   0.00000  -0.00000  -0.00000   2.04469
    R6        2.65445   0.00000   0.00000   0.00000   0.00000   2.65445
    R7        2.70827   0.00000   0.00000   0.00000   0.00000   2.70827
    R8        2.65862  -0.00000   0.00000   0.00000   0.00000   2.65862
    R9        2.59325  -0.00000   0.00000  -0.00000  -0.00000   2.59325
   R10        2.57188  -0.00000   0.00000  -0.00000  -0.00000   2.57188
   R11        2.04644  -0.00000   0.00000  -0.00000  -0.00000   2.04644
   R12        2.04366  -0.00000   0.00000  -0.00000  -0.00000   2.04366
   R13        2.58358   0.00000   0.00000  -0.00000  -0.00000   2.58358
   R14        2.85635   0.00000   0.00000   0.00000   0.00000   2.85635
   R15        2.66328  -0.00000   0.00000   0.00000   0.00000   2.66328
   R16        2.04311  -0.00000   0.00000   0.00000   0.00000   2.04311
   R17        2.54076  -0.00000   0.00000   0.00000   0.00000   2.54076
   R18        4.22235   0.00000   0.00000  -0.00002  -0.00002   4.22233
   R19        2.04167  -0.00000   0.00000  -0.00000  -0.00000   2.04167
   R20        1.91126   0.00000   0.00000  -0.00000  -0.00000   1.91126
   R21        2.69545  -0.00000   0.00000  -0.00000  -0.00000   2.69545
   R22        2.06794  -0.00000   0.00000  -0.00000  -0.00000   2.06794
   R23        2.93845   0.00000   0.00000  -0.00000  -0.00000   2.93845
   R24        2.67515   0.00000   0.00000   0.00000   0.00000   2.67515
   R25        2.04977  -0.00000   0.00000  -0.00000  -0.00000   2.04977
   R26        2.06303   0.00000   0.00000   0.00000   0.00000   2.06303
   R27        2.06307  -0.00000   0.00000  -0.00000  -0.00000   2.06307
   R28        2.91914   0.00000   0.00000   0.00000   0.00000   2.91914
   R29        2.06536  -0.00000   0.00000  -0.00000  -0.00000   2.06536
   R30        2.77930   0.00000   0.00000  -0.00000  -0.00000   2.77930
   R31        2.89763  -0.00000   0.00000  -0.00000  -0.00000   2.89763
   R32        2.05723  -0.00000   0.00000  -0.00000  -0.00000   2.05723
   R33        2.06281   0.00000   0.00000   0.00000   0.00000   2.06281
   R34        2.06025  -0.00000   0.00000  -0.00000  -0.00000   2.06025
   R35        2.06208  -0.00000   0.00000  -0.00000  -0.00000   2.06208
   R36        2.92226  -0.00000   0.00000   0.00000   0.00000   2.92226
   R37        2.78060   0.00000   0.00000  -0.00000  -0.00000   2.78060
   R38        2.93193  -0.00000   0.00000  -0.00000  -0.00000   2.93192
   R39        2.06255  -0.00000   0.00000  -0.00000  -0.00000   2.06255
   R40        2.07017  -0.00000   0.00000  -0.00000  -0.00000   2.07017
   R41        2.77506   0.00000   0.00000   0.00000   0.00000   2.77506
   R42        2.89402  -0.00000   0.00000  -0.00000  -0.00000   2.89402
   R43        2.90237  -0.00000   0.00000  -0.00000  -0.00000   2.90236
   R44        2.05969   0.00000   0.00000   0.00000   0.00000   2.05969
   R45        2.06327   0.00000   0.00000   0.00000   0.00000   2.06327
   R46        2.06165   0.00000   0.00000   0.00000   0.00000   2.06165
   R47        2.06875   0.00000   0.00000   0.00000   0.00000   2.06875
   R48        2.88855   0.00000   0.00000   0.00000   0.00000   2.88855
   R49        2.07142   0.00000   0.00000   0.00000   0.00000   2.07142
   R50        2.06774  -0.00000   0.00000  -0.00000  -0.00000   2.06774
   R51        2.87861  -0.00000   0.00000   0.00000   0.00000   2.87861
   R52        2.05947   0.00000   0.00000   0.00000   0.00000   2.05947
   R53        2.06324  -0.00000   0.00000  -0.00000  -0.00000   2.06324
   R54        2.06188  -0.00000   0.00000  -0.00000  -0.00000   2.06188
   R55        1.81846   0.00000   0.00000   0.00000   0.00000   1.81846
   R56        2.50080  -0.00000   0.00000  -0.00000  -0.00000   2.50080
   R57        2.49276  -0.00000   0.00000  -0.00000  -0.00000   2.49276
   R58        2.05704  -0.00000   0.00000  -0.00000  -0.00000   2.05704
    A1        2.10205   0.00000   0.00000  -0.00000  -0.00000   2.10205
    A2        2.17727   0.00000   0.00000   0.00000   0.00000   2.17727
    A3        2.00386  -0.00000   0.00000  -0.00000  -0.00000   2.00386
    A4        2.09105   0.00000   0.00000   0.00000   0.00000   2.09105
    A5        2.10667   0.00000   0.00000   0.00000   0.00000   2.10667
    A6        2.08517  -0.00000   0.00000  -0.00000  -0.00000   2.08517
    A7        2.07376  -0.00000   0.00000  -0.00000  -0.00000   2.07376
    A8        2.14288   0.00000   0.00000   0.00000   0.00000   2.14288
    A9        2.06635  -0.00000   0.00000  -0.00000  -0.00000   2.06635
   A10        2.11023   0.00000   0.00000   0.00000   0.00000   2.11023
   A11        2.07731   0.00000   0.00000   0.00000   0.00000   2.07731
   A12        2.09561  -0.00000   0.00000  -0.00000  -0.00000   2.09561
   A13        2.08365   0.00000   0.00000   0.00000   0.00000   2.08365
   A14        2.09453  -0.00000   0.00000  -0.00000  -0.00000   2.09453
   A15        2.10499  -0.00000   0.00000   0.00000   0.00000   2.10499
   A16        2.10558   0.00000   0.00000  -0.00000  -0.00000   2.10558
   A17        2.06066  -0.00000   0.00000  -0.00000  -0.00000   2.06066
   A18        2.11695  -0.00000   0.00000   0.00000   0.00000   2.11695
   A19        2.08921  -0.00000   0.00000  -0.00000  -0.00000   2.08920
   A20        2.08398   0.00000   0.00000   0.00000   0.00000   2.08398
   A21        2.10999  -0.00000   0.00000  -0.00000  -0.00000   2.10999
   A22        2.13094  -0.00000   0.00000  -0.00000  -0.00000   2.13094
   A23        2.07148   0.00000   0.00000  -0.00000  -0.00000   2.07148
   A24        1.71093  -0.00000   0.00000  -0.00000  -0.00000   1.71093
   A25        2.02618  -0.00000   0.00000  -0.00000  -0.00000   2.02618
   A26        1.57961   0.00000   0.00000   0.00001   0.00001   1.57962
   A27        1.73072  -0.00000   0.00000   0.00000   0.00000   1.73072
   A28        2.10094   0.00000   0.00000   0.00000   0.00000   2.10094
   A29        2.10135  -0.00000   0.00000  -0.00000  -0.00000   2.10135
   A30        2.07994  -0.00000   0.00000  -0.00000  -0.00000   2.07994
   A31        2.14626  -0.00000   0.00000  -0.00000  -0.00000   2.14626
   A32        2.05522   0.00000   0.00000   0.00000   0.00000   2.05522
   A33        2.07493   0.00000   0.00000   0.00000   0.00000   2.07493
   A34        2.05482   0.00000   0.00000   0.00000   0.00000   2.05482
   A35        1.87993  -0.00000   0.00000   0.00000   0.00000   1.87993
   A36        1.92498   0.00000   0.00000   0.00000   0.00000   1.92498
   A37        1.94046  -0.00000   0.00000  -0.00000  -0.00000   1.94046
   A38        1.85003   0.00000   0.00000   0.00000   0.00000   1.85003
   A39        1.91561   0.00000   0.00000  -0.00000  -0.00000   1.91561
   A40        1.94938  -0.00000   0.00000  -0.00000  -0.00000   1.94938
   A41        1.84677   0.00000   0.00000   0.00000   0.00000   1.84677
   A42        1.93215  -0.00000   0.00000  -0.00000  -0.00000   1.93215
   A43        1.93610  -0.00000   0.00000  -0.00000  -0.00000   1.93610
   A44        1.91653  -0.00000   0.00000  -0.00000  -0.00000   1.91653
   A45        1.91817  -0.00000   0.00000  -0.00000  -0.00000   1.91816
   A46        1.91324   0.00000   0.00000   0.00000   0.00000   1.91324
   A47        2.00509  -0.00000   0.00000  -0.00000  -0.00000   2.00509
   A48        1.87117   0.00000   0.00000  -0.00000  -0.00000   1.87117
   A49        1.90800   0.00000   0.00000   0.00000   0.00000   1.90800
   A50        1.88766   0.00000   0.00000   0.00000   0.00000   1.88766
   A51        1.94929  -0.00000   0.00000   0.00000   0.00000   1.94929
   A52        1.83281  -0.00000   0.00000  -0.00000  -0.00000   1.83281
   A53        1.87038   0.00000   0.00000   0.00000   0.00000   1.87039
   A54        1.94467  -0.00000   0.00000   0.00000   0.00000   1.94467
   A55        1.92424  -0.00000   0.00000  -0.00000  -0.00000   1.92424
   A56        1.90481  -0.00000   0.00000  -0.00000  -0.00000   1.90481
   A57        1.94575  -0.00000   0.00000  -0.00000  -0.00000   1.94575
   A58        1.87477   0.00000   0.00000   0.00000   0.00000   1.87477
   A59        1.86827   0.00000   0.00000   0.00000   0.00000   1.86827
   A60        1.94782  -0.00000   0.00000  -0.00000  -0.00000   1.94782
   A61        1.88295  -0.00000   0.00000  -0.00000  -0.00000   1.88295
   A62        1.93483   0.00000   0.00000   0.00000   0.00000   1.93483
   A63        1.88936  -0.00000   0.00000   0.00000   0.00000   1.88936
   A64        1.93786   0.00000   0.00000   0.00000   0.00000   1.93786
   A65        1.94598  -0.00000   0.00000   0.00000   0.00000   1.94598
   A66        1.92046  -0.00000   0.00000  -0.00000  -0.00000   1.92046
   A67        1.95825  -0.00000   0.00000  -0.00000  -0.00000   1.95825
   A68        1.87310   0.00000   0.00000  -0.00000  -0.00000   1.87310
   A69        1.87555   0.00000   0.00000   0.00000   0.00000   1.87555
   A70        1.88732   0.00000   0.00000  -0.00000  -0.00000   1.88732
   A71        1.88419   0.00000   0.00000   0.00000   0.00000   1.88420
   A72        1.92958  -0.00000   0.00000  -0.00000  -0.00000   1.92958
   A73        1.91833   0.00000   0.00000  -0.00000  -0.00000   1.91833
   A74        1.88884   0.00000   0.00000   0.00000   0.00000   1.88884
   A75        1.91671  -0.00000   0.00000  -0.00000  -0.00000   1.91671
   A76        1.92549  -0.00000   0.00000  -0.00000  -0.00000   1.92549
   A77        1.88655  -0.00000   0.00000   0.00000   0.00000   1.88655
   A78        1.93350   0.00000   0.00000   0.00000   0.00000   1.93350
   A79        1.93199  -0.00000   0.00000  -0.00000  -0.00000   1.93199
   A80        1.91351  -0.00000   0.00000  -0.00000  -0.00000   1.91351
   A81        1.92710   0.00000   0.00000   0.00000   0.00000   1.92710
   A82        1.87152  -0.00000   0.00000  -0.00000  -0.00000   1.87152
   A83        1.86456   0.00000   0.00000   0.00000   0.00000   1.86457
   A84        1.90229  -0.00000   0.00000   0.00000   0.00000   1.90229
   A85        1.94913   0.00000   0.00000   0.00000   0.00000   1.94913
   A86        1.87405  -0.00000   0.00000   0.00000   0.00000   1.87405
   A87        1.99417  -0.00000   0.00000  -0.00000  -0.00000   1.99417
   A88        1.87693   0.00000   0.00000  -0.00000  -0.00000   1.87693
   A89        1.91552   0.00000   0.00000   0.00000   0.00000   1.91552
   A90        1.89136  -0.00000   0.00000   0.00000   0.00000   1.89136
   A91        1.89907  -0.00000   0.00000  -0.00000  -0.00000   1.89907
   A92        1.91638   0.00000   0.00000   0.00000   0.00000   1.91638
   A93        1.88490   0.00000   0.00000  -0.00000  -0.00000   1.88490
   A94        1.98869  -0.00000   0.00000  -0.00000  -0.00000   1.98869
   A95        1.84350  -0.00000   0.00000  -0.00000  -0.00000   1.84350
   A96        1.91537   0.00000   0.00000   0.00000   0.00000   1.91537
   A97        1.90913   0.00000   0.00000   0.00000   0.00000   1.90913
   A98        1.93918  -0.00000   0.00000   0.00000   0.00000   1.93918
   A99        1.93511  -0.00000   0.00000  -0.00000  -0.00000   1.93511
   A100       1.95139   0.00000   0.00000   0.00000   0.00000   1.95139
   A101       1.88000   0.00000   0.00000   0.00000   0.00000   1.88000
   A102       1.87660  -0.00000   0.00000  -0.00000  -0.00000   1.87660
   A103       1.87848  -0.00000   0.00000  -0.00000  -0.00000   1.87848
   A104       1.90371   0.00000   0.00000   0.00000   0.00000   1.90371
   A105       1.75841   0.00000   0.00000   0.00000   0.00000   1.75842
   A106       1.82911   0.00000   0.00000   0.00001   0.00001   1.82912
   A107       1.90961   0.00000   0.00000  -0.00001  -0.00001   1.90960
   A108       1.94074  -0.00000   0.00000   0.00000   0.00000   1.94074
   A109       2.00087  -0.00000   0.00000  -0.00000  -0.00000   2.00086
   A110       2.00040  -0.00000   0.00000  -0.00000  -0.00000   2.00040
    D1       -0.00185  -0.00000   0.00000  -0.00001  -0.00001  -0.00186
    D2        3.11366   0.00000   0.00000  -0.00000  -0.00000   3.11365
    D3       -3.14024  -0.00000   0.00000  -0.00001  -0.00001  -3.14025
    D4       -0.02473  -0.00000   0.00000  -0.00001  -0.00001  -0.02474
    D5       -0.00505   0.00000   0.00000   0.00001   0.00001  -0.00504
    D6        3.13986   0.00000   0.00000   0.00001   0.00001   3.13987
    D7        3.13365   0.00000   0.00000   0.00001   0.00001   3.13366
    D8       -0.00463   0.00000   0.00000   0.00001   0.00001  -0.00462
    D9       -0.00874  -0.00000   0.00000  -0.00002  -0.00002  -0.00876
   D10        3.13590  -0.00000   0.00000  -0.00002  -0.00002   3.13588
   D11        0.00839  -0.00000   0.00000   0.00000   0.00000   0.00839
   D12        3.12847   0.00000   0.00000   0.00001   0.00001   3.12848
   D13       -3.10744  -0.00000   0.00000  -0.00000  -0.00000  -3.10744
   D14        0.01264   0.00000   0.00000   0.00000   0.00000   0.01264
   D15       -0.00841   0.00000   0.00000   0.00001   0.00001  -0.00840
   D16        3.12365   0.00000   0.00000   0.00001   0.00001   3.12366
   D17       -3.12944  -0.00000   0.00000   0.00000   0.00000  -3.12943
   D18        0.00262   0.00000   0.00000   0.00001   0.00001   0.00262
   D19        3.12915  -0.00000   0.00000  -0.00001  -0.00001   3.12914
   D20       -0.01791  -0.00000   0.00000  -0.00001  -0.00001  -0.01792
   D21       -0.03387  -0.00000   0.00000  -0.00001  -0.00001  -0.03388
   D22        3.10225  -0.00000   0.00000  -0.00000  -0.00000   3.10225
   D23        0.00169  -0.00000   0.00000  -0.00001  -0.00001   0.00168
   D24       -3.13488  -0.00000   0.00000  -0.00001  -0.00001  -3.13489
   D25       -3.13027  -0.00000   0.00000  -0.00001  -0.00001  -3.13028
   D26        0.01635  -0.00000   0.00000  -0.00001  -0.00001   0.01634
   D27        0.11751   0.00000   0.00000   0.00000   0.00000   0.11752
   D28        3.13278  -0.00000   0.00000  -0.00001  -0.00001   3.13278
   D29       -3.03354   0.00000   0.00000   0.00001   0.00001  -3.03353
   D30       -0.01827   0.00000   0.00000  -0.00000  -0.00000  -0.01827
   D31        0.00507  -0.00000   0.00000  -0.00000  -0.00000   0.00507
   D32       -3.13994   0.00000   0.00000   0.00000   0.00000  -3.13994
   D33       -3.14157  -0.00000   0.00000  -0.00000  -0.00000  -3.14157
   D34       -0.00340   0.00000   0.00000   0.00000   0.00000  -0.00340
   D35       -0.04686   0.00000   0.00000  -0.00000  -0.00000  -0.04687
   D36       -3.14113   0.00000   0.00000   0.00000   0.00000  -3.14113
   D37        3.10028  -0.00000   0.00000  -0.00001  -0.00001   3.10027
   D38        0.00601  -0.00000   0.00000  -0.00000  -0.00000   0.00601
   D39        0.81292  -0.00000   0.00000  -0.00002  -0.00002   0.81290
   D40       -1.19859  -0.00000   0.00000  -0.00002  -0.00002  -1.19861
   D41        2.91229  -0.00000   0.00000  -0.00002  -0.00002   2.91227
   D42       -2.33421  -0.00000   0.00000  -0.00001  -0.00001  -2.33422
   D43        1.93747  -0.00000   0.00000  -0.00001  -0.00001   1.93745
   D44       -0.23484  -0.00000   0.00000  -0.00001  -0.00001  -0.23486
   D45        2.93959   0.00000   0.00000   0.00000   0.00000   2.93959
   D46       -0.24875   0.00000   0.00000  -0.00001  -0.00001  -0.24876
   D47        0.16067   0.00000   0.00000   0.00001   0.00001   0.16069
   D48       -3.02767   0.00000   0.00000   0.00001   0.00001  -3.02766
   D49       -1.67367   0.00000   0.00000   0.00001   0.00001  -1.67366
   D50        1.42118   0.00000   0.00000   0.00000   0.00000   1.42118
   D51       -0.19860  -0.00000   0.00000  -0.00001  -0.00001  -0.19862
   D52        3.07067   0.00000   0.00000  -0.00001  -0.00001   3.07066
   D53       -2.99894  -0.00000   0.00000  -0.00000  -0.00000  -2.99895
   D54        0.27033   0.00000   0.00000   0.00001   0.00001   0.27034
   D55        1.62440  -0.00000   0.00000  -0.00001  -0.00001   1.62439
   D56       -1.38951  -0.00000   0.00000  -0.00000  -0.00000  -1.38952
   D57        2.88450   0.00000   0.00000  -0.00004  -0.00004   2.88446
   D58        0.86832  -0.00000   0.00000  -0.00005  -0.00005   0.86827
   D59       -1.28470  -0.00000   0.00000  -0.00005  -0.00005  -1.28474
   D60       -1.26002   0.00000   0.00000  -0.00004  -0.00004  -1.26006
   D61        3.00698  -0.00000   0.00000  -0.00005  -0.00005   3.00693
   D62        0.85396  -0.00000   0.00000  -0.00005  -0.00005   0.85392
   D63        0.77411  -0.00000   0.00000  -0.00004  -0.00004   0.77406
   D64       -1.24208  -0.00000   0.00000  -0.00005  -0.00005  -1.24213
   D65        2.88809  -0.00000   0.00000  -0.00005  -0.00005   2.88804
   D66        3.12988   0.00000   0.00000   0.00002   0.00002   3.12990
   D67       -1.07779   0.00000   0.00000   0.00002   0.00002  -1.07777
   D68        1.05029   0.00000   0.00000   0.00002   0.00002   1.05031
   D69       -1.82683   0.00000   0.00000   0.00003   0.00003  -1.82680
   D70        0.27131   0.00000   0.00000   0.00003   0.00003   0.27135
   D71        2.24921   0.00000   0.00000   0.00003   0.00003   2.24924
   D72        2.42610  -0.00000   0.00000   0.00003   0.00003   2.42613
   D73       -1.75894  -0.00000   0.00000   0.00003   0.00003  -1.75891
   D74        0.21896  -0.00000   0.00000   0.00003   0.00003   0.21899
   D75        0.34035  -0.00000   0.00000   0.00003   0.00003   0.34038
   D76        2.43849  -0.00000   0.00000   0.00003   0.00003   2.43852
   D77       -1.86679   0.00000   0.00000   0.00003   0.00003  -1.86676
   D78       -1.54530   0.00000   0.00000   0.00001   0.00001  -1.54529
   D79        0.53283  -0.00000   0.00000   0.00001   0.00001   0.53284
   D80        2.57943  -0.00000   0.00000   0.00001   0.00001   2.57943
   D81       -2.42128  -0.00000   0.00000   0.00001   0.00001  -2.42127
   D82       -0.33866  -0.00000   0.00000   0.00001   0.00001  -0.33865
   D83        1.74131  -0.00000   0.00000   0.00001   0.00001   1.74132
   D84        1.77289  -0.00000   0.00000   0.00001   0.00001   1.77290
   D85       -2.42768   0.00000   0.00000   0.00001   0.00001  -2.42767
   D86       -0.34771  -0.00000   0.00000   0.00001   0.00001  -0.34770
   D87       -0.23551   0.00000   0.00000   0.00001   0.00001  -0.23550
   D88        1.84712   0.00000   0.00000   0.00001   0.00001   1.84713
   D89       -2.35610   0.00000   0.00000   0.00001   0.00001  -2.35609
   D90        1.34791  -0.00000   0.00000  -0.00001  -0.00001   1.34790
   D91       -2.86363  -0.00000   0.00000  -0.00001  -0.00001  -2.86364
   D92       -0.89070   0.00000   0.00000  -0.00000  -0.00000  -0.89070
   D93        1.18095  -0.00000   0.00000  -0.00000  -0.00000   1.18094
   D94       -2.93254   0.00000   0.00000  -0.00001  -0.00001  -2.93254
   D95       -0.86089  -0.00000   0.00000  -0.00001  -0.00001  -0.86090
   D96        1.17120  -0.00000   0.00000  -0.00000  -0.00000   1.17120
   D97       -0.89185  -0.00000   0.00000  -0.00001  -0.00001  -0.89185
   D98       -3.02166  -0.00000   0.00000  -0.00000  -0.00000  -3.02166
   D99       -0.93688  -0.00000   0.00000  -0.00001  -0.00001  -0.93688
   D100      -2.99993  -0.00000   0.00000  -0.00001  -0.00001  -2.99993
   D101       1.15345  -0.00000   0.00000  -0.00001  -0.00001   1.15344
   D102      -3.00498  -0.00000   0.00000  -0.00001  -0.00001  -3.00498
   D103       1.21516  -0.00000   0.00000  -0.00001  -0.00001   1.21515
   D104      -0.91465   0.00000   0.00000  -0.00000  -0.00000  -0.91466
   D105      -2.28377   0.00000   0.00000   0.00001   0.00001  -2.28376
   D106      -0.18695   0.00000   0.00000   0.00001   0.00001  -0.18694
   D107       1.88682  -0.00000   0.00000   0.00001   0.00001   1.88683
   D108       1.91856   0.00000   0.00000   0.00001   0.00001   1.91857
   D109      -2.26780   0.00000   0.00000   0.00001   0.00001  -2.26779
   D110      -0.19403  -0.00000   0.00000   0.00001   0.00001  -0.19402
   D111      -0.18229   0.00000   0.00000   0.00001   0.00001  -0.18228
   D112       1.91453   0.00000   0.00000   0.00001   0.00001   1.91454
   D113      -2.29488   0.00000   0.00000   0.00001   0.00001  -2.29487
   D114      -3.00705  -0.00000   0.00000  -0.00001  -0.00001  -3.00706
   D115       1.20926   0.00000   0.00000  -0.00001  -0.00001   1.20925
   D116      -0.99095  -0.00000   0.00000  -0.00001  -0.00001  -0.99096
   D117      -3.05783   0.00000   0.00000  -0.00001  -0.00001  -3.05784
   D118       1.13664  -0.00000   0.00000  -0.00001  -0.00001   1.13663
   D119      -0.93024   0.00000   0.00000  -0.00001  -0.00001  -0.93024
   D120       1.93819   0.00000   0.00000   0.00001   0.00001   1.93819
   D121      -0.08163   0.00000   0.00000   0.00001   0.00001  -0.08163
   D122      -2.15285  -0.00000   0.00000   0.00001   0.00001  -2.15284
   D123      -2.26875  -0.00000   0.00000   0.00001   0.00001  -2.26874
   D124       1.99461  -0.00000   0.00000   0.00001   0.00001   1.99462
   D125      -0.07660  -0.00000   0.00000   0.00001   0.00001  -0.07659
   D126      -0.16667  -0.00000   0.00000   0.00001   0.00001  -0.16666
   D127      -2.18649  -0.00000   0.00000   0.00001   0.00001  -2.18649
   D128       2.02548  -0.00000   0.00000   0.00001   0.00001   2.02549
   D129      -0.93583  -0.00000   0.00000  -0.00000  -0.00000  -0.93584
   D130       1.14620  -0.00000   0.00000  -0.00000  -0.00000   1.14619
   D131      -3.08095  -0.00000   0.00000  -0.00000  -0.00000  -3.08096
   D132      -0.99893  -0.00000   0.00000  -0.00000  -0.00000  -0.99893
   D133       1.18534  -0.00000   0.00000  -0.00000  -0.00000   1.18534
   D134      -3.01582  -0.00000   0.00000  -0.00000  -0.00000  -3.01582
   D135      -0.93776   0.00000   0.00000  -0.00000  -0.00000  -0.93776
   D136      -3.04707   0.00000   0.00000  -0.00001  -0.00001  -3.04708
   D137       1.17787   0.00000   0.00000  -0.00001  -0.00001   1.17787
   D138       1.15122   0.00000   0.00000  -0.00001  -0.00001   1.15121
   D139      -0.95809   0.00000   0.00000  -0.00001  -0.00001  -0.95810
   D140      -3.01634  -0.00000   0.00000  -0.00001  -0.00001  -3.01634
   D141      -3.02911   0.00000   0.00000  -0.00001  -0.00001  -3.02911
   D142       1.14476  -0.00000   0.00000  -0.00001  -0.00001   1.14476
   D143      -0.91348  -0.00000   0.00000  -0.00001  -0.00001  -0.91348
   D144       1.11388   0.00000   0.00000  -0.00000  -0.00000   1.11388
   D145      -3.13068   0.00000   0.00000  -0.00000  -0.00000  -3.13068
   D146      -1.05081  -0.00000   0.00000  -0.00000  -0.00000  -1.05082
   D147      -0.94633  -0.00000   0.00000  -0.00000  -0.00000  -0.94633
   D148       1.09229  -0.00000   0.00000  -0.00000  -0.00000   1.09229
   D149      -3.11102  -0.00000   0.00000  -0.00000  -0.00000  -3.11103
   D150      -3.04370  -0.00000   0.00000  -0.00000  -0.00000  -3.04370
   D151      -1.00508   0.00000   0.00000  -0.00000  -0.00000  -1.00508
   D152       1.07479  -0.00000   0.00000  -0.00000  -0.00000   1.07479
   D153      -0.97604  -0.00000   0.00000   0.00001   0.00001  -0.97603
   D154       1.02594   0.00000   0.00000   0.00001   0.00001   1.02595
   D155      -3.13244   0.00000   0.00000   0.00001   0.00001  -3.13243
   D156       1.14264   0.00000   0.00000   0.00001   0.00001   1.14265
   D157      -3.13856   0.00000   0.00000   0.00001   0.00001  -3.13855
   D158      -1.01375   0.00000   0.00000   0.00001   0.00001  -1.01374
   D159      -3.06230  -0.00000   0.00000   0.00001   0.00001  -3.06229
   D160      -1.06032   0.00000   0.00000   0.00001   0.00001  -1.06031
   D161       1.06449   0.00000   0.00000   0.00001   0.00001   1.06450
   D162      -3.03995   0.00000   0.00000   0.00001   0.00001  -3.03994
   D163      -0.94983   0.00000   0.00000   0.00001   0.00001  -0.94982
   D164       1.14650   0.00000   0.00000   0.00001   0.00001   1.14651
   D165       1.08629   0.00000   0.00000   0.00001   0.00001   1.08630
   D166      -3.10678   0.00000   0.00000   0.00001   0.00001  -3.10676
   D167      -1.01044   0.00000   0.00000   0.00001   0.00001  -1.01043
   D168      -0.92859   0.00000   0.00000   0.00001   0.00001  -0.92858
   D169       1.16153   0.00000   0.00000   0.00001   0.00001   1.16154
   D170      -3.02532  -0.00000   0.00000   0.00001   0.00001  -3.02531
         Item               Value     Threshold  Converged?
 Maximum Force            0.000002     0.000450     YES
 RMS     Force            0.000000     0.000300     YES
 Maximum Displacement     0.000269     0.001800     YES
 RMS     Displacement     0.000045     0.001200     YES
 Predicted change in Energy=-1.169959D-10
 Optimization completed.
    -- Stationary point found.
                           ----------------------------
                           !   Optimized Parameters   !
                           ! (Angstroms and Degrees)  !
 --------------------------                            --------------------------
 ! Name  Definition              Value          Derivative Info.                !
 --------------------------------------------------------------------------------
 ! R1    R(1,2)                  1.3765         -DE/DX =    0.0                 !
 ! R2    R(1,6)                  1.417          -DE/DX =    0.0                 !
 ! R3    R(1,16)                 1.3387         -DE/DX =    0.0                 !
 ! R4    R(2,3)                  1.4119         -DE/DX =    0.0                 !
 ! R5    R(2,7)                  1.082          -DE/DX =    0.0                 !
 ! R6    R(3,4)                  1.4047         -DE/DX =    0.0                 !
 ! R7    R(3,8)                  1.4332         -DE/DX =    0.0                 !
 ! R8    R(4,5)                  1.4069         -DE/DX =    0.0                 !
 ! R9    R(4,15)                 1.3723         -DE/DX =    0.0                 !
 ! R10   R(5,6)                  1.361          -DE/DX =    0.0                 !
 ! R11   R(5,9)                  1.0829         -DE/DX =    0.0                 !
 ! R12   R(6,10)                 1.0815         -DE/DX =    0.0                 !
 ! R13   R(8,12)                 1.3672         -DE/DX =    0.0                 !
 ! R14   R(8,17)                 1.5115         -DE/DX =    0.0                 !
 ! R15   R(11,12)                1.4093         -DE/DX =    0.0                 !
 ! R16   R(11,13)                1.0812         -DE/DX =    0.0                 !
 ! R17   R(11,15)                1.3445         -DE/DX =    0.0                 !
 ! R18   R(11,51)                2.2344         -DE/DX =    0.0                 !
 ! R19   R(12,14)                1.0804         -DE/DX =    0.0                 !
 ! R20   R(15,55)                1.0114         -DE/DX =    0.0                 !
 ! R21   R(16,19)                1.4264         -DE/DX =    0.0                 !
 ! R22   R(17,18)                1.0943         -DE/DX =    0.0                 !
 ! R23   R(17,23)                1.555          -DE/DX =    0.0                 !
 ! R24   R(17,49)                1.4156         -DE/DX =    0.0                 !
 ! R25   R(19,20)                1.0847         -DE/DX =    0.0                 !
 ! R26   R(19,21)                1.0917         -DE/DX =    0.0                 !
 ! R27   R(19,22)                1.0917         -DE/DX =    0.0                 !
 ! R28   R(23,24)                1.5447         -DE/DX =    0.0                 !
 ! R29   R(23,25)                1.0929         -DE/DX =    0.0                 !
 ! R30   R(23,41)                1.4707         -DE/DX =    0.0                 !
 ! R31   R(24,28)                1.5334         -DE/DX =    0.0                 !
 ! R32   R(24,29)                1.0886         -DE/DX =    0.0                 !
 ! R33   R(24,30)                1.0916         -DE/DX =    0.0                 !
 ! R34   R(26,31)                1.0902         -DE/DX =    0.0                 !
 ! R35   R(26,32)                1.0912         -DE/DX =    0.0                 !
 ! R36   R(26,33)                1.5464         -DE/DX =    0.0                 !
 ! R37   R(26,41)                1.4714         -DE/DX =    0.0                 !
 ! R38   R(27,34)                1.5515         -DE/DX =    0.0                 !
 ! R39   R(27,35)                1.0915         -DE/DX =    0.0                 !
 ! R40   R(27,36)                1.0955         -DE/DX =    0.0                 !
 ! R41   R(27,41)                1.4685         -DE/DX =    0.0                 !
 ! R42   R(28,33)                1.5315         -DE/DX =    0.0                 !
 ! R43   R(28,34)                1.5359         -DE/DX =    0.0                 !
 ! R44   R(28,37)                1.0899         -DE/DX =    0.0                 !
 ! R45   R(33,38)                1.0918         -DE/DX =    0.0                 !
 ! R46   R(33,39)                1.091          -DE/DX =    0.0                 !
 ! R47   R(34,40)                1.0947         -DE/DX =    0.0                 !
 ! R48   R(34,42)                1.5286         -DE/DX =    0.0                 !
 ! R49   R(42,43)                1.0961         -DE/DX =    0.0                 !
 ! R50   R(42,44)                1.0942         -DE/DX =    0.0                 !
 ! R51   R(42,45)                1.5233         -DE/DX =    0.0                 !
 ! R52   R(45,46)                1.0898         -DE/DX =    0.0                 !
 ! R53   R(45,47)                1.0918         -DE/DX =    0.0                 !
 ! R54   R(45,48)                1.0911         -DE/DX =    0.0                 !
 ! R55   R(49,50)                0.9623         -DE/DX =    0.0                 !
 ! R56   R(51,52)                1.3234         -DE/DX =    0.0                 !
 ! R57   R(51,53)                1.3191         -DE/DX =    0.0                 !
 ! R58   R(51,54)                1.0885         -DE/DX =    0.0                 !
 ! A1    A(2,1,6)              120.4389         -DE/DX =    0.0                 !
 ! A2    A(2,1,16)             124.7481         -DE/DX =    0.0                 !
 ! A3    A(6,1,16)             114.8128         -DE/DX =    0.0                 !
 ! A4    A(1,2,3)              119.8086         -DE/DX =    0.0                 !
 ! A5    A(1,2,7)              120.7035         -DE/DX =    0.0                 !
 ! A6    A(3,2,7)              119.4712         -DE/DX =    0.0                 !
 ! A7    A(2,3,4)              118.8176         -DE/DX =    0.0                 !
 ! A8    A(2,3,8)              122.7781         -DE/DX =    0.0                 !
 ! A9    A(4,3,8)              118.3933         -DE/DX =    0.0                 !
 ! A10   A(3,4,5)              120.9075         -DE/DX =    0.0                 !
 ! A11   A(3,4,15)             119.0208         -DE/DX =    0.0                 !
 ! A12   A(5,4,15)             120.0694         -DE/DX =    0.0                 !
 ! A13   A(4,5,6)              119.3845         -DE/DX =    0.0                 !
 ! A14   A(4,5,9)              120.0078         -DE/DX =    0.0                 !
 ! A15   A(6,5,9)              120.607          -DE/DX =    0.0                 !
 ! A16   A(1,6,5)              120.6406         -DE/DX =    0.0                 !
 ! A17   A(1,6,10)             118.0669         -DE/DX =    0.0                 !
 ! A18   A(5,6,10)             121.2923         -DE/DX =    0.0                 !
 ! A19   A(3,8,12)             119.7027         -DE/DX =    0.0                 !
 ! A20   A(3,8,17)             119.403          -DE/DX =    0.0                 !
 ! A21   A(12,8,17)            120.8935         -DE/DX =    0.0                 !
 ! A22   A(12,11,13)           122.0939         -DE/DX =    0.0                 !
 ! A23   A(12,11,15)           118.687          -DE/DX =    0.0                 !
 ! A24   A(12,11,51)            98.0292         -DE/DX =    0.0                 !
 ! A25   A(13,11,15)           116.0914         -DE/DX =    0.0                 !
 ! A26   A(13,11,51)            90.5049         -DE/DX =    0.0                 !
 ! A27   A(15,11,51)            99.1628         -DE/DX =    0.0                 !
 ! A28   A(8,12,11)            120.3749         -DE/DX =    0.0                 !
 ! A29   A(8,12,14)            120.3985         -DE/DX =    0.0                 !
 ! A30   A(11,12,14)           119.1719         -DE/DX =    0.0                 !
 ! A31   A(4,15,11)            122.9718         -DE/DX =    0.0                 !
 ! A32   A(4,15,55)            117.7554         -DE/DX =    0.0                 !
 ! A33   A(11,15,55)           118.885          -DE/DX =    0.0                 !
 ! A34   A(1,16,19)            117.7324         -DE/DX =    0.0                 !
 ! A35   A(8,17,18)            107.7121         -DE/DX =    0.0                 !
 ! A36   A(8,17,23)            110.2931         -DE/DX =    0.0                 !
 ! A37   A(8,17,49)            111.1801         -DE/DX =    0.0                 !
 ! A38   A(18,17,23)           105.9991         -DE/DX =    0.0                 !
 ! A39   A(18,17,49)           109.7566         -DE/DX =    0.0                 !
 ! A40   A(23,17,49)           111.6913         -DE/DX =    0.0                 !
 ! A41   A(16,19,20)           105.812          -DE/DX =    0.0                 !
 ! A42   A(16,19,21)           110.7041         -DE/DX =    0.0                 !
 ! A43   A(16,19,22)           110.9301         -DE/DX =    0.0                 !
 ! A44   A(20,19,21)           109.8088         -DE/DX =    0.0                 !
 ! A45   A(20,19,22)           109.9028         -DE/DX =    0.0                 !
 ! A46   A(21,19,22)           109.6206         -DE/DX =    0.0                 !
 ! A47   A(17,23,24)           114.8834         -DE/DX =    0.0                 !
 ! A48   A(17,23,25)           107.2102         -DE/DX =    0.0                 !
 ! A49   A(17,23,41)           109.3205         -DE/DX =    0.0                 !
 ! A50   A(24,23,25)           108.1548         -DE/DX =    0.0                 !
 ! A51   A(24,23,41)           111.6862         -DE/DX =    0.0                 !
 ! A52   A(25,23,41)           105.0125         -DE/DX =    0.0                 !
 ! A53   A(23,24,28)           107.1652         -DE/DX =    0.0                 !
 ! A54   A(23,24,29)           111.4216         -DE/DX =    0.0                 !
 ! A55   A(23,24,30)           110.2507         -DE/DX =    0.0                 !
 ! A56   A(28,24,29)           109.1377         -DE/DX =    0.0                 !
 ! A57   A(28,24,30)           111.4835         -DE/DX =    0.0                 !
 ! A58   A(29,24,30)           107.4163         -DE/DX =    0.0                 !
 ! A59   A(31,26,32)           107.0438         -DE/DX =    0.0                 !
 ! A60   A(31,26,33)           111.602          -DE/DX =    0.0                 !
 ! A61   A(31,26,41)           107.8851         -DE/DX =    0.0                 !
 ! A62   A(32,26,33)           110.8576         -DE/DX =    0.0                 !
 ! A63   A(32,26,41)           108.2521         -DE/DX =    0.0                 !
 ! A64   A(33,26,41)           111.0313         -DE/DX =    0.0                 !
 ! A65   A(34,27,35)           111.4966         -DE/DX =    0.0                 !
 ! A66   A(34,27,36)           110.0341         -DE/DX =    0.0                 !
 ! A67   A(34,27,41)           112.1996         -DE/DX =    0.0                 !
 ! A68   A(35,27,36)           107.3209         -DE/DX =    0.0                 !
 ! A69   A(35,27,41)           107.4612         -DE/DX =    0.0                 !
 ! A70   A(36,27,41)           108.1353         -DE/DX =    0.0                 !
 ! A71   A(24,28,33)           107.9564         -DE/DX =    0.0                 !
 ! A72   A(24,28,34)           110.5569         -DE/DX =    0.0                 !
 ! A73   A(24,28,37)           109.9125         -DE/DX =    0.0                 !
 ! A74   A(33,28,34)           108.2227         -DE/DX =    0.0                 !
 ! A75   A(33,28,37)           109.8191         -DE/DX =    0.0                 !
 ! A76   A(34,28,37)           110.3222         -DE/DX =    0.0                 !
 ! A77   A(26,33,28)           108.0912         -DE/DX =    0.0                 !
 ! A78   A(26,33,38)           110.7815         -DE/DX =    0.0                 !
 ! A79   A(26,33,39)           110.6951         -DE/DX =    0.0                 !
 ! A80   A(28,33,38)           109.6363         -DE/DX =    0.0                 !
 ! A81   A(28,33,39)           110.4147         -DE/DX =    0.0                 !
 ! A82   A(38,33,39)           107.23           -DE/DX =    0.0                 !
 ! A83   A(27,34,28)           106.8317         -DE/DX =    0.0                 !
 ! A84   A(27,34,40)           108.9933         -DE/DX =    0.0                 !
 ! A85   A(27,34,42)           111.6769         -DE/DX =    0.0                 !
 ! A86   A(28,34,40)           107.3754         -DE/DX =    0.0                 !
 ! A87   A(28,34,42)           114.2575         -DE/DX =    0.0                 !
 ! A88   A(40,34,42)           107.54           -DE/DX =    0.0                 !
 ! A89   A(23,41,26)           109.7514         -DE/DX =    0.0                 !
 ! A90   A(23,41,27)           108.367          -DE/DX =    0.0                 !
 ! A91   A(26,41,27)           108.8089         -DE/DX =    0.0                 !
 ! A92   A(34,42,43)           109.8005         -DE/DX =    0.0                 !
 ! A93   A(34,42,44)           107.9971         -DE/DX =    0.0                 !
 ! A94   A(34,42,45)           113.9434         -DE/DX =    0.0                 !
 ! A95   A(43,42,44)           105.6247         -DE/DX =    0.0                 !
 ! A96   A(43,42,45)           109.7427         -DE/DX =    0.0                 !
 ! A97   A(44,42,45)           109.3851         -DE/DX =    0.0                 !
 ! A98   A(42,45,46)           111.1069         -DE/DX =    0.0                 !
 ! A99   A(42,45,47)           110.8737         -DE/DX =    0.0                 !
 ! A100  A(42,45,48)           111.8063         -DE/DX =    0.0                 !
 ! A101  A(46,45,47)           107.716          -DE/DX =    0.0                 !
 ! A102  A(46,45,48)           107.5211         -DE/DX =    0.0                 !
 ! A103  A(47,45,48)           107.6291         -DE/DX =    0.0                 !
 ! A104  A(17,49,50)           109.0745         -DE/DX =    0.0                 !
 ! A105  A(11,51,52)           100.7497         -DE/DX =    0.0                 !
 ! A106  A(11,51,53)           104.8002         -DE/DX =    0.0                 !
 ! A107  A(11,51,54)           109.4128         -DE/DX =    0.0                 !
 ! A108  A(52,51,53)           111.196          -DE/DX =    0.0                 !
 ! A109  A(52,51,54)           114.6412         -DE/DX =    0.0                 !
 ! A110  A(53,51,54)           114.6144         -DE/DX =    0.0                 !
 ! D1    D(6,1,2,3)             -0.106          -DE/DX =    0.0                 !
 ! D2    D(6,1,2,7)            178.3994         -DE/DX =    0.0                 !
 ! D3    D(16,1,2,3)          -179.9225         -DE/DX =    0.0                 !
 ! D4    D(16,1,2,7)            -1.417          -DE/DX =    0.0                 !
 ! D5    D(2,1,6,5)             -0.2892         -DE/DX =    0.0                 !
 ! D6    D(2,1,6,10)           179.9009         -DE/DX =    0.0                 !
 ! D7    D(16,1,6,5)           179.5447         -DE/DX =    0.0                 !
 ! D8    D(16,1,6,10)           -0.2653         -DE/DX =    0.0                 !
 ! D9    D(2,1,16,19)           -0.5008         -DE/DX =    0.0                 !
 ! D10   D(6,1,16,19)          179.6736         -DE/DX =    0.0                 !
 ! D11   D(1,2,3,4)              0.4808         -DE/DX =    0.0                 !
 ! D12   D(1,2,3,8)            179.248          -DE/DX =    0.0                 !
 ! D13   D(7,2,3,4)           -178.0432         -DE/DX =    0.0                 !
 ! D14   D(7,2,3,8)              0.724          -DE/DX =    0.0                 !
 ! D15   D(2,3,4,5)             -0.4817         -DE/DX =    0.0                 !
 ! D16   D(2,3,4,15)           178.9718         -DE/DX =    0.0                 !
 ! D17   D(8,3,4,5)           -179.3034         -DE/DX =    0.0                 !
 ! D18   D(8,3,4,15)             0.15           -DE/DX =    0.0                 !
 ! D19   D(2,3,8,12)           179.2872         -DE/DX =    0.0                 !
 ! D20   D(2,3,8,17)            -1.0262         -DE/DX =    0.0                 !
 ! D21   D(4,3,8,12)            -1.9406         -DE/DX =    0.0                 !
 ! D22   D(4,3,8,17)           177.746          -DE/DX =    0.0                 !
 ! D23   D(3,4,5,6)              0.0966         -DE/DX =    0.0                 !
 ! D24   D(3,4,5,9)           -179.6156         -DE/DX =    0.0                 !
 ! D25   D(15,4,5,6)          -179.3511         -DE/DX =    0.0                 !
 ! D26   D(15,4,5,9)             0.9366         -DE/DX =    0.0                 !
 ! D27   D(3,4,15,11)            6.733          -DE/DX =    0.0                 !
 ! D28   D(3,4,15,55)          179.4953         -DE/DX =    0.0                 !
 ! D29   D(5,4,15,11)         -173.8089         -DE/DX =    0.0                 !
 ! D30   D(5,4,15,55)           -1.0466         -DE/DX =    0.0                 !
 ! D31   D(4,5,6,1)              0.2907         -DE/DX =    0.0                 !
 ! D32   D(4,5,6,10)          -179.9055         -DE/DX =    0.0                 !
 ! D33   D(9,5,6,1)           -179.9988         -DE/DX =    0.0                 !
 ! D34   D(9,5,6,10)            -0.195          -DE/DX =    0.0                 !
 ! D35   D(3,8,12,11)           -2.6851         -DE/DX =    0.0                 !
 ! D36   D(3,8,12,14)         -179.9736         -DE/DX =    0.0                 !
 ! D37   D(17,8,12,11)         177.633          -DE/DX =    0.0                 !
 ! D38   D(17,8,12,14)           0.3445         -DE/DX =    0.0                 !
 ! D39   D(3,8,17,18)           46.5768         -DE/DX =    0.0                 !
 ! D40   D(3,8,17,23)          -68.674          -DE/DX =    0.0                 !
 ! D41   D(3,8,17,49)          166.8618         -DE/DX =    0.0                 !
 ! D42   D(12,8,17,18)        -133.7404         -DE/DX =    0.0                 !
 ! D43   D(12,8,17,23)         111.0088         -DE/DX =    0.0                 !
 ! D44   D(12,8,17,49)         -13.4555         -DE/DX =    0.0                 !
 ! D45   D(13,11,12,8)         168.4259         -DE/DX =    0.0                 !
 ! D46   D(13,11,12,14)        -14.2526         -DE/DX =    0.0                 !
 ! D47   D(15,11,12,8)           9.2058         -DE/DX =    0.0                 !
 ! D48   D(15,11,12,14)       -173.4726         -DE/DX =    0.0                 !
 ! D49   D(51,11,12,8)         -95.8942         -DE/DX =    0.0                 !
 ! D50   D(51,11,12,14)         81.4274         -DE/DX =    0.0                 !
 ! D51   D(12,11,15,4)         -11.3791         -DE/DX =    0.0                 !
 ! D52   D(12,11,15,55)        175.9364         -DE/DX =    0.0                 !
 ! D53   D(13,11,15,4)        -171.8268         -DE/DX =    0.0                 !
 ! D54   D(13,11,15,55)         15.4887         -DE/DX =    0.0                 !
 ! D55   D(51,11,15,4)          93.0713         -DE/DX =    0.0                 !
 ! D56   D(51,11,15,55)        -79.6133         -DE/DX =    0.0                 !
 ! D57   D(12,11,51,52)        165.27           -DE/DX =    0.0                 !
 ! D58   D(12,11,51,53)         49.7512         -DE/DX =    0.0                 !
 ! D59   D(12,11,51,54)        -73.6077         -DE/DX =    0.0                 !
 ! D60   D(13,11,51,52)        -72.1938         -DE/DX =    0.0                 !
 ! D61   D(13,11,51,53)        172.2874         -DE/DX =    0.0                 !
 ! D62   D(13,11,51,54)         48.9285         -DE/DX =    0.0                 !
 ! D63   D(15,11,51,52)         44.353          -DE/DX =    0.0                 !
 ! D64   D(15,11,51,53)        -71.1658         -DE/DX =    0.0                 !
 ! D65   D(15,11,51,54)        165.4753         -DE/DX =    0.0                 !
 ! D66   D(1,16,19,20)         179.3288         -DE/DX =    0.0                 !
 ! D67   D(1,16,19,21)         -61.7529         -DE/DX =    0.0                 !
 ! D68   D(1,16,19,22)          60.1773         -DE/DX =    0.0                 !
 ! D69   D(8,17,23,24)        -104.6694         -DE/DX =    0.0                 !
 ! D70   D(8,17,23,25)          15.5452         -DE/DX =    0.0                 !
 ! D71   D(8,17,23,41)         128.8704         -DE/DX =    0.0                 !
 ! D72   D(18,17,23,24)        139.0056         -DE/DX =    0.0                 !
 ! D73   D(18,17,23,25)       -100.7798         -DE/DX =    0.0                 !
 ! D74   D(18,17,23,41)         12.5454         -DE/DX =    0.0                 !
 ! D75   D(49,17,23,24)         19.5008         -DE/DX =    0.0                 !
 ! D76   D(49,17,23,25)        139.7153         -DE/DX =    0.0                 !
 ! D77   D(49,17,23,41)       -106.9594         -DE/DX =    0.0                 !
 ! D78   D(8,17,49,50)         -88.5389         -DE/DX =    0.0                 !
 ! D79   D(18,17,49,50)         30.5292         -DE/DX =    0.0                 !
 ! D80   D(23,17,49,50)        147.7903         -DE/DX =    0.0                 !
 ! D81   D(17,23,24,28)       -138.7291         -DE/DX =    0.0                 !
 ! D82   D(17,23,24,29)        -19.4035         -DE/DX =    0.0                 !
 ! D83   D(17,23,24,30)         99.7696         -DE/DX =    0.0                 !
 ! D84   D(25,23,24,28)        101.5789         -DE/DX =    0.0                 !
 ! D85   D(25,23,24,29)       -139.0956         -DE/DX =    0.0                 !
 ! D86   D(25,23,24,30)        -19.9224         -DE/DX =    0.0                 !
 ! D87   D(41,23,24,28)        -13.4935         -DE/DX =    0.0                 !
 ! D88   D(41,23,24,29)        105.8321         -DE/DX =    0.0                 !
 ! D89   D(41,23,24,30)       -134.9948         -DE/DX =    0.0                 !
 ! D90   D(17,23,41,26)         77.2294         -DE/DX =    0.0                 !
 ! D91   D(17,23,41,27)       -164.0741         -DE/DX =    0.0                 !
 ! D92   D(24,23,41,26)        -51.0332         -DE/DX =    0.0                 !
 ! D93   D(24,23,41,27)         67.6633         -DE/DX =    0.0                 !
 ! D94   D(25,23,41,26)       -168.022          -DE/DX =    0.0                 !
 ! D95   D(25,23,41,27)        -49.3254         -DE/DX =    0.0                 !
 ! D96   D(23,24,28,33)         67.1049         -DE/DX =    0.0                 !
 ! D97   D(23,24,28,34)        -51.0992         -DE/DX =    0.0                 !
 ! D98   D(23,24,28,37)       -173.1284         -DE/DX =    0.0                 !
 ! D99   D(29,24,28,33)        -53.6792         -DE/DX =    0.0                 !
 ! D100  D(29,24,28,34)       -171.8833         -DE/DX =    0.0                 !
 ! D101  D(29,24,28,37)         66.0876         -DE/DX =    0.0                 !
 ! D102  D(30,24,28,33)       -172.1725         -DE/DX =    0.0                 !
 ! D103  D(30,24,28,34)         69.6234         -DE/DX =    0.0                 !
 ! D104  D(30,24,28,37)        -52.4057         -DE/DX =    0.0                 !
 ! D105  D(31,26,33,28)       -130.8507         -DE/DX =    0.0                 !
 ! D106  D(31,26,33,38)        -10.7117         -DE/DX =    0.0                 !
 ! D107  D(31,26,33,39)        108.1067         -DE/DX =    0.0                 !
 ! D108  D(32,26,33,28)        109.9256         -DE/DX =    0.0                 !
 ! D109  D(32,26,33,38)       -129.9355         -DE/DX =    0.0                 !
 ! D110  D(32,26,33,39)        -11.117          -DE/DX =    0.0                 !
 ! D111  D(41,26,33,28)        -10.4444         -DE/DX =    0.0                 !
 ! D112  D(41,26,33,38)        109.6946         -DE/DX =    0.0                 !
 ! D113  D(41,26,33,39)       -131.487          -DE/DX =    0.0                 !
 ! D114  D(31,26,41,23)       -172.2912         -DE/DX =    0.0                 !
 ! D115  D(31,26,41,27)         69.2854         -DE/DX =    0.0                 !
 ! D116  D(32,26,41,23)        -56.7774         -DE/DX =    0.0                 !
 ! D117  D(32,26,41,27)       -175.2008         -DE/DX =    0.0                 !
 ! D118  D(33,26,41,23)         65.1247         -DE/DX =    0.0                 !
 ! D119  D(33,26,41,27)        -53.2988         -DE/DX =    0.0                 !
 ! D120  D(35,27,34,28)        111.05           -DE/DX =    0.0                 !
 ! D121  D(35,27,34,40)         -4.6773         -DE/DX =    0.0                 !
 ! D122  D(35,27,34,42)       -123.349          -DE/DX =    0.0                 !
 ! D123  D(36,27,34,28)       -129.9898         -DE/DX =    0.0                 !
 ! D124  D(36,27,34,40)        114.2829         -DE/DX =    0.0                 !
 ! D125  D(36,27,34,42)         -4.3888         -DE/DX =    0.0                 !
 ! D126  D(41,27,34,28)         -9.5495         -DE/DX =    0.0                 !
 ! D127  D(41,27,34,40)       -125.2768         -DE/DX =    0.0                 !
 ! D128  D(41,27,34,42)        116.0515         -DE/DX =    0.0                 !
 ! D129  D(34,27,41,23)        -53.6192         -DE/DX =    0.0                 !
 ! D130  D(34,27,41,26)         65.6722         -DE/DX =    0.0                 !
 ! D131  D(35,27,41,23)       -176.5256         -DE/DX =    0.0                 !
 ! D132  D(35,27,41,26)        -57.2342         -DE/DX =    0.0                 !
 ! D133  D(36,27,41,23)         67.915          -DE/DX =    0.0                 !
 ! D134  D(36,27,41,26)       -172.7936         -DE/DX =    0.0                 !
 ! D135  D(24,28,33,26)        -53.7295         -DE/DX =    0.0                 !
 ! D136  D(24,28,33,38)       -174.5842         -DE/DX =    0.0                 !
 ! D137  D(24,28,33,39)         67.4872         -DE/DX =    0.0                 !
 ! D138  D(34,28,33,26)         65.96           -DE/DX =    0.0                 !
 ! D139  D(34,28,33,38)        -54.8947         -DE/DX =    0.0                 !
 ! D140  D(34,28,33,39)       -172.8233         -DE/DX =    0.0                 !
 ! D141  D(37,28,33,26)       -173.5552         -DE/DX =    0.0                 !
 ! D142  D(37,28,33,38)         65.5901         -DE/DX =    0.0                 !
 ! D143  D(37,28,33,39)        -52.3385         -DE/DX =    0.0                 !
 ! D144  D(24,28,34,27)         63.8208         -DE/DX =    0.0                 !
 ! D145  D(24,28,34,40)       -179.3749         -DE/DX =    0.0                 !
 ! D146  D(24,28,34,42)        -60.2073         -DE/DX =    0.0                 !
 ! D147  D(33,28,34,27)        -54.2205         -DE/DX =    0.0                 !
 ! D148  D(33,28,34,40)         62.5838         -DE/DX =    0.0                 !
 ! D149  D(33,28,34,42)       -178.2486         -DE/DX =    0.0                 !
 ! D150  D(37,28,34,27)       -174.391          -DE/DX =    0.0                 !
 ! D151  D(37,28,34,40)        -57.5868         -DE/DX =    0.0                 !
 ! D152  D(37,28,34,42)         61.5809         -DE/DX =    0.0                 !
 ! D153  D(27,34,42,43)        -55.9231         -DE/DX =    0.0                 !
 ! D154  D(27,34,42,44)         58.7819         -DE/DX =    0.0                 !
 ! D155  D(27,34,42,45)       -179.4754         -DE/DX =    0.0                 !
 ! D156  D(28,34,42,43)         65.4687         -DE/DX =    0.0                 !
 ! D157  D(28,34,42,44)       -179.8263         -DE/DX =    0.0                 !
 ! D158  D(28,34,42,45)        -58.0836         -DE/DX =    0.0                 !
 ! D159  D(40,34,42,43)       -175.4566         -DE/DX =    0.0                 !
 ! D160  D(40,34,42,44)        -60.7516         -DE/DX =    0.0                 !
 ! D161  D(40,34,42,45)         60.9911         -DE/DX =    0.0                 !
 ! D162  D(34,42,45,46)       -174.1766         -DE/DX =    0.0                 !
 ! D163  D(34,42,45,47)        -54.4215         -DE/DX =    0.0                 !
 ! D164  D(34,42,45,48)         65.6897         -DE/DX =    0.0                 !
 ! D165  D(43,42,45,46)         62.2398         -DE/DX =    0.0                 !
 ! D166  D(43,42,45,47)       -178.0052         -DE/DX =    0.0                 !
 ! D167  D(43,42,45,48)        -57.894          -DE/DX =    0.0                 !
 ! D168  D(44,42,45,46)        -53.2045         -DE/DX =    0.0                 !
 ! D169  D(44,42,45,47)         66.5505         -DE/DX =    0.0                 !
 ! D170  D(44,42,45,48)       -173.3383         -DE/DX =    0.0                 !
 --------------------------------------------------------------------------------
 Largest change from initial coordinates is atom   48       0.460 Angstoms.
 GradGradGradGradGradGradGradGradGradGradGradGradGradGradGradGradGradGrad

 Leave Link  103 at Mon Dec  1 22:46:47 2025, MaxMem=   104857600 cpu:               0.0 elap:               0.0
 (Enter /home/zhouoh/g16/l202.exe)
 Stoichiometry    C21H28F2N2O2(1+,2)
 Framework group  C1[X(C21H28F2N2O2)]
 Deg. of freedom   159
 Full point group                 C1      NOp   1
 RotChk:  IX=0 Diff= 7.34D-16
 Largest Abelian subgroup         C1      NOp   1
 Largest concise Abelian subgroup C1      NOp   1
                         Standard orientation:                         
 ---------------------------------------------------------------------
 Center     Atomic      Atomic             Coordinates (Angstroms)
 Number     Number       Type             X           Y           Z
 ---------------------------------------------------------------------
      1          6           0        1.319325    2.861593   -0.111385
      2          6           0        0.845107    1.601630   -0.398358
      3          6           0        1.481425    0.469293    0.155147
      4          6           0        2.586703    0.659566    1.000879
      5          6           0        3.063166    1.951862    1.287698
      6          6           0        2.440977    3.030269    0.737980
      7          1           0       -0.026546    1.468984   -1.025541
      8          6           0        1.032046   -0.869649   -0.088223
      9          1           0        3.920310    2.081399    1.936748
     10          1           0        2.782203    4.037135    0.936306
     11          6           0        2.868205   -1.699758    1.232176
     12          6           0        1.704720   -1.921692    0.468436
     13          1           0        3.317511   -2.477663    1.833767
     14          1           0        1.376006   -2.935650    0.292057
     15          7           0        3.195144   -0.436995    1.558137
     16          8           0        0.792853    3.999968   -0.579489
     17          6           0       -0.186305   -1.097811   -0.953233
     18          1           0       -0.079867   -0.477585   -1.848498
     19          6           0       -0.335234    3.902145   -1.446891
     20          1           0       -0.606209    4.922577   -1.695581
     21          1           0       -0.076776    3.355934   -2.356110
     22          1           0       -1.170013    3.407305   -0.946743
     23          6           0       -1.464832   -0.589157   -0.228979
     24          6           0       -2.365302   -1.699321    0.356608
     25          1           0       -1.137271    0.052521    0.592891
     26          6           0       -2.944792   -0.502756   -2.124529
     27          6           0       -3.182770    1.059772   -0.330981
     28          6           0       -3.818094   -1.303235    0.067287
     29          1           0       -2.159407   -2.663294   -0.105451
     30          1           0       -2.185699   -1.805561    1.428071
     31          1           0       -3.374436    0.181627   -2.856404
     32          1           0       -2.224998   -1.127989   -2.655298
     33          6           0       -4.032571   -1.368729   -1.447655
     34          6           0       -4.086517    0.136930    0.528542
     35          1           0       -3.771927    1.666724   -1.020746
     36          1           0       -2.626372    1.747588    0.315100
     37          1           0       -4.497616   -1.993597    0.566910
     38          1           0       -5.030219   -0.999316   -1.693292
     39          1           0       -3.975451   -2.401089   -1.795806
     40          1           0       -5.135420    0.360457    0.308799
     41          7           0       -2.213961    0.299125   -1.130556
     42          6           0       -3.869724    0.368130    2.023875
     43          1           0       -2.810347    0.232857    2.270767
     44          1           0       -4.090792    1.417910    2.239198
     45          6           0       -4.724030   -0.522027    2.917303
     46          1           0       -4.609820   -0.250199    3.966486
     47          1           0       -5.781642   -0.428012    2.662963
     48          1           0       -4.452853   -1.574331    2.819211
     49          8           0       -0.302020   -2.458844   -1.324990
     50          1           0        0.189400   -2.605298   -2.139272
     51          6           0        4.372793   -2.051522   -0.381789
     52          9           0        5.458409   -1.541574    0.177397
     53          9           0        3.963021   -1.308980   -1.392123
     54          1           0        4.430668   -3.117111   -0.596464
     55          1           0        3.994009   -0.278434    2.157797
 ---------------------------------------------------------------------
 Rotational constants (GHZ):           0.2717687           0.1268360           0.1068853
 Leave Link  202 at Mon Dec  1 22:46:47 2025, MaxMem=   104857600 cpu:               0.0 elap:               0.0
 (Enter /home/zhouoh/g16/l601.exe)
 Leave Link  601 at Mon Dec  1 22:46:47 2025, MaxMem=   104857600 cpu:               0.0 elap:               0.0
 (Enter /home/zhouoh/g16/l716.exe)
 Rotating derivatives to standard orientation.
 Dipole        = 0.00000000D+00 0.00000000D+00 0.00000000D+00
 Full mass-weighted force constant matrix:
 Low frequencies --- -322.2402   -4.6615   -4.4692   -2.6007    1.3633    2.9997
 Low frequencies ---    4.3465   22.6376   26.1875
 ******    1 imaginary frequencies (negative Signs) ****** 
 Diagonal vibrational polarizability:
        0.0000000       0.0000000       0.0000000
 Harmonic frequencies (cm**-1), IR intensities (KM/Mole), Raman scattering
 activities (A**4/AMU), depolarization ratios for plane and unpolarized
 incident light, reduced masses (AMU), force constants (mDyne/A),
 and normal coordinates:
                      1                      2                      3
                      A                      A                      A
 Frequencies --   -322.2401                22.6268                26.1726
 Red. masses --      6.1621                 7.7870                 3.7411
 Frc consts  --      0.3770                 0.0023                 0.0015
 IR Inten    --      0.0000                 0.0000                 0.0000
  Atom  AN      X      Y      Z        X      Y      Z        X      Y      Z
     1   6    -0.00  -0.00  -0.01    -0.02   0.00  -0.03    -0.06  -0.04  -0.03
     2   6    -0.01   0.02  -0.01    -0.02   0.01  -0.06    -0.04  -0.05  -0.01
     3   6    -0.01   0.00   0.01    -0.03  -0.00  -0.06    -0.02  -0.03  -0.00
     4   6    -0.02   0.01   0.00    -0.06  -0.01  -0.03    -0.02  -0.00  -0.00
     5   6     0.00  -0.01  -0.01    -0.06  -0.02   0.00    -0.05   0.01  -0.01
     6   6    -0.00  -0.01  -0.01    -0.05  -0.01   0.00    -0.07  -0.01  -0.03
     7   1    -0.00   0.01  -0.01    -0.00   0.02  -0.08    -0.04  -0.07  -0.01
     8   6    -0.00   0.02   0.02    -0.03   0.00  -0.09     0.00  -0.04   0.01
     9   1    -0.01  -0.01  -0.00    -0.08  -0.03   0.03    -0.05   0.03  -0.01
    10   1     0.00  -0.01  -0.01    -0.05  -0.01   0.02    -0.08  -0.00  -0.04
    11   6    -0.33   0.05   0.36    -0.07  -0.02  -0.04     0.02   0.00   0.02
    12   6    -0.05   0.00   0.10    -0.04  -0.01  -0.09     0.02  -0.03   0.02
    13   1    -0.06   0.02   0.09    -0.09  -0.03  -0.04     0.03   0.02   0.02
    14   1    -0.05   0.00   0.11    -0.04  -0.00  -0.11     0.04  -0.03   0.03
    15   7    -0.06  -0.03   0.04    -0.07  -0.02  -0.02    -0.01   0.01   0.01
    16   8    -0.00   0.02  -0.01    -0.01   0.01  -0.03    -0.08  -0.05  -0.05
    17   6     0.01   0.01  -0.01    -0.03   0.02  -0.09     0.00  -0.07   0.02
    18   1     0.00   0.01  -0.00    -0.04   0.04  -0.08    -0.00  -0.09   0.00
    19   6     0.00   0.01   0.00     0.01   0.03  -0.06    -0.06  -0.09  -0.06
    20   1    -0.01   0.00  -0.00     0.02   0.03  -0.05    -0.08  -0.10  -0.08
    21   1    -0.00   0.00   0.00     0.03   0.04  -0.06    -0.04  -0.09  -0.05
    22   1     0.00   0.01   0.00    -0.00   0.02  -0.08    -0.06  -0.10  -0.07
    23   6     0.01   0.00  -0.00    -0.02   0.00  -0.07    -0.00  -0.06   0.01
    24   6     0.01  -0.00  -0.00     0.02  -0.01  -0.03    -0.08  -0.05  -0.10
    25   1     0.00   0.00   0.00    -0.01   0.01  -0.08     0.00  -0.13   0.07
    26   6     0.00  -0.00  -0.00    -0.10  -0.03  -0.00     0.04   0.13  -0.00
    27   6     0.00  -0.00  -0.00    -0.03  -0.01  -0.01     0.11   0.06   0.08
    28   6     0.00  -0.00   0.00     0.00  -0.01   0.05    -0.05   0.08  -0.06
    29   1     0.01  -0.00  -0.00    -0.00   0.00  -0.06    -0.14  -0.02  -0.19
    30   1     0.01  -0.00  -0.00     0.08  -0.02  -0.04    -0.09  -0.17  -0.11
    31   1     0.00  -0.00   0.00    -0.13  -0.05  -0.00     0.12   0.19  -0.00
    32   1    -0.00  -0.00  -0.00    -0.13  -0.05  -0.01     0.00   0.08   0.00
    33   6     0.00  -0.00   0.00    -0.08  -0.01   0.06    -0.06   0.20  -0.07
    34   6     0.00  -0.00  -0.00     0.03  -0.00   0.06     0.06   0.07   0.04
    35   1     0.00  -0.00  -0.00    -0.08  -0.03   0.01     0.14   0.11   0.10
    36   1     0.00   0.00  -0.00    -0.01   0.02  -0.06     0.14   0.00   0.10
    37   1     0.01  -0.00   0.00     0.03  -0.00   0.09    -0.10   0.09  -0.11
    38   1     0.00   0.00   0.00    -0.09   0.01   0.12    -0.02   0.33  -0.04
    39   1    -0.00  -0.00  -0.00    -0.12  -0.01   0.06    -0.17   0.22  -0.14
    40   1     0.00  -0.00  -0.00     0.02  -0.00   0.13     0.07   0.16   0.07
    41   7     0.00   0.00  -0.00    -0.06  -0.01  -0.05     0.07   0.04   0.05
    42   6     0.00  -0.00  -0.00     0.14   0.01   0.04     0.10  -0.05   0.05
    43   1     0.00   0.00   0.00     0.16   0.01  -0.03     0.10  -0.14   0.02
    44   1     0.00  -0.00  -0.00     0.15   0.01   0.05     0.18  -0.05   0.12
    45   6    -0.00  -0.00  -0.00     0.21   0.01   0.11     0.06  -0.05   0.00
    46   1    -0.00   0.00  -0.00     0.29   0.01   0.10     0.10  -0.13   0.02
    47   1    -0.00   0.00  -0.00     0.19   0.00   0.19     0.06   0.05   0.03
    48   1    -0.00  -0.00   0.00     0.21   0.01   0.09    -0.02  -0.06  -0.08
    49   8     0.02   0.00   0.01    -0.03   0.03  -0.12     0.01  -0.08   0.05
    50   1    -0.01   0.00  -0.01    -0.06   0.05  -0.14     0.02  -0.10   0.06
    51   6     0.27  -0.15  -0.31     0.03   0.01   0.03     0.03   0.03   0.02
    52   9     0.05   0.02  -0.04     0.05  -0.25   0.22     0.02   0.07   0.02
    53   9     0.04   0.02  -0.07     0.21   0.26   0.15     0.02   0.01   0.02
    54   1     0.50  -0.09  -0.50    -0.09   0.04  -0.18     0.06   0.03   0.03
    55   1    -0.08  -0.04   0.06    -0.09  -0.03   0.01    -0.01   0.03   0.01
                      4                      5                      6
                      A                      A                      A
 Frequencies --     28.5986                33.5307                47.3216
 Red. masses --      5.1867                 5.2790                 5.3737
 Frc consts  --      0.0025                 0.0035                 0.0071
 IR Inten    --      0.0000                 0.0000                 0.0000
  Atom  AN      X      Y      Z        X      Y      Z        X      Y      Z
     1   6    -0.01  -0.01   0.04    -0.05  -0.06   0.06     0.09  -0.03  -0.05
     2   6     0.01  -0.00  -0.00    -0.02  -0.07   0.04     0.05  -0.02  -0.03
     3   6    -0.02  -0.01   0.01    -0.00  -0.06   0.02     0.00  -0.03   0.01
     4   6    -0.06  -0.02   0.06    -0.01  -0.06   0.02    -0.02  -0.05   0.04
     5   6    -0.08  -0.03   0.11    -0.04  -0.05   0.06    -0.01  -0.06   0.06
     6   6    -0.06  -0.02   0.11    -0.06  -0.05   0.08     0.05  -0.05   0.01
     7   1     0.04   0.01  -0.05    -0.01  -0.07   0.02     0.07  -0.01  -0.05
     8   6    -0.01  -0.01  -0.03     0.01  -0.07   0.01    -0.02  -0.03  -0.01
     9   1    -0.11  -0.03   0.16    -0.04  -0.05   0.06    -0.03  -0.08   0.09
    10   1    -0.07  -0.02   0.14    -0.09  -0.05   0.11     0.07  -0.06   0.01
    11   6    -0.05  -0.03   0.02     0.07  -0.05  -0.06    -0.02  -0.05  -0.02
    12   6    -0.02  -0.02  -0.02     0.06  -0.07  -0.04    -0.02  -0.04  -0.03
    13   1    -0.07  -0.04   0.02     0.11  -0.06  -0.10    -0.02  -0.07  -0.05
    14   1    -0.01  -0.01  -0.05     0.08  -0.07  -0.05    -0.01  -0.04  -0.06
    15   7    -0.08  -0.03   0.07     0.03  -0.06  -0.01    -0.05  -0.06   0.05
    16   8     0.01  -0.00   0.03    -0.06  -0.06   0.08     0.16  -0.03  -0.12
    17   6     0.02   0.01  -0.06    -0.00  -0.08   0.03    -0.03   0.00  -0.00
    18   1     0.03   0.02  -0.05     0.01  -0.11   0.01    -0.03   0.02   0.01
    19   6     0.07   0.01  -0.04    -0.04  -0.07   0.05     0.24  -0.02  -0.21
    20   1     0.08   0.02  -0.04    -0.05  -0.07   0.06     0.30  -0.01  -0.28
    21   1     0.12   0.03  -0.03    -0.01  -0.05   0.05     0.30  -0.06  -0.17
    22   1     0.03   0.00  -0.10    -0.04  -0.09   0.02     0.17   0.04  -0.27
    23   6     0.01  -0.00  -0.07     0.01  -0.02   0.01    -0.01   0.00   0.03
    24   6     0.04  -0.00  -0.04    -0.02   0.03   0.06    -0.00  -0.00   0.03
    25   1     0.00   0.03  -0.09     0.02   0.01  -0.02     0.01  -0.01   0.03
    26   6    -0.05  -0.08  -0.03     0.02  -0.08  -0.01    -0.02   0.05   0.04
    27   6     0.00  -0.01  -0.08     0.04   0.01  -0.09    -0.02  -0.01   0.08
    28   6     0.03   0.00   0.03    -0.01   0.05   0.03    -0.01  -0.02   0.02
    29   1     0.02  -0.00  -0.05    -0.04   0.00   0.11     0.01  -0.01   0.04
    30   1     0.09  -0.00  -0.04    -0.03   0.08   0.06    -0.01   0.00   0.03
    31   1    -0.05  -0.11  -0.06     0.03  -0.11  -0.04    -0.05   0.07   0.07
    32   1    -0.07  -0.12  -0.01     0.01  -0.12   0.02    -0.02   0.08  -0.00
    33   6    -0.04  -0.03   0.04     0.00  -0.03   0.03     0.01  -0.01   0.02
    34   6     0.06   0.02   0.01     0.01   0.08  -0.06    -0.03  -0.03   0.04
    35   1    -0.04  -0.06  -0.09     0.06  -0.00  -0.12    -0.01   0.03   0.10
    36   1     0.02   0.04  -0.14     0.05   0.03  -0.11    -0.02  -0.03   0.11
    37   1     0.05   0.02   0.08    -0.03   0.09   0.06    -0.00  -0.04   0.00
    38   1    -0.04  -0.00   0.08     0.01  -0.03  -0.00    -0.01  -0.04   0.02
    39   1    -0.09  -0.04   0.06    -0.01  -0.05   0.08     0.05   0.00   0.00
    40   1     0.05   0.01   0.08     0.02   0.08  -0.09    -0.03  -0.04   0.01
    41   7    -0.02  -0.04  -0.09     0.03  -0.05  -0.04    -0.02   0.02   0.06
    42   6     0.17   0.06  -0.01    -0.01   0.16  -0.07    -0.08  -0.06   0.05
    43   1     0.19   0.07  -0.09    -0.02   0.13  -0.03    -0.09  -0.06   0.08
    44   1     0.19   0.06  -0.02     0.02   0.18  -0.13    -0.10  -0.07   0.07
    45   6     0.24   0.08   0.08    -0.07   0.25  -0.03    -0.10  -0.09   0.01
    46   1     0.33   0.10   0.06    -0.08   0.31  -0.04    -0.14  -0.11   0.02
    47   1     0.22   0.07   0.16    -0.06   0.28  -0.06    -0.09  -0.10  -0.03
    48   1     0.24   0.07   0.08    -0.11   0.23   0.04    -0.08  -0.09  -0.00
    49   8     0.02   0.01  -0.08    -0.03  -0.09   0.08    -0.05   0.01  -0.02
    50   1     0.03   0.02  -0.07    -0.09  -0.12   0.05    -0.06   0.02  -0.04
    51   6    -0.02   0.03   0.05     0.05   0.10  -0.11    -0.00   0.14  -0.03
    52   9    -0.08   0.22  -0.01     0.06   0.05  -0.07    -0.03   0.17   0.00
    53   9    -0.10  -0.14  -0.05     0.03   0.21  -0.02    -0.05   0.18   0.02
    54   1     0.11   0.01   0.17     0.05   0.13  -0.23     0.06   0.16  -0.10
    55   1    -0.10  -0.04   0.10     0.03  -0.05  -0.02    -0.06  -0.08   0.06
                      7                      8                      9
                      A                      A                      A
 Frequencies --     58.3662                73.5118                88.6166
 Red. masses --      6.3949                 4.3287                 2.8760
 Frc consts  --      0.0128                 0.0138                 0.0133
 IR Inten    --      0.0000                 0.0000                 0.0000
  Atom  AN      X      Y      Z        X      Y      Z        X      Y      Z
     1   6    -0.03  -0.01  -0.01     0.08  -0.03  -0.05    -0.02  -0.01   0.02
     2   6     0.00  -0.01  -0.07     0.01  -0.01   0.01    -0.02  -0.01   0.02
     3   6     0.01  -0.02  -0.09    -0.00  -0.03   0.00    -0.01  -0.01   0.02
     4   6    -0.02  -0.03  -0.05     0.03  -0.04  -0.04    -0.00  -0.01  -0.00
     5   6    -0.05  -0.03  -0.00     0.13  -0.06  -0.13    -0.01  -0.01   0.01
     6   6    -0.05  -0.02   0.02     0.16  -0.05  -0.15    -0.02  -0.01   0.02
     7   1     0.01  -0.00  -0.08    -0.03   0.01   0.06    -0.02  -0.01   0.02
     8   6     0.02  -0.02  -0.12    -0.03  -0.02   0.02    -0.02  -0.01   0.02
     9   1    -0.06  -0.04   0.02     0.18  -0.08  -0.19    -0.00  -0.01   0.00
    10   1    -0.07  -0.02   0.06     0.24  -0.06  -0.23    -0.02  -0.01   0.03
    11   6    -0.01  -0.03  -0.09    -0.03  -0.04   0.01     0.03  -0.01  -0.04
    12   6     0.03  -0.03  -0.15    -0.03  -0.03   0.01     0.01  -0.01  -0.01
    13   1    -0.05  -0.04  -0.07    -0.04  -0.04   0.01     0.03  -0.01  -0.05
    14   1     0.03  -0.02  -0.17    -0.04  -0.02   0.01     0.01  -0.01  -0.01
    15   7    -0.04  -0.04  -0.05    -0.01  -0.04   0.00     0.02  -0.01  -0.02
    16   8    -0.05  -0.01   0.03     0.09  -0.01  -0.02    -0.01  -0.01   0.01
    17   6    -0.02   0.01  -0.07    -0.03  -0.01   0.01    -0.04  -0.00   0.05
    18   1    -0.06   0.01  -0.07    -0.02  -0.01   0.01    -0.04  -0.03   0.03
    19   6    -0.04   0.00   0.01    -0.11   0.03   0.23     0.03  -0.02  -0.04
    20   1    -0.07   0.01   0.06    -0.11   0.04   0.28     0.04  -0.02  -0.07
    21   1    -0.02   0.05  -0.01    -0.34   0.01   0.18     0.07  -0.03  -0.03
    22   1    -0.03  -0.04  -0.02    -0.02   0.08   0.43     0.00  -0.01  -0.08
    23   6     0.02   0.02  -0.00    -0.04  -0.01  -0.01    -0.03   0.05   0.04
    24   6     0.03   0.04   0.05    -0.05  -0.01  -0.02    -0.05   0.07   0.07
    25   1     0.07   0.02  -0.02    -0.05  -0.01  -0.01    -0.02   0.07   0.02
    26   6    -0.04   0.06   0.04    -0.03  -0.03  -0.02     0.03   0.01  -0.00
    27   6     0.01   0.02   0.08    -0.04  -0.01  -0.04    -0.06   0.04  -0.05
    28   6     0.03   0.01   0.06    -0.05   0.00  -0.02    -0.04   0.04  -0.02
    29   1     0.04   0.02   0.09    -0.06  -0.01  -0.04    -0.02   0.05   0.14
    30   1     0.05   0.08   0.05    -0.05  -0.03  -0.03    -0.10   0.15   0.08
    31   1    -0.10   0.08   0.10    -0.00  -0.03  -0.04     0.03  -0.00  -0.02
    32   1    -0.05   0.11  -0.03    -0.03  -0.05   0.01     0.05   0.02   0.02
    33   6     0.02  -0.01   0.06    -0.05   0.01  -0.02     0.03  -0.00  -0.02
    34   6    -0.01   0.01   0.04    -0.03   0.00  -0.02    -0.06   0.04  -0.05
    35   1     0.03   0.08   0.12    -0.04  -0.03  -0.05    -0.05   0.00  -0.09
    36   1     0.04  -0.03   0.12    -0.04   0.01  -0.06    -0.10   0.07  -0.05
    37   1     0.04  -0.00   0.07    -0.05   0.01  -0.02    -0.05   0.04  -0.03
    38   1    -0.01  -0.08   0.06    -0.04   0.04  -0.02     0.02  -0.04  -0.07
    39   1     0.08  -0.01   0.07    -0.08   0.01  -0.02     0.07  -0.01   0.01
    40   1    -0.01  -0.01  -0.01    -0.03   0.01   0.01    -0.07   0.03  -0.06
    41   7    -0.01   0.04   0.04    -0.03  -0.02  -0.02    -0.02   0.03   0.01
    42   6    -0.09   0.02   0.05     0.01   0.01  -0.02    -0.06   0.06  -0.05
    43   1    -0.11  -0.02   0.12     0.02   0.02  -0.06    -0.02   0.28  -0.10
    44   1    -0.06   0.03   0.02     0.01   0.00  -0.01    -0.28   0.00  -0.01
    45   6    -0.19   0.07   0.01     0.06  -0.01   0.00     0.19  -0.16  -0.03
    46   1    -0.25   0.08   0.01     0.09  -0.01  -0.00     0.13  -0.12  -0.03
    47   1    -0.17   0.12  -0.06     0.05  -0.03   0.04     0.15  -0.45  -0.01
    48   1    -0.23   0.06   0.04     0.07  -0.01  -0.01     0.47  -0.09  -0.02
    49   8    -0.07   0.01  -0.08    -0.03  -0.01   0.00    -0.08  -0.01   0.10
    50   1    -0.09   0.01  -0.09    -0.01  -0.01   0.02    -0.10  -0.05   0.09
    51   6     0.19  -0.03   0.08     0.04   0.08   0.05     0.06  -0.01  -0.01
    52   9     0.07   0.16   0.15    -0.03   0.17   0.10     0.04   0.01   0.01
    53   9     0.24  -0.20  -0.06     0.00   0.06   0.05     0.08  -0.03  -0.04
    54   1     0.33  -0.05   0.22     0.15   0.08   0.04     0.07  -0.01   0.02
    55   1    -0.07  -0.04  -0.01     0.01  -0.05  -0.02     0.02  -0.01  -0.03
                     10                     11                     12
                      A                      A                      A
 Frequencies --     95.7972               137.1657               141.9795
 Red. masses --      3.9454                 4.3126                 4.4441
 Frc consts  --      0.0213                 0.0478                 0.0528
 IR Inten    --      0.0000                 0.0000                 0.0000
  Atom  AN      X      Y      Z        X      Y      Z        X      Y      Z
     1   6    -0.01  -0.04  -0.06     0.04   0.04  -0.05    -0.05   0.01   0.07
     2   6     0.04  -0.05  -0.10     0.05   0.05  -0.14    -0.01   0.01  -0.02
     3   6     0.03  -0.03  -0.07     0.00   0.02  -0.12     0.03  -0.01  -0.09
     4   6    -0.01  -0.02  -0.01    -0.05   0.01  -0.03     0.07  -0.02  -0.13
     5   6    -0.04  -0.02  -0.00    -0.08   0.00   0.06     0.11  -0.03  -0.16
     6   6    -0.04  -0.02  -0.03    -0.04   0.01   0.05     0.03  -0.01  -0.04
     7   1     0.06  -0.06  -0.12     0.09   0.06  -0.20    -0.04   0.02   0.02
     8   6     0.03  -0.03  -0.06     0.01   0.00  -0.08     0.00  -0.01  -0.04
     9   1    -0.07  -0.00   0.03    -0.15  -0.02   0.15     0.18  -0.05  -0.25
    10   1    -0.06  -0.02  -0.00    -0.08   0.01   0.13     0.04  -0.02  -0.03
    11   6    -0.06  -0.02   0.05    -0.03   0.02  -0.01    -0.04  -0.01   0.02
    12   6    -0.03  -0.03   0.00    -0.00   0.02  -0.04    -0.05  -0.00   0.03
    13   1    -0.07  -0.02   0.06    -0.03   0.03  -0.00    -0.06   0.00   0.06
    14   1    -0.04  -0.03   0.02    -0.01   0.02  -0.02    -0.10   0.00   0.10
    15   7    -0.06  -0.02   0.04    -0.06   0.02  -0.01     0.03  -0.01  -0.09
    16   8    -0.06  -0.05  -0.03     0.11   0.09  -0.00    -0.16   0.04   0.26
    17   6     0.03   0.01  -0.06    -0.02  -0.11  -0.01    -0.00  -0.03  -0.02
    18   1     0.04  -0.00  -0.06    -0.08  -0.21  -0.09    -0.02  -0.05  -0.04
    19   6    -0.14  -0.08   0.07     0.02   0.25   0.09     0.12   0.07  -0.11
    20   1    -0.22  -0.08   0.14     0.04   0.29   0.25     0.10   0.09  -0.02
    21   1    -0.19  -0.02   0.02    -0.09   0.35  -0.00     0.48   0.25  -0.11
    22   1    -0.06  -0.15   0.12     0.05   0.22   0.12     0.00  -0.09  -0.47
    23   6     0.09   0.06  -0.01     0.01  -0.07   0.01     0.01  -0.02  -0.00
    24   6     0.11   0.09   0.08    -0.03  -0.03   0.03     0.00  -0.01   0.01
    25   1     0.15   0.07  -0.04     0.05  -0.08   0.00     0.02  -0.02  -0.01
    26   6     0.06   0.08   0.02     0.02  -0.03   0.01     0.01  -0.01   0.00
    27   6     0.07   0.05   0.04     0.07  -0.02   0.01     0.03  -0.00   0.00
    28   6     0.11   0.03   0.03    -0.01   0.01   0.01     0.01  -0.00   0.00
    29   1     0.14   0.05   0.17    -0.05  -0.05   0.05    -0.00  -0.02   0.02
    30   1     0.10   0.19   0.09    -0.04  -0.01   0.03     0.00   0.01   0.01
    31   1    -0.02   0.10   0.08     0.05  -0.03   0.01     0.01  -0.00   0.01
    32   1     0.07   0.16  -0.07     0.01  -0.06   0.02     0.01  -0.00  -0.01
    33   6     0.15  -0.03   0.02    -0.01   0.00   0.01     0.01  -0.01   0.00
    34   6     0.05   0.02  -0.01     0.03   0.02  -0.00     0.02   0.00  -0.00
    35   1     0.09   0.09   0.07     0.11   0.02   0.02     0.03   0.01   0.01
    36   1     0.08   0.00   0.08     0.11  -0.05   0.02     0.04  -0.01   0.01
    37   1     0.12   0.02   0.02    -0.04   0.03   0.01     0.00   0.01   0.00
    38   1     0.11  -0.16  -0.01     0.01   0.03   0.00     0.01  -0.01  -0.00
    39   1     0.28  -0.03   0.06    -0.03  -0.00   0.02     0.02  -0.01   0.01
    40   1     0.05  -0.01  -0.06     0.04   0.05  -0.02     0.02   0.01  -0.01
    41   7     0.07   0.06   0.02     0.04  -0.05   0.01     0.02  -0.01   0.00
    42   6    -0.03   0.04   0.00    -0.00  -0.01   0.01     0.01  -0.00  -0.00
    43   1    -0.02   0.16   0.04    -0.00   0.01   0.02     0.00  -0.00   0.01
    44   1    -0.16   0.02  -0.00    -0.02  -0.01   0.02     0.00  -0.00   0.00
    45   6     0.04  -0.06  -0.03    -0.00  -0.04  -0.03    -0.00  -0.01  -0.01
    46   1    -0.06  -0.02  -0.03    -0.07  -0.04  -0.03    -0.02  -0.00  -0.01
    47   1     0.04  -0.22  -0.09     0.00  -0.10  -0.09     0.00  -0.02  -0.03
    48   1     0.20  -0.02   0.01     0.05  -0.03  -0.02     0.01  -0.00  -0.00
    49   8    -0.03   0.01  -0.06     0.00  -0.17   0.17    -0.01  -0.04   0.03
    50   1    -0.06  -0.01  -0.07    -0.06  -0.26   0.15     0.02  -0.08   0.05
    51   6    -0.08   0.01   0.01    -0.04   0.00  -0.01    -0.00  -0.01   0.02
    52   9    -0.07  -0.00   0.01    -0.04  -0.02   0.01    -0.06   0.05   0.07
    53   9    -0.12   0.05   0.06     0.00   0.00  -0.03    -0.08   0.03   0.08
    54   1    -0.07   0.02  -0.04    -0.06  -0.00  -0.00     0.09   0.01  -0.04
    55   1    -0.08  -0.02   0.07    -0.10   0.04   0.04     0.06  -0.01  -0.12
                     13                     14                     15
                      A                      A                      A
 Frequencies --    162.5751               170.0958               178.1638
 Red. masses --      4.9504                 2.8383                 3.6836
 Frc consts  --      0.0771                 0.0484                 0.0689
 IR Inten    --      0.0000                 0.0000                 0.0000
  Atom  AN      X      Y      Z        X      Y      Z        X      Y      Z
     1   6     0.02  -0.00  -0.01     0.01  -0.00  -0.02     0.08  -0.00  -0.02
     2   6     0.06  -0.01  -0.06     0.03  -0.00  -0.07     0.20  -0.02  -0.15
     3   6     0.05  -0.01  -0.04     0.02  -0.01  -0.05     0.16  -0.00  -0.10
     4   6     0.03   0.00  -0.01     0.00  -0.01  -0.03     0.10   0.01  -0.02
     5   6    -0.01   0.01   0.02    -0.03  -0.01   0.02     0.02   0.02   0.07
     6   6    -0.01   0.00   0.03    -0.03  -0.01   0.02    -0.01   0.02   0.09
     7   1     0.08  -0.01  -0.09     0.05  -0.00  -0.09     0.25  -0.03  -0.22
     8   6     0.03  -0.01  -0.03    -0.00  -0.00  -0.02     0.05   0.03  -0.01
     9   1    -0.03   0.01   0.06    -0.06  -0.01   0.05    -0.05   0.04   0.15
    10   1    -0.05   0.01   0.07    -0.06  -0.01   0.07    -0.10   0.03   0.20
    11   6     0.02   0.00   0.03    -0.01  -0.01  -0.01     0.01   0.02   0.03
    12   6     0.03   0.00   0.01    -0.01  -0.01  -0.01    -0.01   0.03   0.06
    13   1    -0.03   0.01   0.08    -0.04  -0.01   0.02     0.02   0.01   0.02
    14   1     0.02   0.00   0.03    -0.04  -0.00   0.01    -0.06   0.03   0.14
    15   7     0.02   0.01   0.01    -0.01  -0.01  -0.02     0.06   0.01   0.01
    16   8     0.01  -0.00   0.01     0.01   0.00  -0.00    -0.03  -0.04   0.03
    17   6     0.02  -0.00  -0.04    -0.04   0.02   0.02     0.01   0.04   0.02
    18   1     0.03   0.01  -0.03    -0.05   0.00   0.01    -0.00   0.01  -0.00
    19   6    -0.00  -0.00   0.02    -0.01   0.03   0.01    -0.02  -0.15   0.03
    20   1    -0.05  -0.00   0.08    -0.04   0.03   0.08    -0.27  -0.18   0.21
    21   1     0.01   0.06  -0.01    -0.00   0.10  -0.03     0.10   0.07  -0.07
    22   1     0.03  -0.07   0.01     0.02  -0.04  -0.01     0.10  -0.44  -0.05
    23   6    -0.01  -0.01  -0.07    -0.02   0.03   0.05    -0.02   0.04  -0.00
    24   6    -0.02   0.01  -0.04    -0.02   0.01   0.02    -0.03   0.02  -0.04
    25   1    -0.02   0.01  -0.08    -0.01   0.02   0.05    -0.04   0.05  -0.01
    26   6    -0.14  -0.03   0.00     0.08   0.04  -0.01    -0.04  -0.03  -0.00
    27   6     0.02   0.01  -0.00    -0.10  -0.01  -0.01    -0.08  -0.01  -0.03
    28   6    -0.04   0.04   0.05    -0.01  -0.04  -0.06    -0.04   0.00  -0.00
    29   1    -0.07   0.01  -0.07     0.04   0.01   0.04    -0.03   0.03  -0.07
    30   1     0.04  -0.02  -0.05    -0.07   0.03   0.03    -0.02  -0.03  -0.04
    31   1    -0.15  -0.03   0.00     0.08   0.04  -0.01     0.01  -0.07  -0.06
    32   1    -0.19  -0.08  -0.01     0.12   0.08   0.00    -0.03  -0.09   0.07
    33   6    -0.15   0.03   0.07     0.08  -0.02  -0.08    -0.09   0.04   0.00
    34   6    -0.00   0.05   0.02    -0.06  -0.06  -0.01    -0.05  -0.01   0.01
    35   1     0.03   0.06   0.03    -0.12  -0.08  -0.05    -0.11  -0.06  -0.05
    36   1     0.09  -0.03  -0.01    -0.18   0.05  -0.01    -0.11   0.04  -0.06
    37   1    -0.01   0.06   0.11    -0.02  -0.08  -0.12    -0.02  -0.01   0.00
    38   1    -0.15   0.10   0.15     0.08  -0.06  -0.14    -0.07   0.13   0.04
    39   1    -0.24   0.03   0.07     0.15  -0.01  -0.09    -0.18   0.04  -0.03
    40   1     0.00   0.06  -0.02    -0.07  -0.07   0.04    -0.05  -0.01   0.04
    41   7    -0.05  -0.03  -0.06    -0.01   0.04   0.04    -0.05   0.01  -0.02
    42   6    -0.08   0.05   0.02     0.05  -0.06  -0.02    -0.01  -0.02   0.01
    43   1    -0.08   0.15   0.07     0.05  -0.16  -0.10    -0.01  -0.05  -0.01
    44   1    -0.20   0.02   0.04     0.18  -0.03  -0.04     0.01  -0.02   0.03
    45   6    -0.03  -0.08  -0.06     0.03   0.07   0.09    -0.02  -0.02   0.01
    46   1    -0.29   0.02  -0.06     0.37  -0.07   0.09     0.03  -0.06   0.02
    47   1    -0.01  -0.35  -0.25    -0.01   0.39   0.36    -0.03   0.03   0.05
    48   1     0.23  -0.03   0.07    -0.29   0.01  -0.09    -0.07  -0.03  -0.03
    49   8     0.02   0.00  -0.05    -0.09   0.02   0.04     0.00   0.03   0.05
    50   1     0.07   0.00  -0.03    -0.03  -0.03   0.08     0.10  -0.02   0.12
    51   6     0.12  -0.02   0.10     0.07  -0.01   0.05    -0.04   0.01  -0.04
    52   9     0.23   0.00  -0.14     0.12   0.01  -0.07    -0.09   0.01   0.05
    53   9    -0.12  -0.02   0.20    -0.06  -0.01   0.10     0.04   0.02  -0.07
    54   1     0.09  -0.02   0.09     0.07  -0.01   0.04    -0.03   0.02  -0.04
    55   1    -0.01   0.02   0.04    -0.03  -0.01   0.01     0.05  -0.01   0.02
                     16                     17                     18
                      A                      A                      A
 Frequencies --    208.5197               215.8550               221.8791
 Red. masses --      2.5290                 2.4205                 2.8159
 Frc consts  --      0.0648                 0.0664                 0.0817
 IR Inten    --      0.0000                 0.0000                 0.0000
  Atom  AN      X      Y      Z        X      Y      Z        X      Y      Z
     1   6    -0.00   0.00   0.02     0.02   0.00   0.01     0.02  -0.00  -0.03
     2   6    -0.01   0.00   0.03     0.02   0.00   0.00     0.02  -0.00  -0.03
     3   6    -0.01   0.00   0.03     0.01   0.00   0.01    -0.02  -0.00   0.02
     4   6    -0.00   0.00   0.01    -0.00   0.01   0.03    -0.06   0.00   0.08
     5   6     0.01  -0.00  -0.00     0.02   0.01  -0.00     0.02  -0.01  -0.03
     6   6     0.01   0.00  -0.00     0.04   0.01  -0.02     0.09  -0.01  -0.12
     7   1    -0.01   0.00   0.03     0.02  -0.00  -0.00     0.03  -0.01  -0.04
     8   6    -0.01   0.00   0.01     0.00   0.00   0.00    -0.00  -0.00  -0.01
     9   1     0.03  -0.00  -0.02     0.03   0.00  -0.01     0.05  -0.01  -0.07
    10   1     0.03  -0.00  -0.02     0.06   0.01  -0.05     0.17  -0.02  -0.22
    11   6     0.00   0.00  -0.00     0.01   0.02   0.02    -0.02   0.01   0.03
    12   6    -0.01   0.01   0.01     0.02   0.01   0.01     0.03  -0.00  -0.05
    13   1     0.00  -0.00  -0.01     0.00   0.01   0.02    -0.05  -0.01   0.03
    14   1    -0.01   0.01   0.01     0.04   0.01  -0.01     0.08  -0.01  -0.13
    15   7     0.01  -0.00   0.00    -0.02   0.02   0.05    -0.14   0.00   0.17
    16   8     0.00  -0.01   0.00    -0.01  -0.00   0.03    -0.06   0.00   0.08
    17   6    -0.00  -0.00  -0.01     0.01  -0.04  -0.03    -0.01   0.00   0.00
    18   1     0.05  -0.08  -0.06     0.03  -0.09  -0.06    -0.02   0.01   0.01
    19   6     0.00  -0.03   0.00     0.01  -0.03   0.00     0.01   0.00  -0.01
    20   1     0.03  -0.04  -0.06    -0.05  -0.03   0.05    -0.20   0.02   0.27
    21   1    -0.01  -0.09   0.04     0.07   0.04  -0.02     0.19   0.32  -0.15
    22   1    -0.01   0.02   0.03     0.04  -0.11  -0.04     0.08  -0.32  -0.22
    23   6    -0.00   0.08  -0.08    -0.01  -0.03  -0.07     0.00   0.01   0.02
    24   6     0.05   0.09   0.01    -0.00  -0.02  -0.05    -0.00   0.01   0.02
    25   1    -0.00   0.13  -0.12    -0.01  -0.04  -0.06     0.01   0.01   0.02
    26   6    -0.11   0.02  -0.04    -0.13   0.14  -0.04     0.05  -0.05   0.02
    27   6     0.01   0.04  -0.03     0.02  -0.01   0.06    -0.01   0.00  -0.02
    28   6     0.04   0.03   0.02    -0.01  -0.03  -0.04    -0.00   0.01   0.01
    29   1     0.06   0.07   0.07    -0.01  -0.03  -0.04     0.00   0.01   0.03
    30   1     0.08   0.16   0.01     0.01  -0.00  -0.05    -0.01   0.01   0.02
    31   1    -0.23   0.04   0.04    -0.29   0.26   0.16     0.10  -0.09  -0.06
    32   1    -0.14   0.09  -0.15    -0.18   0.30  -0.29     0.06  -0.10   0.10
    33   6    -0.00  -0.06   0.04     0.01  -0.06  -0.04    -0.00   0.02   0.01
    34   6     0.05   0.03   0.01    -0.05  -0.04  -0.03     0.01   0.01   0.01
    35   1    -0.04   0.04   0.01     0.06   0.12   0.14    -0.03  -0.04  -0.05
    36   1     0.05   0.03  -0.06     0.07  -0.13   0.14    -0.04   0.05  -0.05
    37   1     0.07   0.04   0.07     0.00  -0.05  -0.04    -0.01   0.02   0.01
    38   1    -0.05  -0.18   0.05    -0.05  -0.25  -0.06     0.02   0.08   0.01
    39   1     0.10  -0.07   0.10     0.21  -0.05  -0.03    -0.07   0.02   0.01
    40   1     0.04   0.04   0.07    -0.03  -0.05  -0.09     0.00   0.02   0.03
    41   7    -0.04   0.03  -0.09    -0.03   0.02  -0.02     0.01  -0.00   0.01
    42   6     0.11  -0.09   0.02    -0.08   0.04  -0.03     0.02  -0.01   0.01
    43   1     0.09  -0.27   0.02    -0.06   0.14  -0.05     0.02  -0.05   0.01
    44   1     0.26  -0.08   0.13    -0.15   0.04  -0.11     0.05  -0.01   0.04
    45   6    -0.04  -0.07  -0.10     0.05   0.06   0.11    -0.01  -0.02  -0.03
    46   1     0.05  -0.31  -0.06     0.17   0.13   0.07    -0.02  -0.07  -0.02
    47   1    -0.03   0.22  -0.05     0.01   0.00   0.24    -0.01   0.03  -0.04
    48   1    -0.29  -0.12  -0.32     0.07   0.06   0.14    -0.05  -0.02  -0.07
    49   8    -0.06  -0.04   0.12     0.06  -0.07   0.05    -0.01   0.01  -0.01
    50   1    -0.07  -0.14   0.14    -0.07  -0.07  -0.03    -0.15   0.05  -0.10
    51   6     0.00   0.01   0.00    -0.02   0.03   0.01    -0.05   0.08   0.04
    52   9     0.01   0.00  -0.01     0.01  -0.01  -0.02     0.07  -0.03  -0.08
    53   9     0.01  -0.00  -0.00     0.02  -0.00  -0.03     0.06  -0.00  -0.06
    54   1    -0.01   0.00   0.01    -0.07   0.01   0.05    -0.21   0.04   0.17
    55   1     0.02  -0.00  -0.01    -0.03   0.02   0.07    -0.20   0.01   0.26
                     19                     20                     21
                      A                      A                      A
 Frequencies --    242.8815               245.3229               258.6461
 Red. masses --      2.5591                 1.3950                 1.4231
 Frc consts  --      0.0889                 0.0495                 0.0561
 IR Inten    --      0.0000                 0.0000                 0.0000
  Atom  AN      X      Y      Z        X      Y      Z        X      Y      Z
     1   6    -0.03  -0.05  -0.04     0.00   0.00   0.00     0.01   0.01   0.01
     2   6    -0.01  -0.06  -0.04    -0.00   0.01   0.01     0.02   0.01  -0.01
     3   6    -0.01  -0.05   0.02    -0.01   0.00   0.00     0.02   0.01  -0.04
     4   6    -0.00  -0.02   0.00    -0.01  -0.00   0.00    -0.00   0.01  -0.01
     5   6    -0.03  -0.01   0.00     0.00  -0.01   0.00     0.01   0.00  -0.01
     6   6    -0.05  -0.03  -0.01     0.01  -0.00  -0.00     0.02   0.01   0.00
     7   1     0.00  -0.06  -0.06    -0.00   0.01   0.01     0.01   0.02   0.00
     8   6    -0.03  -0.06   0.11    -0.01   0.01  -0.00    -0.00   0.01  -0.03
     9   1    -0.05   0.02   0.01     0.01  -0.01  -0.00     0.01  -0.01  -0.00
    10   1    -0.09  -0.02  -0.01     0.02  -0.00  -0.01     0.03   0.01   0.00
    11   6     0.06  -0.01   0.03    -0.01  -0.00  -0.01    -0.02   0.01   0.02
    12   6    -0.04  -0.04   0.17    -0.02   0.00  -0.00    -0.02   0.01   0.01
    13   1     0.11   0.02   0.03    -0.02  -0.01  -0.01    -0.04   0.01   0.03
    14   1    -0.06  -0.04   0.26    -0.03   0.01   0.01    -0.04   0.01   0.05
    15   7     0.06   0.01  -0.02    -0.02  -0.01   0.00    -0.04   0.01   0.03
    16   8     0.01  -0.02  -0.01    -0.00  -0.00   0.00    -0.02   0.01   0.04
    17   6     0.00   0.01   0.04    -0.01   0.01  -0.00    -0.01  -0.00  -0.02
    18   1     0.07   0.07   0.10     0.00  -0.03  -0.03    -0.03   0.01  -0.02
    19   6    -0.00   0.14  -0.01     0.00  -0.02   0.00     0.01  -0.04   0.01
    20   1    -0.10   0.20   0.32    -0.01  -0.02  -0.01     0.19  -0.06  -0.28
    21   1     0.03   0.45  -0.19     0.01  -0.03   0.01    -0.05  -0.32   0.17
    22   1     0.05  -0.08  -0.14     0.00  -0.02   0.00    -0.09   0.23   0.11
    23   6    -0.01  -0.01  -0.00    -0.00   0.03  -0.02     0.00  -0.03  -0.00
    24   6    -0.01  -0.01   0.00     0.03  -0.01  -0.04    -0.01  -0.02   0.00
    25   1    -0.03  -0.00  -0.00    -0.01   0.02  -0.01     0.01  -0.04   0.00
    26   6    -0.04   0.03  -0.01     0.01   0.03  -0.02     0.01  -0.02   0.01
    27   6     0.03   0.01   0.01    -0.04  -0.01  -0.00     0.04  -0.01   0.02
    28   6    -0.00   0.00   0.00     0.03  -0.03  -0.02    -0.00   0.00   0.00
    29   1    -0.01  -0.01   0.00     0.04   0.01  -0.05    -0.03  -0.03   0.01
    30   1     0.00  -0.01   0.00     0.04  -0.02  -0.04    -0.01  -0.02   0.00
    31   1    -0.11   0.07   0.07     0.01   0.02  -0.02     0.02  -0.02   0.00
    32   1    -0.06   0.08  -0.09     0.02   0.04  -0.02     0.01  -0.03   0.02
    33   6     0.01  -0.04   0.00     0.02   0.01  -0.03    -0.00  -0.01   0.00
    34   6     0.02   0.01  -0.01     0.03  -0.05   0.02     0.00   0.01  -0.01
    35   1     0.04   0.05   0.03    -0.08  -0.06  -0.01     0.07   0.04   0.03
    36   1     0.06  -0.02   0.02    -0.07   0.03  -0.02     0.07  -0.05   0.04
    37   1    -0.01   0.02   0.01     0.04  -0.05  -0.03    -0.01   0.01   0.01
    38   1    -0.01  -0.13  -0.02     0.02   0.03  -0.01     0.00  -0.00  -0.00
    39   1     0.10  -0.04   0.03     0.01   0.02  -0.06    -0.00  -0.01   0.01
    40   1     0.02   0.03  -0.01     0.01  -0.06   0.07     0.01   0.02  -0.04
    41   7    -0.00  -0.01  -0.01    -0.01   0.03  -0.01     0.01  -0.02   0.01
    42   6     0.02   0.00  -0.01     0.06  -0.04   0.02    -0.03   0.02  -0.01
    43   1     0.02  -0.02  -0.01     0.05  -0.09   0.03    -0.03   0.06  -0.00
    44   1     0.04   0.00   0.00     0.12  -0.02  -0.02    -0.07   0.02  -0.01
    45   6     0.01   0.00  -0.02    -0.01   0.04   0.03     0.01  -0.01   0.00
    46   1    -0.01  -0.00  -0.02    -0.41   0.39  -0.02     0.13  -0.10   0.01
    47   1     0.01   0.00  -0.04     0.05  -0.27  -0.34    -0.01   0.06   0.11
    48   1     0.01   0.00  -0.02     0.25   0.07   0.43    -0.05  -0.01  -0.11
    49   8    -0.07   0.06  -0.10    -0.06  -0.00   0.06    -0.08   0.01  -0.03
    50   1     0.41   0.00   0.19     0.20  -0.12   0.24     0.58  -0.17   0.39
    51   6    -0.01   0.04   0.01    -0.00   0.01   0.01    -0.02   0.04   0.02
    52   9     0.01   0.00  -0.01     0.01  -0.00  -0.01     0.02  -0.01  -0.03
    53   9     0.05   0.01  -0.04     0.01   0.00  -0.00     0.03   0.00  -0.03
    54   1    -0.06   0.02   0.05    -0.02   0.01   0.02    -0.09   0.02   0.07
    55   1     0.12   0.04  -0.10    -0.01  -0.01   0.00    -0.06   0.01   0.06
                     22                     23                     24
                      A                      A                      A
 Frequencies --    266.6796               269.8136               301.3135
 Red. masses --      2.6368                 1.5336                 3.6466
 Frc consts  --      0.1105                 0.0658                 0.1951
 IR Inten    --      0.0000                 0.0000                 0.0000
  Atom  AN      X      Y      Z        X      Y      Z        X      Y      Z
     1   6    -0.05  -0.06  -0.02    -0.00   0.02   0.01    -0.01  -0.03  -0.04
     2   6    -0.02  -0.06  -0.03    -0.04   0.02   0.06     0.04  -0.04  -0.02
     3   6     0.02  -0.04  -0.00    -0.04   0.02   0.05     0.07  -0.02   0.02
     4   6     0.00  -0.03   0.01    -0.02   0.00   0.03     0.03   0.01   0.06
     5   6    -0.01  -0.02  -0.02    -0.01  -0.00   0.01     0.00   0.03   0.01
     6   6    -0.04  -0.05  -0.04     0.01   0.00  -0.01     0.00   0.00  -0.07
     7   1    -0.03  -0.07  -0.02    -0.03   0.01   0.05     0.04  -0.07  -0.02
     8   6     0.04  -0.04   0.02     0.00   0.02  -0.01     0.10  -0.03  -0.02
     9   1    -0.01   0.01  -0.03     0.01  -0.00  -0.01    -0.01   0.09   0.02
    10   1    -0.05  -0.04  -0.06     0.05  -0.00  -0.05     0.00   0.01  -0.12
    11   6     0.03  -0.02   0.04     0.00  -0.01  -0.04     0.10   0.02   0.03
    12   6     0.03  -0.04   0.04     0.02   0.01  -0.07     0.23  -0.02  -0.15
    13   1     0.05  -0.01   0.04     0.00  -0.02  -0.05     0.11   0.00  -0.00
    14   1     0.04  -0.04   0.05     0.03   0.01  -0.10     0.34  -0.04  -0.24
    15   7     0.01  -0.01   0.04     0.00  -0.02  -0.03     0.01   0.01   0.12
    16   8    -0.03  -0.03   0.02     0.02   0.01  -0.04    -0.05  -0.02   0.02
    17   6     0.06  -0.00  -0.02     0.02   0.01  -0.02     0.02   0.02   0.04
    18   1     0.13  -0.05  -0.05     0.02  -0.02  -0.05    -0.01   0.05   0.06
    19   6    -0.01   0.12  -0.01    -0.01  -0.02  -0.01    -0.03   0.10  -0.03
    20   1     0.26   0.16  -0.16    -0.25  -0.02   0.27     0.15   0.13  -0.10
    21   1    -0.11  -0.06   0.07     0.08   0.27  -0.16    -0.08   0.01   0.01
    22   1    -0.15   0.39   0.02     0.12  -0.33  -0.10    -0.13   0.26  -0.04
    23   6     0.05   0.09  -0.07     0.02   0.01  -0.03    -0.02  -0.01   0.04
    24   6     0.09   0.08  -0.05     0.04   0.01  -0.02    -0.05  -0.01   0.01
    25   1     0.05   0.11  -0.08     0.02   0.01  -0.03    -0.04  -0.00   0.05
    26   6     0.02  -0.01  -0.03     0.02  -0.02  -0.01    -0.06   0.03   0.01
    27   6    -0.08  -0.01  -0.02     0.01  -0.01   0.01    -0.03   0.01  -0.01
    28   6     0.06  -0.01  -0.00     0.03  -0.00   0.01    -0.05   0.01  -0.01
    29   1     0.12   0.08  -0.05     0.03   0.01  -0.02    -0.06  -0.00  -0.01
    30   1     0.11   0.09  -0.05     0.06   0.01  -0.02    -0.07  -0.04   0.01
    31   1     0.09  -0.08  -0.14     0.05  -0.05  -0.05    -0.12   0.09   0.10
    32   1     0.04  -0.09   0.10     0.02  -0.06   0.05    -0.09   0.09  -0.08
    33   6    -0.04   0.10   0.00    -0.01   0.03   0.01    -0.02  -0.04  -0.00
    34   6    -0.03  -0.05   0.03    -0.00  -0.01   0.01    -0.03   0.02  -0.02
    35   1    -0.14  -0.08  -0.03     0.01   0.01   0.02    -0.01  -0.01  -0.03
    36   1    -0.13   0.05  -0.05     0.02  -0.02   0.01    -0.04   0.02  -0.01
    37   1     0.12  -0.08  -0.01     0.05  -0.02   0.01    -0.06   0.02   0.01
    38   1    -0.01   0.27   0.11     0.00   0.09   0.05    -0.05  -0.13  -0.05
    39   1    -0.22   0.12  -0.09    -0.08   0.03  -0.02     0.08  -0.05   0.03
    40   1    -0.04  -0.11   0.01     0.00  -0.03  -0.04    -0.03   0.04   0.02
    41   7    -0.02   0.06  -0.05     0.01   0.01  -0.02    -0.02  -0.01   0.02
    42   6    -0.09   0.00   0.04    -0.06   0.02   0.01     0.04  -0.02  -0.03
    43   1    -0.08   0.09   0.07    -0.05   0.09   0.03     0.04  -0.09  -0.07
    44   1    -0.17  -0.00  -0.00    -0.13   0.01  -0.01     0.12  -0.01   0.00
    45   6    -0.03  -0.02   0.09    -0.01  -0.01   0.03     0.01   0.01  -0.03
    46   1     0.09  -0.05   0.09     0.12  -0.10   0.04    -0.06   0.06  -0.04
    47   1    -0.06   0.02   0.21    -0.03   0.05   0.16     0.03  -0.02  -0.11
    48   1    -0.06  -0.02   0.02    -0.06  -0.01  -0.08     0.03   0.01   0.03
    49   8     0.05  -0.02   0.05    -0.01  -0.01   0.03    -0.07   0.05  -0.02
    50   1    -0.02  -0.05   0.02     0.48  -0.17   0.36     0.22  -0.02   0.17
    51   6    -0.02   0.02   0.01     0.03  -0.04  -0.03     0.04  -0.09  -0.09
    52   9    -0.00  -0.00  -0.01    -0.02  -0.00   0.03    -0.08  -0.02   0.07
    53   9     0.02   0.00  -0.02    -0.04  -0.00   0.03    -0.08  -0.00   0.03
    54   1    -0.05   0.01   0.03     0.11  -0.03  -0.10     0.20  -0.05  -0.24
    55   1     0.01   0.01   0.04     0.00  -0.03  -0.03    -0.09   0.02   0.26
                     25                     26                     27
                      A                      A                      A
 Frequencies --    318.9823               347.0706               357.0338
 Red. masses --      3.7691                 2.7651                 3.0172
 Frc consts  --      0.2260                 0.1962                 0.2266
 IR Inten    --      0.0000                 0.0000                 0.0000
  Atom  AN      X      Y      Z        X      Y      Z        X      Y      Z
     1   6    -0.02  -0.02  -0.05     0.00  -0.01   0.01     0.02   0.03  -0.06
     2   6     0.01  -0.01  -0.06    -0.01  -0.00   0.00     0.07   0.01  -0.05
     3   6     0.02   0.02  -0.01    -0.01  -0.01  -0.00     0.02   0.02   0.04
     4   6     0.00  -0.05   0.02    -0.01   0.01  -0.01    -0.01  -0.01   0.08
     5   6    -0.01  -0.05   0.00    -0.00  -0.00  -0.00    -0.02   0.00   0.05
     6   6    -0.02  -0.06  -0.03     0.00   0.00   0.00     0.03   0.00  -0.05
     7   1     0.01  -0.04  -0.06    -0.01   0.01  -0.00     0.07  -0.00  -0.06
     8   6    -0.02   0.07   0.03     0.00  -0.01  -0.01    -0.03   0.04   0.07
     9   1    -0.02  -0.01   0.01     0.00  -0.01  -0.01    -0.04   0.04   0.07
    10   1    -0.02  -0.06  -0.01     0.01   0.00  -0.00     0.07  -0.01  -0.07
    11   6    -0.05  -0.09  -0.08     0.01   0.02   0.01     0.00  -0.06  -0.07
    12   6    -0.08  -0.01  -0.04     0.02   0.00   0.00    -0.06  -0.00   0.00
    13   1    -0.09  -0.13  -0.09     0.02   0.03   0.01     0.01  -0.09  -0.11
    14   1    -0.16   0.03  -0.07     0.04  -0.01   0.01    -0.11   0.02  -0.03
    15   7    -0.05  -0.10  -0.01     0.00   0.02  -0.00     0.00  -0.07  -0.01
    16   8    -0.06  -0.01  -0.00     0.02  -0.00   0.01    -0.08   0.02   0.01
    17   6     0.02   0.08   0.05     0.01  -0.05  -0.04    -0.01   0.08   0.06
    18   1    -0.03   0.07   0.04     0.02  -0.03  -0.03     0.03   0.07   0.06
    19   6    -0.04   0.04  -0.03     0.02  -0.02   0.01    -0.05   0.04  -0.04
    20   1     0.06   0.06  -0.09    -0.00  -0.02   0.01     0.03   0.04  -0.10
    21   1    -0.07  -0.02  -0.00     0.02  -0.01   0.01    -0.05  -0.02   0.00
    22   1    -0.10   0.14  -0.03     0.02  -0.03   0.02    -0.10   0.11  -0.05
    23   6    -0.03   0.01   0.05    -0.01  -0.00  -0.05    -0.01   0.03  -0.02
    24   6    -0.02  -0.03  -0.02    -0.10   0.13   0.11    -0.01   0.02  -0.05
    25   1    -0.05  -0.02   0.08     0.06   0.04  -0.11    -0.08   0.07  -0.02
    26   6    -0.01   0.03   0.05     0.04  -0.04  -0.06     0.02  -0.10  -0.05
    27   6    -0.06   0.05  -0.01     0.00   0.02  -0.02     0.17   0.00   0.05
    28   6    -0.02   0.02   0.03    -0.09   0.09  -0.03    -0.01   0.01  -0.04
    29   1    -0.05   0.02  -0.13    -0.07   0.03   0.33     0.00   0.03  -0.07
    30   1     0.02  -0.14  -0.04    -0.18   0.35   0.14    -0.02  -0.00  -0.05
    31   1    -0.07   0.04   0.09     0.06  -0.08  -0.11     0.06  -0.16  -0.12
    32   1     0.01   0.09   0.00     0.08  -0.05   0.01     0.05  -0.14   0.04
    33   6     0.04  -0.05   0.03     0.03  -0.02  -0.06    -0.01  -0.05  -0.04
    34   6    -0.02   0.04   0.00    -0.05   0.07   0.02     0.04   0.01  -0.03
    35   1    -0.07  -0.02  -0.06     0.01   0.03  -0.02     0.24   0.26   0.21
    36   1    -0.11   0.11  -0.03     0.04   0.01  -0.05     0.36  -0.24   0.15
    37   1    -0.03   0.04   0.04    -0.11   0.10  -0.05    -0.01   0.03  -0.01
    38   1     0.01  -0.18  -0.05     0.03  -0.11  -0.18     0.00  -0.04  -0.08
    39   1     0.18  -0.07   0.10     0.12  -0.06   0.07    -0.02  -0.07   0.01
    40   1    -0.03   0.03   0.04    -0.04   0.17   0.06     0.07   0.09  -0.11
    41   7    -0.02   0.03   0.05    -0.01  -0.01  -0.05     0.02  -0.04  -0.08
    42   6     0.03   0.03  -0.01     0.01  -0.10   0.08    -0.04  -0.06   0.01
    43   1     0.03  -0.01  -0.04    -0.00  -0.23   0.02    -0.05  -0.05   0.03
    44   1     0.06   0.03   0.02     0.14  -0.09   0.17    -0.03  -0.05   0.02
    45   6     0.01   0.00  -0.07    -0.04  -0.04   0.13    -0.01  -0.02   0.11
    46   1    -0.03  -0.05  -0.05    -0.10   0.12   0.10     0.05   0.10   0.07
    47   1     0.02   0.02  -0.11    -0.03  -0.10   0.07    -0.03  -0.06   0.17
    48   1     0.01   0.01  -0.11    -0.01  -0.05   0.30     0.00  -0.02   0.20
    49   8     0.29   0.05   0.09     0.12  -0.05  -0.08    -0.05   0.09   0.08
    50   1     0.57   0.08   0.25     0.33  -0.03   0.04    -0.27   0.10  -0.06
    51   6     0.01   0.01   0.01    -0.00  -0.00  -0.00     0.03  -0.02  -0.02
    52   9     0.02   0.00  -0.02    -0.00  -0.00   0.00     0.01   0.01   0.01
    53   9     0.01   0.00   0.00    -0.00   0.00  -0.00    -0.01  -0.00   0.01
    54   1     0.00   0.01   0.02     0.00  -0.00  -0.01     0.08  -0.01  -0.06
    55   1    -0.04  -0.15  -0.01     0.00   0.04  -0.00     0.04  -0.11  -0.04
                     28                     29                     30
                      A                      A                      A
 Frequencies --    368.1868               375.6722               406.4166
 Red. masses --      4.1000                 2.1922                 3.7296
 Frc consts  --      0.3275                 0.1823                 0.3630
 IR Inten    --      0.0000                 0.0000                 0.0000
  Atom  AN      X      Y      Z        X      Y      Z        X      Y      Z
     1   6    -0.10  -0.02   0.10    -0.02   0.02   0.01    -0.02  -0.11  -0.01
     2   6    -0.05  -0.03   0.11     0.01   0.01   0.02    -0.10  -0.05  -0.09
     3   6     0.08  -0.01  -0.01     0.02   0.01   0.01    -0.08  -0.01  -0.06
     4   6     0.17  -0.02  -0.10     0.04  -0.01   0.00    -0.09   0.03  -0.08
     5   6     0.13  -0.01  -0.12     0.03  -0.00  -0.01    -0.04  -0.03  -0.04
     6   6    -0.13  -0.01   0.15    -0.02   0.00   0.02    -0.04  -0.07  -0.02
     7   1    -0.03  -0.06   0.08     0.02  -0.00   0.01    -0.10  -0.02  -0.09
     8   6     0.06   0.02  -0.06     0.00   0.02   0.00    -0.00  -0.01   0.01
     9   1     0.20   0.04  -0.22     0.04   0.02  -0.03    -0.03  -0.08  -0.04
    10   1    -0.23   0.00   0.25    -0.02  -0.00   0.05    -0.11  -0.04  -0.05
    11   6    -0.09  -0.02   0.09    -0.03  -0.03  -0.01     0.02   0.08   0.01
    12   6     0.03   0.00  -0.08    -0.02  -0.00  -0.02     0.06   0.02  -0.02
    13   1    -0.19  -0.04   0.14    -0.05  -0.05  -0.01     0.06   0.13   0.04
    14   1     0.02   0.01  -0.11    -0.05   0.01  -0.03     0.12  -0.00  -0.02
    15   7    -0.02  -0.04   0.09    -0.01  -0.04   0.01    -0.06   0.10  -0.04
    16   8     0.05  -0.04  -0.13    -0.02   0.01  -0.03     0.10  -0.06   0.07
    17   6     0.01   0.05  -0.01     0.00   0.01   0.02     0.02   0.07   0.04
    18   1    -0.03   0.03  -0.03    -0.02   0.03   0.02     0.03   0.07   0.04
    19   6    -0.03   0.06  -0.04    -0.03   0.02  -0.03     0.12  -0.08   0.10
    20   1    -0.07   0.09   0.14    -0.02   0.03  -0.00     0.08  -0.10   0.08
    21   1    -0.12   0.20  -0.15    -0.04   0.04  -0.04     0.14  -0.09   0.11
    22   1     0.02  -0.02  -0.03    -0.03   0.02  -0.03     0.14  -0.11   0.11
    23   6    -0.00   0.02   0.00     0.01  -0.01   0.03     0.01   0.08   0.03
    24   6    -0.03  -0.00  -0.07     0.01   0.05   0.17     0.03   0.05  -0.03
    25   1    -0.03   0.01   0.03     0.04   0.06  -0.04    -0.00   0.08   0.03
    26   6     0.01  -0.06   0.01    -0.06   0.04  -0.01    -0.01  -0.05   0.07
    27   6     0.05   0.02   0.02     0.04  -0.06   0.03     0.05   0.03   0.09
    28   6    -0.03   0.03  -0.01     0.01  -0.07  -0.03    -0.01  -0.02  -0.01
    29   1    -0.07   0.04  -0.17     0.16  -0.06   0.46     0.06   0.09  -0.09
    30   1     0.01  -0.11  -0.08    -0.15   0.36   0.22     0.03  -0.02  -0.04
    31   1     0.03  -0.10  -0.04    -0.03   0.11   0.04     0.04  -0.13  -0.03
    32   1     0.04  -0.07   0.06    -0.11   0.02  -0.06     0.03  -0.10   0.18
    33   6     0.00  -0.06  -0.01    -0.09   0.08  -0.02    -0.06  -0.04   0.02
    34   6    -0.01   0.04  -0.02    -0.00  -0.08  -0.05    -0.05  -0.02  -0.08
    35   1     0.09   0.12   0.07     0.09   0.05   0.09     0.16   0.27   0.21
    36   1     0.12  -0.06   0.06     0.07  -0.16   0.11     0.15  -0.19   0.24
    37   1    -0.03   0.05   0.02     0.01  -0.08  -0.05     0.04  -0.02   0.06
    38   1    -0.00  -0.13  -0.10    -0.07   0.27   0.16    -0.04   0.02   0.04
    39   1     0.08  -0.09   0.07    -0.29   0.13  -0.20    -0.10  -0.02  -0.02
    40   1     0.00   0.08  -0.03     0.00  -0.07  -0.06    -0.04  -0.00  -0.12
    41   7    -0.00  -0.00  -0.01     0.00  -0.04   0.01    -0.02   0.04   0.02
    42   6    -0.02  -0.03   0.00     0.03  -0.04  -0.09     0.01  -0.07  -0.11
    43   1    -0.02  -0.07  -0.02     0.04  -0.05  -0.11     0.01  -0.16  -0.20
    44   1     0.03  -0.02   0.04     0.07  -0.02  -0.13     0.13  -0.05  -0.08
    45   6    -0.01  -0.01   0.04     0.03   0.03  -0.05     0.03   0.02  -0.02
    46   1     0.01   0.05   0.03     0.03   0.08  -0.06     0.06   0.13  -0.06
    47   1    -0.01  -0.04   0.06     0.03   0.04  -0.06     0.02  -0.01   0.00
    48   1     0.01  -0.01   0.10     0.00   0.02   0.00     0.03   0.01   0.08
    49   8    -0.03   0.05   0.06     0.04   0.02   0.00     0.06   0.08   0.06
    50   1    -0.08  -0.00   0.03     0.10   0.03   0.04     0.06   0.09   0.06
    51   6    -0.06   0.06   0.06    -0.01   0.01   0.01     0.00  -0.00  -0.00
    52   9     0.01  -0.00  -0.03     0.00   0.00  -0.01    -0.01  -0.01   0.01
    53   9     0.03   0.01  -0.02     0.01   0.00  -0.00    -0.01  -0.00   0.00
    54   1    -0.18   0.03   0.15    -0.02   0.01   0.02     0.00  -0.00  -0.01
    55   1    -0.10  -0.08   0.21    -0.01  -0.07   0.03    -0.10   0.19  -0.02
                     31                     32                     33
                      A                      A                      A
 Frequencies --    417.6713               439.1180               461.8669
 Red. masses --      3.4641                 4.0697                 3.2355
 Frc consts  --      0.3561                 0.4624                 0.4067
 IR Inten    --      0.0000                 0.0000                 0.0000
  Atom  AN      X      Y      Z        X      Y      Z        X      Y      Z
     1   6     0.02   0.00  -0.01     0.00   0.14   0.04     0.00  -0.08   0.02
     2   6    -0.02  -0.01   0.12     0.12   0.09  -0.07     0.08  -0.07  -0.06
     3   6     0.07  -0.01  -0.01    -0.09  -0.01   0.07    -0.02  -0.00   0.10
     4   6     0.04  -0.00   0.07    -0.05  -0.04   0.02     0.01   0.05   0.08
     5   6    -0.05   0.03   0.13     0.06  -0.03  -0.14     0.09   0.05  -0.02
     6   6     0.08   0.01  -0.08    -0.03   0.07   0.11    -0.03   0.01   0.04
     7   1    -0.09  -0.02   0.21     0.23   0.11  -0.22     0.15  -0.08  -0.16
     8   6     0.06   0.01  -0.13    -0.05  -0.08   0.12    -0.09   0.04   0.01
     9   1    -0.13   0.06   0.23     0.19  -0.09  -0.30     0.17   0.07  -0.13
    10   1     0.15   0.00  -0.17     0.03   0.02   0.23    -0.11   0.04  -0.00
    11   6    -0.03  -0.01   0.03     0.08  -0.07  -0.02    -0.02   0.07  -0.05
    12   6    -0.06   0.02   0.05     0.03  -0.08   0.05    -0.04   0.07  -0.04
    13   1    -0.07  -0.03   0.03     0.15  -0.05  -0.05    -0.03   0.03  -0.09
    14   1    -0.13   0.02   0.15     0.09  -0.08  -0.03     0.03   0.05  -0.07
    15   7     0.10  -0.02  -0.03    -0.04  -0.04   0.05     0.03   0.04   0.02
    16   8    -0.04  -0.02  -0.01    -0.03   0.13  -0.04    -0.00  -0.11   0.01
    17   6     0.02  -0.03  -0.13     0.01  -0.09   0.01    -0.07  -0.01  -0.08
    18   1    -0.02  -0.08  -0.17     0.13  -0.08   0.03    -0.04  -0.06  -0.10
    19   6    -0.04   0.05  -0.04    -0.05  -0.01  -0.04     0.00   0.03   0.00
    20   1     0.00   0.07   0.02    -0.11  -0.05  -0.13     0.13   0.08   0.05
    21   1    -0.04   0.09  -0.06    -0.04  -0.07   0.01    -0.06   0.05  -0.03
    22   1    -0.07   0.05  -0.08    -0.01  -0.01   0.03    -0.06   0.11  -0.03
    23   6     0.05   0.03  -0.02     0.03   0.05  -0.02    -0.06   0.00  -0.08
    24   6    -0.00   0.05  -0.04     0.03   0.05  -0.06    -0.03  -0.00   0.00
    25   1     0.13  -0.04  -0.00     0.09   0.01  -0.02    -0.01  -0.02  -0.08
    26   6     0.02  -0.04   0.12     0.01  -0.02   0.09     0.06  -0.04  -0.02
    27   6    -0.03   0.04   0.08    -0.03   0.05   0.05    -0.03  -0.01   0.13
    28   6    -0.05   0.02   0.01    -0.00   0.01   0.03    -0.02  -0.04  -0.01
    29   1    -0.05   0.07  -0.10    -0.00   0.09  -0.16     0.02  -0.04   0.11
    30   1     0.03  -0.03  -0.06     0.11  -0.06  -0.08    -0.03   0.13   0.02
    31   1     0.07  -0.13   0.00     0.04  -0.11  -0.01     0.13  -0.17  -0.19
    32   1     0.07  -0.09   0.25     0.06  -0.06   0.20     0.17  -0.07   0.18
    33   6    -0.04  -0.04   0.05    -0.02  -0.02   0.06     0.04  -0.02  -0.05
    34   6    -0.11   0.01  -0.06    -0.08   0.00  -0.05     0.01  -0.04   0.08
    35   1     0.06   0.16   0.10     0.03   0.13   0.07    -0.02   0.16   0.28
    36   1    -0.03  -0.07   0.19    -0.04  -0.03   0.14     0.09  -0.17   0.20
    37   1     0.01   0.01   0.08     0.06  -0.01   0.08    -0.03  -0.07  -0.08
    38   1    -0.02  -0.04  -0.01    -0.01  -0.00   0.05     0.05  -0.01  -0.09
    39   1    -0.01  -0.04   0.05    -0.01  -0.01   0.04     0.04  -0.02  -0.03
    40   1    -0.11   0.01  -0.06    -0.08  -0.03  -0.07    -0.01  -0.04   0.12
    41   7    -0.02   0.05   0.08    -0.01   0.08   0.03    -0.08   0.05  -0.00
    42   6     0.02  -0.06  -0.11    -0.00  -0.05  -0.09     0.05   0.09   0.04
    43   1     0.03  -0.20  -0.25     0.01  -0.16  -0.20     0.06   0.18   0.07
    44   1     0.19  -0.03  -0.04     0.13  -0.03  -0.04    -0.04   0.09  -0.04
    45   6     0.03   0.02  -0.05     0.02   0.01  -0.03     0.03   0.04  -0.09
    46   1     0.03   0.12  -0.07     0.04   0.10  -0.05    -0.08  -0.12  -0.03
    47   1     0.03  -0.01  -0.05     0.01  -0.01  -0.01     0.06   0.07  -0.19
    48   1     0.04   0.01   0.05     0.02   0.00   0.06     0.04   0.05  -0.23
    49   8    -0.02  -0.07  -0.02    -0.00  -0.09  -0.07     0.01  -0.05  -0.02
    50   1    -0.05  -0.16  -0.02     0.08  -0.05  -0.03     0.00  -0.06  -0.02
    51   6    -0.02   0.02   0.02     0.03  -0.02  -0.03     0.02  -0.02  -0.02
    52   9     0.00   0.01  -0.01    -0.00  -0.00   0.01     0.01  -0.00   0.01
    53   9     0.02   0.00  -0.00    -0.01  -0.00   0.00    -0.01  -0.00   0.01
    54   1    -0.05   0.01   0.05     0.07  -0.01  -0.07     0.06  -0.01  -0.05
    55   1     0.17  -0.07  -0.11    -0.04  -0.00   0.04     0.06  -0.02   0.00
                     34                     35                     36
                      A                      A                      A
 Frequencies --    481.4069               521.8531               540.2916
 Red. masses --      3.2473                 4.3744                 4.5061
 Frc consts  --      0.4434                 0.7019                 0.7750
 IR Inten    --      0.0000                 0.0000                 0.0000
  Atom  AN      X      Y      Z        X      Y      Z        X      Y      Z
     1   6     0.00   0.09  -0.02    -0.14   0.02   0.01    -0.09  -0.02   0.03
     2   6    -0.06   0.07   0.06    -0.03   0.01  -0.12    -0.02  -0.06   0.01
     3   6     0.03  -0.01  -0.11    -0.04   0.07   0.06     0.09  -0.02   0.01
     4   6     0.01  -0.07  -0.09    -0.07  -0.09   0.17     0.01   0.12   0.07
     5   6    -0.09  -0.07   0.01    -0.00  -0.11  -0.08     0.01   0.22  -0.03
     6   6     0.03  -0.02  -0.03    -0.11  -0.16  -0.04    -0.09   0.14  -0.07
     7   1    -0.14   0.08   0.17     0.11  -0.12  -0.29     0.02  -0.12  -0.04
     8   6     0.05  -0.05   0.01     0.08   0.11  -0.11     0.10  -0.07   0.01
     9   1    -0.19  -0.09   0.14     0.18  -0.01  -0.34     0.08   0.33  -0.15
    10   1     0.09  -0.06   0.05     0.03  -0.18  -0.17    -0.14   0.21  -0.28
    11   6     0.06  -0.06   0.07     0.06  -0.02   0.04    -0.03  -0.09  -0.12
    12   6     0.07  -0.05   0.04     0.01   0.14   0.06    -0.11  -0.18   0.04
    13   1     0.07  -0.03   0.10     0.02  -0.11  -0.04     0.05  -0.02  -0.08
    14   1     0.05  -0.05   0.07    -0.06   0.16   0.09    -0.23  -0.15   0.10
    15   7    -0.00  -0.03   0.03     0.14  -0.05   0.06    -0.12  -0.04  -0.02
    16   8    -0.00   0.12  -0.01     0.05   0.12  -0.00     0.07   0.05   0.02
    17   6     0.02   0.01   0.04     0.06   0.05  -0.11     0.11   0.00  -0.01
    18   1     0.07   0.03   0.05    -0.03   0.00  -0.15     0.14  -0.01  -0.01
    19   6    -0.01  -0.02  -0.01     0.04  -0.04   0.03     0.10  -0.03   0.07
    20   1    -0.13  -0.07  -0.06    -0.10  -0.11  -0.09    -0.00  -0.07   0.02
    21   1     0.05  -0.05   0.02     0.08  -0.12   0.09     0.12  -0.06   0.10
    22   1     0.05  -0.09   0.02     0.13  -0.10   0.12     0.15  -0.08   0.12
    23   6    -0.03   0.04  -0.03     0.05  -0.03  -0.00     0.09   0.01   0.01
    24   6    -0.03   0.03  -0.02    -0.02  -0.00   0.00    -0.01   0.07  -0.04
    25   1    -0.05   0.05  -0.04     0.07  -0.04   0.00     0.10   0.02  -0.00
    26   6     0.02  -0.04  -0.05    -0.00   0.00   0.01    -0.01  -0.01   0.01
    27   6    -0.03  -0.04   0.13    -0.00  -0.05  -0.00    -0.01  -0.08   0.03
    28   6    -0.04  -0.03  -0.04    -0.04   0.02  -0.02    -0.06   0.02  -0.03
    29   1     0.04   0.01   0.05    -0.05  -0.03   0.05    -0.03   0.07  -0.04
    30   1    -0.07   0.11  -0.00    -0.07   0.03   0.01    -0.06   0.03  -0.03
    31   1     0.07  -0.12  -0.16     0.00   0.07   0.08    -0.01   0.08   0.09
    32   1     0.11  -0.05   0.09    -0.03   0.02  -0.05    -0.04   0.02  -0.07
    33   6     0.01  -0.04  -0.08    -0.02  -0.01  -0.03    -0.04  -0.02  -0.04
    34   6     0.01  -0.04   0.10    -0.03   0.01   0.02    -0.06  -0.00   0.04
    35   1    -0.03   0.12   0.27     0.00  -0.11  -0.06    -0.00  -0.12  -0.02
    36   1     0.10  -0.18   0.18    -0.04   0.01  -0.04    -0.05  -0.05   0.01
    37   1    -0.02  -0.09  -0.10    -0.03   0.00  -0.02     0.01  -0.05  -0.03
    38   1     0.01  -0.08  -0.15    -0.02  -0.04  -0.08    -0.04  -0.09  -0.13
    39   1     0.05  -0.05  -0.04     0.02  -0.02   0.01     0.04  -0.04   0.02
    40   1    -0.00  -0.01   0.17    -0.02   0.05   0.04    -0.05   0.06   0.08
    41   7    -0.08   0.02  -0.02     0.02  -0.05   0.04     0.02  -0.05   0.04
    42   6     0.06   0.11   0.08     0.01   0.02   0.02     0.02   0.04   0.04
    43   1     0.06   0.22   0.13     0.01   0.02   0.01     0.03   0.04   0.01
    44   1    -0.07   0.10  -0.02     0.01   0.02   0.02     0.02   0.04   0.02
    45   6     0.03   0.04  -0.07     0.00   0.00  -0.01     0.01   0.01  -0.02
    46   1    -0.11  -0.16  -0.01    -0.03  -0.03   0.01    -0.06  -0.07   0.01
    47   1     0.06   0.07  -0.20     0.01   0.00  -0.03     0.03   0.02  -0.09
    48   1     0.04   0.06  -0.25     0.01   0.01  -0.04     0.02   0.02  -0.09
    49   8     0.02   0.02   0.01    -0.04   0.05   0.03    -0.02   0.01   0.01
    50   1     0.00   0.04  -0.00    -0.14  -0.11  -0.00    -0.07  -0.06  -0.00
    51   6    -0.01   0.01   0.01    -0.01   0.00   0.01     0.03  -0.02  -0.02
    52   9    -0.01   0.00  -0.01    -0.00   0.00  -0.01     0.00   0.00   0.00
    53   9     0.01   0.00  -0.01     0.01  -0.00   0.00    -0.00  -0.00   0.00
    54   1    -0.03   0.00   0.02    -0.03  -0.00   0.02     0.08  -0.01  -0.07
    55   1    -0.06   0.05   0.07     0.29  -0.01  -0.15    -0.13  -0.16   0.02
                     37                     38                     39
                      A                      A                      A
 Frequencies --    545.3653               546.1754               563.5019
 Red. masses --      3.9171                 4.6292                 9.5672
 Frc consts  --      0.6864                 0.8136                 1.7899
 IR Inten    --      0.0000                 0.0000                 0.0000
  Atom  AN      X      Y      Z        X      Y      Z        X      Y      Z
     1   6    -0.05  -0.00  -0.13     0.06   0.01  -0.13    -0.05  -0.01   0.09
     2   6    -0.07  -0.04   0.01     0.05  -0.02  -0.06    -0.02   0.00   0.02
     3   6     0.09   0.02   0.01    -0.10  -0.01   0.19     0.05   0.01  -0.10
     4   6     0.17  -0.01  -0.02     0.03   0.02   0.00    -0.03   0.01   0.01
     5   6    -0.04   0.07  -0.01    -0.03   0.05   0.00     0.01   0.00   0.00
     6   6    -0.13  -0.02  -0.11    -0.04   0.03  -0.03     0.02   0.01   0.00
     7   1    -0.16  -0.18   0.17     0.06  -0.05  -0.06    -0.01   0.02  -0.01
     8   6    -0.08   0.05   0.07    -0.00  -0.04   0.05    -0.00   0.02  -0.03
     9   1    -0.19   0.28   0.15    -0.11   0.12   0.09     0.08  -0.03  -0.09
    10   1    -0.30   0.02  -0.02    -0.18   0.06   0.10     0.11   0.00  -0.13
    11   6     0.01  -0.03  -0.03    -0.17  -0.03   0.17     0.12  -0.00  -0.09
    12   6    -0.02   0.05  -0.02     0.10  -0.10  -0.18    -0.04   0.05   0.08
    13   1    -0.07  -0.11  -0.08    -0.19  -0.01   0.21     0.00   0.02   0.03
    14   1    -0.02   0.05  -0.07     0.24  -0.11  -0.39    -0.13   0.06   0.22
    15   7     0.05  -0.06   0.12     0.11  -0.04  -0.16    -0.06   0.02   0.09
    16   8     0.05   0.13   0.05    -0.01   0.06   0.06     0.02  -0.04  -0.02
    17   6    -0.09  -0.05   0.02     0.03  -0.01   0.02    -0.04  -0.00   0.00
    18   1    -0.05  -0.06   0.02     0.06  -0.00   0.03    -0.06  -0.00   0.00
    19   6     0.09  -0.04   0.07     0.03  -0.01   0.03    -0.00   0.00  -0.00
    20   1    -0.09  -0.12  -0.05    -0.01  -0.04  -0.06     0.02   0.02   0.04
    21   1     0.18  -0.11   0.14     0.08  -0.07   0.08    -0.04   0.03  -0.03
    22   1     0.17  -0.13   0.11     0.04  -0.02   0.03    -0.01   0.01  -0.00
    23   6    -0.09  -0.03  -0.04     0.02   0.01   0.01    -0.04  -0.01  -0.01
    24   6     0.01  -0.06   0.03    -0.00   0.02  -0.01     0.00  -0.04   0.02
    25   1    -0.08  -0.05  -0.03     0.02   0.02   0.00    -0.05  -0.01  -0.00
    26   6     0.02   0.01  -0.02    -0.00  -0.00   0.00     0.00   0.00  -0.01
    27   6    -0.01   0.08  -0.01    -0.00  -0.02   0.01    -0.00   0.04  -0.01
    28   6     0.06  -0.01   0.05    -0.02   0.00  -0.01     0.03  -0.01   0.01
    29   1    -0.01  -0.07   0.04    -0.00   0.03  -0.02     0.01  -0.04   0.03
    30   1     0.10  -0.02   0.03    -0.01   0.01  -0.01     0.02  -0.01   0.02
    31   1     0.02  -0.10  -0.12    -0.00   0.02   0.02     0.01  -0.04  -0.06
    32   1     0.07  -0.03   0.09    -0.01   0.00  -0.02     0.03  -0.01   0.04
    33   6     0.06   0.03   0.06    -0.01  -0.01  -0.01     0.02   0.01   0.01
    34   6     0.02   0.00  -0.04    -0.01  -0.01   0.01     0.03   0.00  -0.02
    35   1    -0.01   0.15   0.05    -0.00  -0.03   0.00    -0.01   0.07   0.02
    36   1     0.03   0.01   0.03    -0.01  -0.02   0.01     0.02   0.02   0.00
    37   1    -0.01   0.04   0.04     0.01  -0.02  -0.01    -0.01   0.02   0.01
    38   1     0.06   0.10   0.14    -0.01  -0.02  -0.03     0.02   0.03   0.05
    39   1    -0.02   0.05   0.01     0.01  -0.01   0.00    -0.02   0.01  -0.01
    40   1     0.02  -0.07  -0.08    -0.01   0.01   0.02     0.02  -0.03  -0.03
    41   7    -0.03   0.07  -0.04     0.01  -0.01   0.01    -0.02   0.03  -0.02
    42   6    -0.02  -0.04  -0.05     0.01   0.01   0.01    -0.01  -0.01  -0.01
    43   1    -0.02  -0.07  -0.06     0.01   0.01   0.00    -0.01  -0.01  -0.00
    44   1     0.02  -0.04  -0.02     0.00   0.01   0.00    -0.01  -0.02  -0.01
    45   6    -0.00  -0.01   0.01     0.00   0.00  -0.01    -0.00  -0.00   0.01
    46   1     0.06   0.07  -0.02    -0.02  -0.02   0.00     0.02   0.03  -0.00
    47   1    -0.02  -0.02   0.07     0.01   0.01  -0.03    -0.01  -0.00   0.03
    48   1    -0.01  -0.02   0.08     0.01   0.01  -0.03    -0.01  -0.01   0.03
    49   8    -0.00  -0.07  -0.05    -0.01   0.00  -0.00     0.01  -0.01  -0.01
    50   1     0.04   0.03  -0.05     0.06  -0.02   0.05    -0.00   0.03  -0.02
    51   6     0.02   0.00  -0.02    -0.12  -0.01   0.10    -0.06  -0.35   0.01
    52   9     0.01  -0.00   0.01    -0.06   0.04  -0.10    -0.25   0.14  -0.30
    53   9    -0.01  -0.00  -0.01     0.10   0.02   0.06     0.31   0.05   0.27
    54   1     0.04   0.01  -0.03    -0.25  -0.05   0.22     0.16  -0.32  -0.22
    55   1    -0.01  -0.14   0.23     0.22  -0.10  -0.29    -0.21   0.07   0.26
                     40                     41                     42
                      A                      A                      A
 Frequencies --    583.8413               597.4935               623.5374
 Red. masses --      3.4764                 3.4189                 5.7959
 Frc consts  --      0.6982                 0.7191                 1.3277
 IR Inten    --      0.0000                 0.0000                 0.0000
  Atom  AN      X      Y      Z        X      Y      Z        X      Y      Z
     1   6    -0.06   0.02   0.08    -0.06   0.02   0.11    -0.08   0.01   0.10
     2   6     0.05  -0.02   0.01     0.05  -0.01   0.00     0.01  -0.00  -0.01
     3   6     0.03  -0.06  -0.01     0.03  -0.05  -0.03     0.05  -0.00  -0.05
     4   6    -0.05   0.00   0.07    -0.08   0.01   0.06    -0.01  -0.00   0.04
     5   6    -0.04   0.03  -0.02    -0.04   0.02  -0.01    -0.02  -0.00   0.04
     6   6    -0.01   0.05  -0.02     0.01   0.05  -0.02     0.01  -0.01  -0.03
     7   1     0.14  -0.03  -0.12     0.15  -0.00  -0.14     0.10  -0.02  -0.14
     8   6     0.04  -0.07  -0.09     0.07  -0.07  -0.07    -0.00   0.01  -0.02
     9   1     0.08   0.03  -0.17     0.10  -0.01  -0.19     0.08   0.01  -0.10
    10   1     0.13   0.04  -0.20     0.20   0.03  -0.23     0.18  -0.03  -0.25
    11   6    -0.02  -0.00   0.03    -0.02  -0.01   0.05    -0.04   0.01   0.02
    12   6     0.01  -0.07  -0.01     0.03  -0.09  -0.01     0.01   0.01  -0.04
    13   1    -0.00   0.01   0.04     0.02   0.03   0.08    -0.07  -0.00   0.03
    14   1    -0.00  -0.08   0.09     0.01  -0.10   0.08    -0.02   0.02   0.01
    15   7     0.04  -0.00  -0.03     0.03   0.00  -0.06     0.04  -0.00  -0.03
    16   8     0.02   0.03  -0.02     0.02   0.02  -0.02     0.02   0.01  -0.02
    17   6    -0.06  -0.00   0.01    -0.02   0.05   0.01    -0.07  -0.04   0.09
    18   1    -0.14   0.00   0.01    -0.05   0.07   0.02    -0.08  -0.02   0.10
    19   6     0.01   0.00   0.01     0.01   0.00   0.00     0.00   0.00  -0.00
    20   1    -0.02  -0.01  -0.01    -0.01  -0.00  -0.00    -0.01  -0.00  -0.00
    21   1     0.01  -0.01   0.02    -0.01  -0.00   0.00    -0.02  -0.00  -0.00
    22   1     0.04  -0.01   0.04     0.02  -0.00   0.03     0.02  -0.01   0.02
    23   6    -0.06   0.04   0.07    -0.10  -0.06  -0.05    -0.06   0.10  -0.02
    24   6     0.01  -0.06   0.02    -0.01  -0.12   0.08    -0.18   0.12  -0.06
    25   1    -0.05   0.00   0.09    -0.17  -0.02  -0.05    -0.06   0.06   0.01
    26   6    -0.06  -0.02   0.06     0.04   0.02  -0.13     0.05   0.04   0.07
    27   6     0.02   0.20  -0.02    -0.04   0.00   0.01     0.09  -0.14  -0.04
    28   6     0.05  -0.07  -0.11     0.04   0.03   0.11    -0.20  -0.14   0.12
    29   1     0.19  -0.09   0.15    -0.14  -0.11   0.00    -0.09   0.16  -0.11
    30   1    -0.17   0.10   0.06     0.17  -0.16   0.05    -0.07   0.09  -0.09
    31   1     0.03  -0.12  -0.08    -0.01  -0.06  -0.17    -0.10  -0.03   0.09
    32   1     0.03  -0.06   0.23     0.07   0.02  -0.09    -0.06  -0.01  -0.01
    33   6    -0.08  -0.09  -0.08     0.14   0.10   0.08     0.02   0.02   0.15
    34   6     0.19   0.00  -0.05    -0.08   0.03  -0.00     0.07  -0.18   0.02
    35   1    -0.08   0.09  -0.04     0.04   0.23   0.15    -0.06  -0.19   0.04
    36   1    -0.02   0.30  -0.09     0.12  -0.21   0.10    -0.05  -0.09   0.01
    37   1    -0.01   0.07   0.00    -0.07   0.05  -0.02    -0.17  -0.18   0.11
    38   1    -0.10  -0.07   0.00     0.15   0.17   0.16     0.03  -0.04   0.00
    39   1    -0.08  -0.06  -0.17    -0.00   0.09   0.08     0.14   0.04   0.10
    40   1     0.18  -0.04  -0.02    -0.09  -0.07  -0.05     0.11   0.01   0.00
    41   7    -0.06   0.09   0.03    -0.08  -0.00  -0.08     0.24   0.20  -0.17
    42   6     0.00  -0.02   0.01    -0.02  -0.01  -0.04     0.01  -0.02  -0.02
    43   1    -0.02   0.20   0.22    -0.01  -0.20  -0.17     0.01   0.18   0.11
    44   1    -0.22  -0.05  -0.08     0.17   0.00   0.07    -0.19  -0.03  -0.19
    45   6    -0.02  -0.01   0.04     0.01  -0.00  -0.01     0.00   0.00  -0.02
    46   1     0.03   0.04   0.02     0.03   0.04  -0.03     0.02  -0.00  -0.02
    47   1    -0.03   0.04   0.08    -0.00  -0.05   0.02     0.01   0.06  -0.02
    48   1    -0.08  -0.03   0.09     0.05   0.01   0.01    -0.05  -0.01  -0.01
    49   8     0.04  -0.02  -0.01     0.02   0.06   0.05     0.02  -0.02  -0.04
    50   1     0.10   0.05   0.02    -0.02   0.05   0.03     0.10   0.14  -0.02
    51   6    -0.01   0.02   0.01    -0.01   0.02   0.01    -0.01   0.01   0.01
    52   9     0.01  -0.00   0.01     0.01  -0.00   0.01     0.00  -0.00   0.00
    53   9    -0.01  -0.00  -0.01    -0.01  -0.00  -0.01    -0.00   0.00  -0.00
    54   1    -0.03   0.02   0.03    -0.05   0.02   0.05    -0.04   0.01   0.03
    55   1     0.09  -0.02  -0.09     0.06   0.01  -0.11     0.01  -0.02   0.01
                     43                     44                     45
                      A                      A                      A
 Frequencies --    632.1153               654.6448               694.0916
 Red. masses --      3.3181                 5.6418                 3.0094
 Frc consts  --      0.7811                 1.4246                 0.8542
 IR Inten    --      0.0000                 0.0000                 0.0000
  Atom  AN      X      Y      Z        X      Y      Z        X      Y      Z
     1   6    -0.08   0.00   0.08    -0.09  -0.03   0.05    -0.11   0.02   0.15
     2   6     0.00  -0.00  -0.02    -0.16   0.07  -0.17     0.08  -0.02  -0.02
     3   6     0.05   0.01  -0.04     0.02   0.20  -0.05     0.04  -0.04  -0.02
     4   6     0.01  -0.00   0.04     0.02   0.10   0.02     0.07  -0.03  -0.09
     5   6    -0.01  -0.01   0.05     0.20   0.02   0.21    -0.11  -0.02   0.06
     6   6     0.01  -0.03  -0.03     0.06  -0.14   0.03     0.03  -0.01  -0.06
     7   1     0.09  -0.04  -0.12    -0.12   0.03  -0.22     0.18  -0.04  -0.15
     8   6    -0.03   0.03  -0.01     0.14   0.10   0.13    -0.15   0.00   0.16
     9   1     0.08   0.02  -0.06     0.27   0.05   0.11    -0.04  -0.04  -0.04
    10   1     0.16  -0.04  -0.23     0.09  -0.09  -0.23     0.31  -0.05  -0.35
    11   6    -0.05   0.03   0.00    -0.02  -0.10   0.04    -0.03   0.05   0.00
    12   6    -0.00   0.06  -0.05     0.07  -0.02   0.00     0.00   0.02  -0.05
    13   1    -0.11  -0.01  -0.01     0.05  -0.02   0.11    -0.08   0.04   0.02
    14   1    -0.03   0.06  -0.01    -0.08   0.06  -0.15     0.15  -0.01  -0.18
    15   7     0.05  -0.00  -0.01    -0.10  -0.04  -0.13     0.06   0.01  -0.05
    16   8     0.01   0.01  -0.02    -0.00  -0.02  -0.02     0.02   0.01  -0.03
    17   6    -0.10  -0.09   0.16     0.13  -0.08   0.10     0.03   0.02  -0.05
    18   1    -0.21  -0.07   0.16     0.24  -0.09   0.11     0.21   0.01  -0.04
    19   6     0.00  -0.00  -0.00    -0.04  -0.01  -0.03     0.00   0.00  -0.00
    20   1    -0.01  -0.00  -0.00    -0.03  -0.00  -0.02    -0.01  -0.00  -0.00
    21   1    -0.01  -0.00  -0.01    -0.06  -0.00  -0.04    -0.02  -0.00  -0.00
    22   1     0.01  -0.01   0.02    -0.04  -0.00  -0.02     0.02  -0.00   0.03
    23   6     0.01   0.09   0.16    -0.00  -0.06  -0.06     0.04  -0.06  -0.10
    24   6     0.10   0.11  -0.03    -0.01  -0.08   0.02     0.02  -0.01  -0.03
    25   1     0.02   0.21   0.06    -0.05  -0.09  -0.02     0.07  -0.11  -0.07
    26   6    -0.02  -0.03  -0.08    -0.02   0.00  -0.01     0.01   0.01   0.06
    27   6    -0.00  -0.05   0.01    -0.05   0.10   0.03     0.00  -0.01   0.01
    28   6     0.08   0.06  -0.03     0.02  -0.01  -0.01     0.00   0.02  -0.02
    29   1     0.12   0.28  -0.36    -0.03  -0.16   0.18    -0.02  -0.11   0.16
    30   1     0.10  -0.27  -0.07    -0.02   0.11   0.04    -0.00   0.18  -0.00
    31   1    -0.03   0.09   0.04     0.02  -0.12  -0.15     0.05   0.03   0.05
    32   1    -0.05   0.03  -0.19     0.06  -0.05   0.16     0.01  -0.00   0.08
    33   6    -0.00   0.00  -0.06     0.00  -0.01   0.00    -0.02  -0.01  -0.01
    34   6    -0.05   0.02   0.02     0.01   0.01  -0.01    -0.01   0.03  -0.00
    35   1     0.06   0.06   0.05    -0.07   0.11   0.05     0.01  -0.11  -0.09
    36   1     0.09  -0.15   0.04    -0.05   0.08   0.04    -0.06   0.08  -0.04
    37   1     0.17  -0.03  -0.04    -0.03   0.04  -0.00     0.03   0.02   0.01
    38   1    -0.01   0.03   0.00    -0.01  -0.03   0.03    -0.02  -0.04  -0.05
    39   1    -0.08  -0.02  -0.01     0.01  -0.00  -0.01     0.03  -0.01  -0.00
    40   1    -0.06  -0.01   0.02    -0.01  -0.05   0.01    -0.01   0.03  -0.01
    41   7    -0.04  -0.10   0.02    -0.04   0.07  -0.02     0.00  -0.04   0.06
    42   6     0.00   0.02   0.02    -0.00  -0.01  -0.01    -0.00   0.00   0.00
    43   1     0.01  -0.05  -0.03     0.00   0.00  -0.01    -0.00  -0.03  -0.02
    44   1     0.07   0.03   0.05    -0.00  -0.01   0.00     0.03   0.01   0.03
    45   6     0.00   0.01  -0.00     0.00   0.00  -0.00    -0.00   0.00   0.00
    46   1    -0.03  -0.04   0.01     0.01   0.02  -0.01     0.00  -0.00   0.00
    47   1     0.01  -0.02  -0.03    -0.00   0.01   0.00    -0.00  -0.01   0.00
    48   1     0.04   0.02  -0.05    -0.01  -0.00   0.01     0.01   0.00  -0.00
    49   8     0.01  -0.11  -0.08    -0.07  -0.06  -0.06    -0.01   0.04   0.03
    50   1     0.18   0.17  -0.04    -0.07  -0.04  -0.07    -0.08  -0.07   0.01
    51   6    -0.01   0.01   0.01    -0.02   0.02   0.02    -0.00   0.01   0.01
    52   9     0.00   0.00   0.00     0.00  -0.00   0.00    -0.00  -0.00  -0.00
    53   9    -0.00   0.00  -0.00    -0.00   0.00  -0.01    -0.00   0.00  -0.00
    54   1    -0.03   0.00   0.03    -0.06   0.01   0.06    -0.02   0.00   0.02
    55   1     0.02  -0.04   0.05    -0.13  -0.05  -0.09    -0.30   0.01   0.43
                     46                     47                     48
                      A                      A                      A
 Frequencies --    725.1014               731.1903               749.0130
 Red. masses --      2.1543                 2.1951                 1.9948
 Frc consts  --      0.6673                 0.6915                 0.6594
 IR Inten    --      0.0000                 0.0000                 0.0000
  Atom  AN      X      Y      Z        X      Y      Z        X      Y      Z
     1   6     0.02   0.00  -0.08     0.05  -0.00  -0.02    -0.00  -0.00   0.00
     2   6    -0.01  -0.04   0.01    -0.01   0.04  -0.00    -0.01   0.00  -0.01
     3   6    -0.01  -0.04   0.06    -0.06   0.05   0.03    -0.01   0.01  -0.00
     4   6     0.01   0.03   0.05    -0.03  -0.03   0.00    -0.00   0.00  -0.00
     5   6     0.10  -0.03   0.06    -0.09   0.03  -0.06     0.01   0.01   0.01
     6   6    -0.01  -0.11   0.03    -0.02   0.10  -0.00     0.00   0.01   0.00
     7   1    -0.02  -0.09   0.02     0.01   0.09  -0.03    -0.01   0.01  -0.01
     8   6     0.01  -0.06  -0.05     0.05   0.06  -0.03     0.00  -0.00   0.00
     9   1     0.16  -0.03  -0.02    -0.01   0.02  -0.16     0.01   0.01   0.00
    10   1    -0.04  -0.10   0.06    -0.01   0.10  -0.01    -0.00   0.01  -0.01
    11   6    -0.01   0.08  -0.05     0.05  -0.11   0.04     0.01  -0.02   0.01
    12   6    -0.04  -0.07   0.02     0.01   0.07   0.03     0.01  -0.00   0.00
    13   1    -0.08   0.16   0.11    -0.18  -0.11   0.24     0.00  -0.01   0.02
    14   1    -0.02  -0.10   0.19    -0.16   0.12   0.07     0.00  -0.00   0.00
    15   7     0.04   0.06  -0.09     0.07  -0.07  -0.08     0.00  -0.01  -0.00
    16   8    -0.01   0.11   0.00    -0.00  -0.10   0.02     0.00  -0.00  -0.00
    17   6    -0.02   0.02  -0.02     0.02  -0.02   0.02    -0.01   0.00  -0.01
    18   1    -0.05   0.01  -0.03    -0.02  -0.02   0.02    -0.01   0.01  -0.01
    19   6    -0.04   0.01  -0.03     0.04  -0.01   0.03     0.00  -0.00   0.00
    20   1    -0.13  -0.03  -0.11     0.13   0.03   0.09     0.00   0.00   0.00
    21   1     0.02  -0.04   0.02    -0.00   0.03  -0.01    -0.00   0.00  -0.00
    22   1     0.01  -0.04   0.01    -0.02   0.04  -0.01    -0.00   0.00  -0.00
    23   6    -0.01   0.01   0.02     0.00   0.00   0.01    -0.01  -0.02  -0.01
    24   6    -0.01   0.00   0.01    -0.00  -0.01   0.01    -0.04   0.05  -0.02
    25   1    -0.00   0.02   0.01    -0.01   0.01   0.01    -0.01  -0.00  -0.02
    26   6     0.00  -0.00  -0.01    -0.00  -0.00  -0.01    -0.01  -0.00  -0.01
    27   6     0.01  -0.01  -0.01    -0.01   0.01   0.00    -0.02  -0.07   0.06
    28   6    -0.00  -0.00   0.01     0.00  -0.01   0.00     0.04   0.15  -0.01
    29   1     0.00   0.03  -0.04     0.00   0.00  -0.01    -0.15   0.05  -0.06
    30   1     0.00  -0.04   0.00    -0.00  -0.02   0.01    -0.06  -0.00  -0.02
    31   1    -0.01   0.01   0.01    -0.01  -0.02  -0.02     0.04  -0.01  -0.05
    32   1    -0.00   0.01  -0.03    -0.00  -0.01  -0.00     0.00  -0.04   0.04
    33   6     0.01   0.00   0.00     0.00  -0.00  -0.00     0.03   0.06   0.04
    34   6     0.01  -0.00  -0.00    -0.00  -0.00   0.00     0.10  -0.04   0.01
    35   1     0.01   0.01   0.00    -0.01   0.03   0.02    -0.11  -0.15   0.06
    36   1     0.02  -0.02  -0.00     0.00  -0.01   0.01    -0.03   0.00  -0.01
    37   1    -0.01  -0.00  -0.00    -0.01  -0.00  -0.00     0.02   0.18   0.00
    38   1     0.01   0.02   0.00    -0.00  -0.00   0.01    -0.01  -0.09  -0.02
    39   1    -0.01   0.00  -0.00    -0.01  -0.00  -0.00     0.15   0.01   0.23
    40   1     0.01   0.00  -0.00    -0.01  -0.01   0.00     0.09  -0.04   0.06
    41   7    -0.00  -0.00  -0.00     0.00   0.01  -0.01    -0.07  -0.06   0.04
    42   6     0.00  -0.00  -0.00     0.00   0.00   0.00     0.02  -0.11  -0.09
    43   1     0.00   0.01   0.01     0.00  -0.00  -0.00     0.04   0.38   0.07
    44   1    -0.01  -0.00  -0.01     0.00   0.00   0.00    -0.46  -0.18  -0.22
    45   6    -0.00  -0.00   0.00     0.00   0.00   0.00     0.02  -0.01  -0.04
    46   1     0.00   0.00  -0.00    -0.00  -0.01   0.00     0.08   0.26  -0.11
    47   1    -0.00   0.00   0.00     0.00  -0.00  -0.00     0.04   0.23  -0.03
    48   1    -0.01  -0.00   0.00     0.00   0.00  -0.00    -0.25  -0.10   0.22
    49   8     0.02   0.01   0.01    -0.01  -0.02  -0.02     0.00   0.01   0.00
    50   1     0.01   0.00   0.01    -0.01   0.01  -0.02    -0.01  -0.00  -0.00
    51   6     0.01  -0.00   0.00     0.01   0.01   0.00    -0.00   0.00   0.00
    52   9    -0.00  -0.00   0.00     0.00  -0.00   0.01     0.00  -0.00   0.00
    53   9    -0.00   0.00  -0.00    -0.00   0.00  -0.02    -0.00   0.00  -0.00
    54   1     0.01   0.00  -0.01     0.00   0.02  -0.02     0.00   0.00  -0.00
    55   1    -0.52   0.03   0.66    -0.49  -0.02   0.66    -0.00   0.00   0.00
                     49                     50                     51
                      A                      A                      A
 Frequencies --    777.1265               795.1013               802.9820
 Red. masses --      3.6247                 3.1451                 1.5249
 Frc consts  --      1.2897                 1.1715                 0.5793
 IR Inten    --      0.0000                 0.0000                 0.0000
  Atom  AN      X      Y      Z        X      Y      Z        X      Y      Z
     1   6     0.07   0.01  -0.08    -0.04   0.01   0.05    -0.02   0.00   0.02
     2   6     0.06  -0.02   0.11     0.10  -0.03   0.05     0.01  -0.01  -0.00
     3   6     0.17  -0.02  -0.11    -0.03   0.01   0.15    -0.05  -0.00   0.08
     4   6    -0.13  -0.02   0.15     0.06  -0.02  -0.10     0.04  -0.00  -0.05
     5   6    -0.06  -0.07  -0.10    -0.08  -0.06  -0.04    -0.00  -0.00   0.00
     6   6    -0.08  -0.03   0.04    -0.00  -0.05  -0.07     0.02  -0.01  -0.03
     7   1    -0.14  -0.06   0.39     0.28  -0.10  -0.16     0.13  -0.02  -0.16
     8   6     0.02   0.04   0.06     0.09   0.04  -0.02     0.04  -0.00  -0.06
     9   1     0.12  -0.09  -0.33    -0.25  -0.06   0.17    -0.11   0.00   0.14
    10   1    -0.00  -0.07   0.10     0.01  -0.09   0.06    -0.02  -0.01   0.03
    11   6    -0.10   0.10  -0.05    -0.04   0.08  -0.08     0.01   0.01  -0.02
    12   6    -0.01   0.05  -0.06    -0.05   0.04   0.01    -0.01   0.00   0.01
    13   1    -0.05   0.06  -0.14    -0.02   0.09  -0.09    -0.05   0.02   0.04
    14   1    -0.08   0.06  -0.01    -0.09   0.06  -0.00    -0.07   0.01   0.10
    15   7     0.01   0.03  -0.06    -0.07   0.04  -0.00    -0.02   0.01   0.02
    16   8    -0.00  -0.00   0.01     0.00   0.00  -0.00     0.00   0.01  -0.00
    17   6     0.09  -0.05   0.15     0.15  -0.03   0.04    -0.01  -0.01   0.04
    18   1     0.18  -0.01   0.19     0.14  -0.04   0.04    -0.09   0.00   0.04
    19   6     0.01   0.00   0.01     0.01   0.01   0.00    -0.00   0.00  -0.00
    20   1     0.01   0.01   0.02     0.01   0.00  -0.01    -0.00  -0.00  -0.01
    21   1     0.01   0.01   0.01    -0.00  -0.00   0.01    -0.00  -0.00   0.00
    22   1     0.00   0.00  -0.01     0.01   0.01   0.01     0.00   0.00   0.00
    23   6     0.05  -0.08  -0.04     0.07   0.01   0.08     0.00  -0.02   0.01
    24   6     0.02  -0.02  -0.03    -0.02  -0.07   0.07     0.01  -0.01  -0.01
    25   1    -0.03  -0.11   0.01     0.03   0.04   0.07    -0.03  -0.01   0.02
    26   6    -0.04   0.01  -0.01    -0.01  -0.03  -0.08    -0.05   0.03  -0.01
    27   6    -0.04   0.00   0.04    -0.05   0.07   0.01     0.01  -0.05   0.03
    28   6     0.04   0.05  -0.03    -0.03  -0.00   0.02     0.04   0.04  -0.02
    29   1    -0.04  -0.13   0.18    -0.07  -0.00  -0.08     0.01  -0.04   0.07
    30   1    -0.05   0.19   0.00    -0.03  -0.24   0.06    -0.06   0.06   0.01
    31   1     0.08  -0.08  -0.16    -0.10  -0.04  -0.05     0.19  -0.07  -0.25
    32   1    -0.03  -0.13   0.17    -0.02   0.01  -0.13    -0.05  -0.20   0.27
    33   6    -0.03   0.02   0.01    -0.00  -0.02  -0.00    -0.04   0.06   0.00
    34   6    -0.02  -0.00   0.01    -0.04  -0.00  -0.00     0.04  -0.03   0.02
    35   1    -0.06  -0.04   0.02    -0.01   0.21   0.09    -0.08  -0.15   0.02
    36   1    -0.09   0.05   0.04    -0.01  -0.05   0.10    -0.05   0.04  -0.03
    37   1     0.08   0.03  -0.01    -0.09   0.04  -0.01     0.05   0.01  -0.04
    38   1    -0.11  -0.20  -0.02     0.02   0.06   0.04    -0.17  -0.33  -0.06
    39   1     0.17  -0.01   0.11    -0.12  -0.03   0.00     0.34   0.03   0.14
    40   1    -0.03  -0.06   0.01    -0.07  -0.03   0.10     0.05  -0.05  -0.06
    41   7     0.03   0.04  -0.02     0.03   0.06  -0.06     0.01   0.02  -0.02
    42   6    -0.01  -0.00  -0.01     0.04  -0.03   0.01    -0.04   0.02  -0.02
    43   1    -0.01  -0.04  -0.04     0.08   0.28  -0.01    -0.08  -0.27  -0.00
    44   1     0.04   0.01  -0.00    -0.27  -0.09  -0.01     0.24   0.08  -0.03
    45   6     0.00   0.01  -0.01     0.02  -0.01   0.00    -0.01   0.02  -0.02
    46   1     0.01   0.00  -0.01    -0.10   0.06  -0.00     0.11  -0.04  -0.01
    47   1     0.00  -0.01  -0.00     0.07   0.21  -0.13    -0.06  -0.20   0.13
    48   1     0.02   0.01  -0.02    -0.21  -0.08   0.10     0.21   0.09  -0.11
    49   8    -0.03  -0.01  -0.02    -0.03  -0.03  -0.03     0.00   0.00  -0.00
    50   1    -0.01   0.08  -0.03    -0.02  -0.08  -0.02     0.01   0.06  -0.00
    51   6    -0.01   0.00   0.01     0.01  -0.00  -0.00     0.00  -0.00  -0.00
    52   9    -0.00   0.00  -0.00    -0.00   0.00  -0.00     0.00  -0.00   0.00
    53   9     0.00  -0.00   0.01     0.00  -0.00   0.01    -0.00   0.00  -0.00
    54   1    -0.06  -0.01   0.06    -0.01  -0.01   0.02     0.02   0.00  -0.02
    55   1    -0.02  -0.02  -0.00    -0.05   0.02  -0.02     0.01   0.01  -0.02
                     52                     53                     54
                      A                      A                      A
 Frequencies --    830.4270               832.0074               845.2043
 Red. masses --      1.6859                 2.0567                 2.8397
 Frc consts  --      0.6850                 0.8388                 1.1952
 IR Inten    --      0.0000                 0.0000                 0.0000
  Atom  AN      X      Y      Z        X      Y      Z        X      Y      Z
     1   6    -0.00   0.00   0.00     0.01  -0.00  -0.02     0.02  -0.01  -0.02
     2   6     0.04  -0.01   0.03     0.00   0.01   0.00    -0.04   0.01  -0.06
     3   6     0.02   0.01   0.03     0.04   0.01  -0.04    -0.04  -0.02  -0.03
     4   6    -0.00   0.00  -0.01    -0.01   0.00   0.01     0.03  -0.01  -0.03
     5   6    -0.02  -0.02  -0.02    -0.02  -0.00   0.01    -0.01   0.03   0.06
     6   6    -0.01  -0.02  -0.02    -0.02  -0.00   0.02     0.00   0.04   0.05
     7   1     0.07  -0.04  -0.01    -0.10   0.01   0.14    -0.18   0.07   0.11
     8   6     0.04   0.02   0.01    -0.03   0.01   0.06    -0.07  -0.04  -0.00
     9   1    -0.06  -0.01   0.02     0.11  -0.01  -0.15     0.23  -0.01  -0.23
    10   1    -0.01  -0.03   0.03     0.07  -0.01  -0.08     0.15   0.04  -0.20
    11   6    -0.01   0.01  -0.01    -0.01   0.00   0.01    -0.00   0.00   0.01
    12   6     0.00   0.01   0.00    -0.01  -0.00   0.02    -0.03  -0.02   0.01
    13   1     0.02   0.04  -0.00     0.13  -0.01  -0.11     0.03  -0.06  -0.09
    14   1    -0.05   0.03   0.00     0.15  -0.01  -0.23     0.14  -0.05  -0.13
    15   7    -0.03   0.01  -0.02     0.00  -0.01  -0.02     0.05  -0.01   0.05
    16   8    -0.00  -0.00  -0.00    -0.00  -0.01  -0.00    -0.00   0.00   0.00
    17   6     0.04  -0.01   0.01     0.06   0.02  -0.09    -0.01   0.01  -0.05
    18   1     0.08  -0.02   0.01     0.13  -0.02  -0.11    -0.08   0.05  -0.03
    19   6     0.00   0.00   0.00     0.00  -0.00   0.00    -0.01  -0.00  -0.00
    20   1     0.01   0.00   0.00     0.01   0.00   0.01    -0.01  -0.00  -0.00
    21   1     0.00   0.00   0.00     0.00   0.00  -0.00    -0.00  -0.00  -0.00
    22   1     0.00   0.00   0.00    -0.00   0.00  -0.00    -0.01  -0.01  -0.01
    23   6    -0.03   0.03  -0.02     0.02   0.10   0.06     0.09  -0.05   0.09
    24   6    -0.07   0.04  -0.03     0.01  -0.05   0.13    -0.04  -0.03   0.03
    25   1    -0.04   0.02  -0.01     0.08   0.19  -0.03     0.13  -0.12   0.14
    26   6     0.03  -0.05   0.01    -0.02   0.04  -0.06    -0.03  -0.09  -0.12
    27   6    -0.01  -0.01   0.06     0.03  -0.02   0.00    -0.08   0.01   0.10
    28   6    -0.00   0.01  -0.01    -0.09  -0.04   0.07     0.07   0.10  -0.05
    29   1    -0.07   0.03  -0.00     0.03   0.14  -0.24    -0.12  -0.05   0.02
    30   1    -0.07   0.06  -0.03     0.14  -0.43   0.07    -0.22  -0.10   0.05
    31   1    -0.20   0.02   0.21     0.16   0.00  -0.20    -0.18  -0.06   0.00
    32   1     0.08   0.20  -0.22     0.02  -0.07   0.13    -0.08  -0.02  -0.29
    33   6     0.06  -0.04   0.01    -0.04   0.03  -0.05    -0.04  -0.06   0.01
    34   6     0.11  -0.01   0.02     0.07  -0.01   0.02     0.01  -0.03   0.03
    35   1    -0.15  -0.15   0.06    -0.07  -0.08   0.03    -0.16  -0.03   0.14
    36   1    -0.02   0.12  -0.07     0.03   0.05  -0.07    -0.17   0.06   0.13
    37   1    -0.05   0.08   0.01    -0.21   0.04   0.02     0.06   0.13  -0.02
    38   1     0.17   0.30   0.06    -0.09  -0.16  -0.12    -0.03   0.04   0.08
    39   1    -0.30  -0.05  -0.02     0.17   0.03  -0.05    -0.24  -0.13   0.18
    40   1     0.13   0.03  -0.03     0.10   0.11  -0.01    -0.02  -0.12   0.03
    41   7    -0.06  -0.02   0.03    -0.05  -0.00  -0.00     0.13   0.12  -0.05
    42   6    -0.05   0.00  -0.04    -0.03  -0.01  -0.03    -0.02  -0.00  -0.01
    43   1    -0.12  -0.27   0.10    -0.06  -0.09   0.06    -0.04  -0.10   0.01
    44   1     0.21   0.06  -0.08     0.03   0.00  -0.05     0.08   0.03  -0.06
    45   6    -0.02   0.03  -0.03    -0.01   0.01  -0.03     0.00   0.02  -0.02
    46   1     0.21   0.02  -0.06     0.13   0.06  -0.05     0.06  -0.01  -0.02
    47   1    -0.10  -0.24   0.22    -0.05  -0.09   0.12    -0.02  -0.08   0.04
    48   1     0.25   0.10  -0.08     0.09   0.03   0.01     0.11   0.05  -0.07
    49   8    -0.01  -0.02  -0.01    -0.00  -0.03  -0.01     0.01   0.03   0.02
    50   1    -0.00  -0.03  -0.01    -0.02  -0.16   0.00    -0.01  -0.04   0.02
    51   6     0.00   0.00  -0.00    -0.00   0.00   0.00    -0.00  -0.00   0.00
    52   9    -0.00  -0.00  -0.00    -0.00   0.00  -0.00     0.00   0.00  -0.00
    53   9    -0.00  -0.00   0.00     0.00  -0.00   0.01     0.00  -0.00   0.00
    54   1    -0.02  -0.00   0.02    -0.03  -0.00   0.03     0.02   0.00  -0.01
    55   1    -0.03   0.01  -0.03    -0.03  -0.01   0.03     0.06  -0.03   0.05
                     55                     56                     57
                      A                      A                      A
 Frequencies --    852.4101               875.8855               891.8142
 Red. masses --      1.8474                 2.0362                 3.9619
 Frc consts  --      0.7909                 0.9204                 1.8565
 IR Inten    --      0.0000                 0.0000                 0.0000
  Atom  AN      X      Y      Z        X      Y      Z        X      Y      Z
     1   6    -0.06   0.00   0.09     0.01  -0.00  -0.01     0.02   0.01   0.01
     2   6    -0.02   0.01  -0.03    -0.03  -0.00  -0.02    -0.14   0.06  -0.11
     3   6     0.02  -0.01  -0.06    -0.03  -0.01   0.00    -0.09   0.00  -0.04
     4   6    -0.07   0.00   0.10     0.01  -0.01  -0.00     0.04  -0.03  -0.00
     5   6     0.09   0.00  -0.10     0.00   0.01   0.01    -0.02  -0.01  -0.00
     6   6     0.07   0.01  -0.07     0.01   0.02   0.01     0.05   0.07   0.04
     7   1    -0.03   0.04  -0.03     0.01   0.02  -0.09    -0.14   0.20  -0.15
     8   6    -0.04  -0.01   0.03    -0.01  -0.02  -0.02     0.01  -0.07  -0.03
     9   1    -0.43   0.04   0.59     0.02  -0.01  -0.01     0.01  -0.06  -0.03
    10   1    -0.33   0.05   0.44     0.02   0.02  -0.01     0.11   0.05   0.02
    11   6    -0.01   0.00   0.01    -0.01   0.01  -0.03    -0.11   0.12  -0.09
    12   6    -0.01  -0.01  -0.00     0.02  -0.00  -0.06    -0.07  -0.07  -0.07
    13   1     0.04  -0.03  -0.07    -0.32  -0.00   0.19    -0.24  -0.08  -0.27
    14   1     0.07  -0.02  -0.08    -0.24   0.01   0.36    -0.11  -0.11   0.23
    15   7     0.06  -0.01  -0.02     0.03   0.01   0.05     0.18   0.00   0.16
    16   8     0.01  -0.00  -0.02     0.00   0.01   0.00    -0.01  -0.03  -0.00
    17   6     0.00   0.00  -0.02    -0.01  -0.03   0.07     0.17  -0.03   0.09
    18   1     0.02   0.01  -0.01     0.06  -0.00   0.09     0.35  -0.01   0.12
    19   6     0.00  -0.00  -0.00    -0.01  -0.00  -0.00     0.00  -0.01   0.00
    20   1    -0.00   0.00   0.01    -0.01  -0.00  -0.01     0.04   0.01   0.03
    21   1    -0.01   0.00  -0.01    -0.00  -0.00   0.00    -0.02   0.01  -0.02
    22   1     0.00  -0.00  -0.00    -0.00  -0.00  -0.00    -0.02   0.01  -0.01
    23   6     0.03  -0.00   0.02     0.01  -0.03  -0.07     0.03   0.06  -0.01
    24   6    -0.00  -0.01   0.02     0.08  -0.01   0.02    -0.05  -0.03  -0.00
    25   1     0.05  -0.01   0.01     0.02  -0.04  -0.07    -0.06   0.12  -0.02
    26   6    -0.00  -0.01  -0.03     0.05   0.03  -0.07    -0.03  -0.01   0.08
    27   6    -0.01   0.00   0.03     0.01  -0.01   0.08    -0.01   0.03  -0.04
    28   6     0.00   0.02   0.00    -0.07  -0.02   0.10    -0.03  -0.03  -0.04
    29   1    -0.02   0.00  -0.02     0.02  -0.02   0.02     0.00  -0.02   0.01
    30   1    -0.01  -0.07   0.02     0.31   0.03  -0.01    -0.12  -0.02   0.01
    31   1    -0.02  -0.01  -0.02     0.08   0.06  -0.06    -0.08  -0.05   0.07
    32   1    -0.01  -0.00  -0.05     0.12   0.09  -0.06    -0.02   0.00   0.09
    33   6    -0.02  -0.02  -0.01    -0.08  -0.08  -0.07     0.09   0.07   0.04
    34   6     0.01  -0.00   0.01    -0.00   0.06   0.04     0.03  -0.02  -0.01
    35   1    -0.04  -0.03   0.03    -0.10  -0.22  -0.01     0.03   0.12   0.01
    36   1    -0.04   0.03   0.02    -0.09   0.21  -0.06     0.10  -0.07  -0.03
    37   1    -0.01   0.04   0.01    -0.04   0.05   0.23    -0.12  -0.03  -0.17
    38   1    -0.02  -0.00  -0.00    -0.03   0.03  -0.11     0.09   0.06   0.01
    39   1    -0.05  -0.03   0.02    -0.17  -0.07  -0.13     0.12   0.09  -0.00
    40   1     0.01   0.00   0.01     0.03   0.20   0.02     0.02  -0.03   0.02
    41   7     0.03   0.03  -0.01     0.02   0.02   0.02    -0.09  -0.05  -0.01
    42   6    -0.01  -0.00  -0.01    -0.03  -0.03  -0.03     0.01   0.01   0.00
    43   1    -0.01  -0.02   0.00    -0.02   0.02  -0.04    -0.01  -0.02   0.06
    44   1     0.00  -0.00  -0.01    -0.09  -0.06   0.07     0.03   0.02  -0.05
    45   6     0.00   0.00  -0.01     0.02   0.00  -0.05    -0.01   0.00   0.01
    46   1     0.03   0.02  -0.01     0.13   0.18  -0.11     0.00  -0.04   0.02
    47   1    -0.01  -0.01   0.02     0.00   0.07   0.04    -0.02  -0.06   0.03
    48   1     0.02   0.01  -0.00    -0.06  -0.03   0.12     0.05   0.02  -0.03
    49   8     0.00   0.01   0.01    -0.00   0.02   0.01    -0.01   0.00  -0.01
    50   1    -0.01  -0.02   0.01    -0.00   0.11  -0.01    -0.02  -0.04  -0.01
    51   6    -0.00   0.00   0.00     0.00  -0.01  -0.00     0.00  -0.00  -0.00
    52   9    -0.00   0.00  -0.00     0.00  -0.00   0.00    -0.00   0.00  -0.00
    53   9     0.00  -0.00   0.00    -0.00   0.00  -0.01    -0.00  -0.00   0.01
    54   1    -0.02  -0.00   0.02     0.06   0.01  -0.07     0.02  -0.00  -0.00
    55   1    -0.08  -0.03   0.17     0.11  -0.01  -0.06     0.19  -0.17   0.20
                     58                     59                     60
                      A                      A                      A
 Frequencies --    902.6357               922.1577               940.5917
 Red. masses --      1.4811                 1.5665                 2.3481
 Frc consts  --      0.7110                 0.7849                 1.2240
 IR Inten    --      0.0000                 0.0000                 0.0000
  Atom  AN      X      Y      Z        X      Y      Z        X      Y      Z
     1   6    -0.01  -0.01   0.01    -0.05   0.00   0.07    -0.01  -0.02   0.01
     2   6     0.02  -0.04   0.00     0.10  -0.01  -0.13     0.01  -0.06  -0.02
     3   6     0.01  -0.03  -0.01    -0.04   0.00   0.06    -0.01  -0.04   0.01
     4   6    -0.02   0.00   0.02     0.01  -0.00  -0.01    -0.01  -0.01  -0.01
     5   6     0.01   0.01   0.00    -0.02  -0.01   0.00     0.01   0.01   0.01
     6   6     0.01   0.00   0.00     0.01   0.00  -0.01     0.02   0.03   0.01
     7   1    -0.05  -0.06   0.11    -0.56   0.03   0.77    -0.10  -0.08   0.14
     8   6    -0.06   0.00   0.06     0.04   0.00  -0.03    -0.00   0.00  -0.03
     9   1    -0.00  -0.01   0.03     0.00  -0.02  -0.02     0.02  -0.04   0.01
    10   1    -0.03   0.01   0.02    -0.00  -0.00   0.04    -0.01   0.05  -0.00
    11   6     0.04  -0.04  -0.01    -0.00   0.01  -0.01     0.01  -0.02   0.01
    12   6     0.05   0.03  -0.07    -0.01  -0.00   0.01    -0.01   0.06   0.04
    13   1    -0.50   0.04   0.51    -0.02   0.01   0.01    -0.02  -0.04   0.02
    14   1    -0.27   0.06   0.36    -0.01   0.00  -0.00     0.11   0.06  -0.20
    15   7    -0.03   0.02  -0.00    -0.00   0.00   0.00    -0.02  -0.01  -0.02
    16   8     0.01   0.03   0.00     0.01   0.00  -0.02     0.01   0.04   0.00
    17   6     0.02   0.01  -0.05     0.01  -0.00   0.01    -0.02  -0.00   0.03
    18   1     0.12  -0.01  -0.04    -0.02   0.03   0.03    -0.05  -0.02   0.02
    19   6    -0.01   0.01  -0.01    -0.00   0.00  -0.00    -0.02   0.01  -0.02
    20   1    -0.05  -0.01  -0.03    -0.03   0.00   0.03    -0.08  -0.01  -0.05
    21   1     0.01  -0.01   0.01     0.01   0.00  -0.00     0.01  -0.02   0.01
    22   1     0.01  -0.01   0.01     0.00  -0.01  -0.01     0.01  -0.02   0.00
    23   6     0.03   0.03   0.02    -0.02  -0.01   0.01     0.03   0.04   0.00
    24   6    -0.03  -0.02   0.04    -0.00   0.03  -0.02     0.07  -0.07  -0.01
    25   1     0.07   0.04  -0.00    -0.05  -0.03   0.03    -0.01   0.07  -0.01
    26   6    -0.03  -0.02   0.02     0.02   0.02  -0.02    -0.09  -0.09   0.07
    27   6    -0.01   0.00  -0.02     0.00   0.01  -0.02     0.04   0.02   0.06
    28   6     0.01   0.01  -0.04     0.00  -0.02   0.03    -0.05  -0.04  -0.07
    29   1    -0.04   0.03  -0.07     0.00   0.02   0.01     0.23  -0.08   0.09
    30   1    -0.11  -0.15   0.04     0.02   0.07  -0.02     0.01   0.06   0.01
    31   1    -0.05  -0.03   0.02     0.05   0.03  -0.04    -0.21  -0.14   0.11
    32   1    -0.05  -0.03   0.01     0.03   0.01   0.01    -0.16  -0.09  -0.02
    33   6     0.02   0.03   0.01    -0.01  -0.01   0.01     0.10   0.08  -0.00
    34   6     0.01  -0.03  -0.02     0.01  -0.00  -0.00    -0.07   0.06   0.10
    35   1     0.01   0.07   0.02     0.03   0.04  -0.01    -0.09  -0.18  -0.01
    36   1     0.01  -0.06   0.03     0.01  -0.02   0.01     0.01   0.22  -0.13
    37   1    -0.05   0.02  -0.11     0.05  -0.03   0.08    -0.13  -0.16  -0.34
    38   1     0.01  -0.00   0.02    -0.02  -0.02   0.02     0.12   0.07  -0.10
    39   1     0.04   0.02   0.04    -0.00  -0.01  -0.01     0.13   0.09  -0.01
    40   1     0.00  -0.06  -0.00     0.01  -0.01   0.00    -0.03   0.23   0.09
    41   7    -0.00   0.00  -0.01    -0.01  -0.01   0.01     0.02  -0.00  -0.05
    42   6     0.01   0.01   0.01     0.00   0.00  -0.00    -0.05  -0.04   0.00
    43   1     0.01  -0.00   0.02    -0.00  -0.01   0.02    -0.05  -0.02  -0.02
    44   1     0.03   0.03  -0.05     0.01   0.00   0.00    -0.11  -0.08   0.17
    45   6    -0.01   0.00   0.02    -0.00  -0.00  -0.00     0.04   0.02  -0.08
    46   1    -0.04  -0.07   0.04     0.01   0.00  -0.00     0.17   0.27  -0.16
    47   1    -0.01  -0.04  -0.01    -0.01  -0.01   0.01     0.02   0.10   0.03
    48   1     0.03   0.02  -0.05     0.00  -0.00   0.01    -0.03  -0.01   0.11
    49   8     0.00  -0.00  -0.00    -0.00  -0.01  -0.00    -0.00  -0.01  -0.00
    50   1    -0.04  -0.09  -0.01     0.00  -0.00   0.00     0.03   0.08   0.00
    51   6    -0.00  -0.01   0.01     0.00  -0.00  -0.00    -0.00   0.00   0.00
    52   9     0.01  -0.00   0.00     0.00  -0.00  -0.00     0.00  -0.00  -0.00
    53   9    -0.00   0.01  -0.02     0.00  -0.00  -0.00     0.00   0.00  -0.00
    54   1     0.14   0.02  -0.15     0.01   0.00  -0.01     0.02   0.00  -0.02
    55   1     0.08   0.06  -0.17    -0.01   0.00   0.02    -0.02   0.02  -0.02
                     61                     62                     63
                      A                      A                      A
 Frequencies --    947.4780               954.3060               960.0793
 Red. masses --      2.5457                 1.7941                 2.7506
 Frc consts  --      1.3465                 0.9626                 1.4938
 IR Inten    --      0.0000                 0.0000                 0.0000
  Atom  AN      X      Y      Z        X      Y      Z        X      Y      Z
     1   6    -0.01   0.06   0.01     0.00   0.03  -0.00     0.00   0.02  -0.01
     2   6     0.05   0.14  -0.01     0.01   0.06   0.01    -0.00   0.03   0.02
     3   6     0.01   0.10   0.02     0.01   0.04  -0.00     0.01   0.02  -0.01
     4   6     0.03   0.02   0.01     0.01   0.01   0.01     0.00   0.00   0.01
     5   6    -0.02  -0.02  -0.01    -0.01  -0.01  -0.01    -0.00  -0.01  -0.01
     6   6    -0.07  -0.10  -0.05    -0.03  -0.05  -0.02    -0.02  -0.03  -0.01
     7   1    -0.07   0.20   0.16     0.03   0.09  -0.02     0.07   0.04  -0.08
     8   6     0.00  -0.00   0.03    -0.02  -0.00   0.03    -0.01  -0.00   0.03
     9   1    -0.03   0.16  -0.05    -0.02   0.08  -0.01    -0.02   0.04   0.00
    10   1    -0.03  -0.13   0.01    -0.01  -0.06  -0.00     0.01  -0.04  -0.00
    11   6    -0.00   0.03   0.01     0.01   0.00   0.00     0.00   0.00  -0.01
    12   6     0.04  -0.13  -0.06     0.00  -0.06  -0.02    -0.01  -0.03  -0.01
    13   1     0.21   0.09  -0.06    -0.02   0.06   0.10    -0.09   0.04   0.11
    14   1    -0.23  -0.13   0.44    -0.05  -0.07   0.11     0.01  -0.04  -0.02
    15   7     0.00   0.02   0.01     0.00   0.02   0.01     0.01   0.01   0.01
    16   8    -0.03  -0.08  -0.02    -0.01  -0.04  -0.01    -0.01  -0.02  -0.00
    17   6    -0.08   0.03  -0.04    -0.02   0.03  -0.04     0.02  -0.02  -0.04
    18   1    -0.09   0.02  -0.04    -0.04   0.01  -0.05    -0.04   0.04  -0.00
    19   6     0.06  -0.02   0.04     0.03  -0.01   0.02     0.01  -0.01   0.01
    20   1     0.17   0.03   0.14     0.08   0.02   0.06     0.05   0.01   0.03
    21   1    -0.01   0.05  -0.02    -0.01   0.02  -0.01    -0.01   0.01  -0.00
    22   1    -0.02   0.05  -0.02    -0.01   0.02  -0.00    -0.00   0.01  -0.00
    23   6     0.00   0.01  -0.02     0.01   0.03   0.05    -0.01  -0.09   0.03
    24   6     0.02  -0.03   0.05     0.04  -0.05  -0.06    -0.09   0.14  -0.02
    25   1     0.06   0.03  -0.06    -0.03  -0.01   0.09     0.06  -0.09   0.00
    26   6    -0.07  -0.04   0.05     0.07  -0.02  -0.02    -0.04   0.01  -0.11
    27   6     0.04  -0.05   0.06    -0.06   0.04  -0.07     0.09   0.19   0.01
    28   6     0.01   0.02  -0.06    -0.04  -0.01   0.02     0.03  -0.11   0.03
    29   1     0.00   0.03  -0.08     0.21  -0.13   0.18    -0.16   0.19  -0.16
    30   1     0.05  -0.15   0.03    -0.09   0.22  -0.01    -0.09  -0.08  -0.04
    31   1    -0.11  -0.11   0.01     0.01   0.12   0.15     0.10  -0.04  -0.24
    32   1    -0.07  -0.05   0.07    -0.04   0.02  -0.21    -0.04  -0.13   0.05
    33   6     0.05   0.01  -0.03    -0.05   0.04   0.03     0.05   0.00   0.03
    34   6    -0.03   0.03  -0.01     0.00   0.00   0.06    -0.07  -0.06   0.10
    35   1    -0.08  -0.26  -0.02     0.09   0.31   0.05     0.05  -0.04  -0.15
    36   1    -0.08   0.15  -0.06     0.11  -0.22   0.07     0.02   0.38  -0.13
    37   1    -0.07   0.02  -0.18     0.00  -0.03   0.05     0.24  -0.41  -0.10
    38   1     0.06   0.07   0.04    -0.05  -0.10  -0.21    -0.03  -0.06   0.27
    39   1    -0.02   0.02  -0.09     0.11  -0.01   0.23     0.03   0.03  -0.07
    40   1     0.02   0.14  -0.12    -0.06  -0.10   0.24    -0.08  -0.08   0.12
    41   7     0.03   0.04  -0.02     0.02  -0.02  -0.00     0.01  -0.07   0.04
    42   6    -0.01   0.01   0.00    -0.02  -0.03   0.01    -0.04  -0.05   0.01
    43   1     0.03   0.03  -0.14    -0.07  -0.06   0.21    -0.04  -0.04   0.02
    44   1    -0.01  -0.00   0.05    -0.06  -0.05   0.06    -0.05  -0.04  -0.02
    45   6     0.02  -0.00   0.02    -0.00   0.01  -0.08     0.03   0.04  -0.05
    46   1    -0.10  -0.03   0.04     0.26   0.22  -0.16     0.08   0.08  -0.07
    47   1     0.05   0.08  -0.10    -0.07  -0.05   0.18     0.03   0.02  -0.02
    48   1    -0.07  -0.02  -0.01     0.08   0.02   0.10     0.06   0.05  -0.04
    49   8     0.01  -0.01   0.00     0.00  -0.03  -0.01     0.00   0.03   0.01
    50   1    -0.00   0.02  -0.01     0.00  -0.04  -0.01    -0.04  -0.11   0.01
    51   6     0.01   0.00  -0.01    -0.00  -0.00   0.00    -0.01  -0.00   0.01
    52   9    -0.01   0.00   0.00     0.00  -0.00   0.00     0.00  -0.00  -0.00
    53   9    -0.00  -0.00   0.01    -0.00   0.00  -0.00    -0.00   0.00  -0.01
    54   1    -0.09  -0.02   0.09     0.03   0.01  -0.03     0.07   0.01  -0.06
    55   1    -0.00  -0.01   0.03     0.02   0.02  -0.01     0.03   0.01  -0.01
                     64                     65                     66
                      A                      A                      A
 Frequencies --    966.6051               984.0815               999.8576
 Red. masses --      1.4266                 2.0706                 1.8439
 Frc consts  --      0.7853                 1.1814                 1.0861
 IR Inten    --      0.0000                 0.0000                 0.0000
  Atom  AN      X      Y      Z        X      Y      Z        X      Y      Z
     1   6     0.00  -0.03   0.00    -0.00   0.01   0.00    -0.00   0.01   0.00
     2   6    -0.00  -0.05  -0.01     0.02   0.02   0.00     0.01   0.01   0.00
     3   6    -0.01  -0.03   0.01    -0.01   0.00   0.00    -0.01  -0.00  -0.00
     4   6    -0.01  -0.00  -0.02     0.00   0.00   0.00     0.00   0.00  -0.00
     5   6     0.01   0.01   0.01     0.00   0.00   0.00    -0.00   0.00   0.02
     6   6     0.02   0.04   0.01    -0.01  -0.02  -0.01     0.00  -0.01  -0.02
     7   1    -0.01  -0.07   0.01    -0.01   0.03   0.04    -0.00   0.02   0.02
     8   6    -0.02   0.01   0.01     0.01  -0.01  -0.03    -0.00  -0.01  -0.02
     9   1     0.03  -0.05   0.01     0.01   0.04  -0.01     0.06   0.03  -0.07
    10   1    -0.02   0.06  -0.02    -0.02  -0.02   0.00    -0.09  -0.00   0.08
    11   6    -0.03   0.01   0.03     0.00  -0.00  -0.00     0.00  -0.00   0.00
    12   6     0.09   0.06  -0.05    -0.02  -0.00   0.02    -0.00   0.00   0.01
    13   1     0.38  -0.10  -0.42    -0.03   0.01   0.04     0.01  -0.00   0.00
    14   1    -0.28   0.08   0.55     0.09  -0.01  -0.13     0.04  -0.00  -0.04
    15   7    -0.03  -0.05  -0.02    -0.00   0.00  -0.00    -0.00  -0.00  -0.00
    16   8     0.01   0.03   0.00    -0.00  -0.01  -0.00    -0.00  -0.00  -0.00
    17   6    -0.01  -0.01  -0.02    -0.04  -0.06   0.04    -0.03  -0.02   0.03
    18   1     0.02   0.00  -0.01    -0.10   0.00   0.07    -0.03  -0.01   0.03
    19   6    -0.01   0.01  -0.01     0.01  -0.00   0.00     0.01  -0.00   0.00
    20   1    -0.06  -0.01  -0.04     0.02   0.00   0.02     0.01   0.00   0.01
    21   1     0.00  -0.01   0.01    -0.00   0.01  -0.00    -0.00   0.00  -0.00
    22   1     0.01  -0.01   0.00    -0.00   0.01  -0.00     0.00   0.00   0.00
    23   6     0.01  -0.01   0.00     0.05  -0.12  -0.07     0.02  -0.00  -0.04
    24   6    -0.00   0.01   0.01     0.02   0.06   0.09     0.07  -0.01   0.00
    25   1     0.05  -0.01  -0.02     0.16  -0.07  -0.15     0.07   0.01  -0.06
    26   6     0.00  -0.01  -0.00    -0.03  -0.01   0.13     0.02  -0.07  -0.04
    27   6    -0.01   0.04  -0.02    -0.06   0.03  -0.06     0.01   0.12   0.04
    28   6    -0.00  -0.01   0.00    -0.01   0.04   0.00    -0.10   0.02   0.03
    29   1    -0.02   0.03  -0.03    -0.22   0.14  -0.19     0.11  -0.01   0.03
    30   1    -0.01  -0.04   0.00     0.26  -0.25   0.02     0.22   0.05  -0.02
    31   1     0.01   0.01   0.01    -0.05  -0.05   0.10    -0.07   0.03   0.12
    32   1    -0.02  -0.02  -0.03    -0.04   0.00   0.11    -0.04   0.01  -0.22
    33   6    -0.00   0.01  -0.00     0.02  -0.01  -0.09    -0.02   0.08   0.01
    34   6    -0.00  -0.02   0.02     0.01  -0.04   0.02     0.01  -0.09  -0.01
    35   1     0.03   0.09  -0.01     0.05   0.24   0.03    -0.06  -0.01  -0.01
    36   1     0.02  -0.01   0.01     0.03  -0.19   0.09    -0.04   0.23  -0.02
    37   1     0.02  -0.04  -0.01     0.02   0.04   0.01    -0.20   0.05  -0.06
    38   1    -0.01  -0.02  -0.02     0.06   0.09  -0.14     0.02  -0.03  -0.28
    39   1     0.03   0.01   0.02     0.02   0.05  -0.25     0.09  -0.00   0.27
    40   1    -0.02  -0.05   0.08    -0.05  -0.06   0.27     0.01  -0.07   0.01
    41   7     0.01  -0.01   0.00     0.01   0.01  -0.06     0.00  -0.05   0.02
    42   6    -0.00  -0.01   0.00     0.02  -0.02   0.02     0.02  -0.02  -0.06
    43   1    -0.02  -0.01   0.07    -0.04  -0.00   0.30     0.05   0.07  -0.13
    44   1    -0.02  -0.01  -0.03    -0.06  -0.01  -0.14     0.05   0.06  -0.41
    45   6    -0.00   0.01  -0.02    -0.03   0.02  -0.04    -0.02   0.01   0.09
    46   1     0.06   0.03  -0.03     0.18   0.05  -0.07    -0.23  -0.33   0.19
    47   1    -0.02  -0.03   0.04    -0.09  -0.15   0.17     0.01  -0.10  -0.12
    48   1     0.04   0.02  -0.01     0.15   0.07  -0.02     0.06   0.06  -0.22
    49   8     0.00   0.01   0.00     0.00   0.06   0.02    -0.00   0.01   0.01
    50   1    -0.03  -0.03  -0.01     0.01   0.11   0.02     0.02   0.09   0.00
    51   6     0.02   0.01  -0.03    -0.00  -0.00   0.00    -0.00   0.00   0.00
    52   9    -0.01   0.00   0.00     0.00  -0.00  -0.00     0.00  -0.00  -0.00
    53   9    -0.00  -0.01   0.03     0.00   0.00  -0.00     0.00  -0.00  -0.00
    54   1    -0.28  -0.06   0.27     0.03   0.01  -0.03     0.01   0.00  -0.01
    55   1    -0.08  -0.07   0.05     0.01   0.00  -0.01    -0.00   0.00  -0.01
                     67                     68                     69
                      A                      A                      A
 Frequencies --   1001.3644              1022.3971              1030.2343
 Red. masses --      1.3480                 1.4433                 3.2736
 Frc consts  --      0.7964                 0.8889                 2.0471
 IR Inten    --      0.0000                 0.0000                 0.0000
  Atom  AN      X      Y      Z        X      Y      Z        X      Y      Z
     1   6    -0.02   0.00   0.02    -0.00  -0.00  -0.00     0.00   0.04   0.00
     2   6    -0.01  -0.00   0.01    -0.01  -0.01  -0.00     0.09   0.08   0.06
     3   6     0.00  -0.00  -0.01     0.00   0.00   0.01    -0.07  -0.06  -0.05
     4   6     0.01  -0.00  -0.01     0.00  -0.00  -0.00    -0.00  -0.00  -0.00
     5   6    -0.06   0.01   0.08    -0.01  -0.00  -0.01     0.08   0.06   0.06
     6   6     0.08  -0.01  -0.10     0.01   0.01   0.01    -0.08  -0.08  -0.05
     7   1     0.05  -0.00  -0.07    -0.00  -0.04  -0.00     0.06   0.25   0.07
     8   6    -0.00   0.00   0.00     0.01   0.02   0.01    -0.09  -0.08  -0.07
     9   1     0.37  -0.03  -0.48    -0.03  -0.03   0.02     0.06   0.32   0.04
    10   1    -0.47   0.04   0.60     0.04   0.00  -0.00    -0.22  -0.01  -0.19
    11   6    -0.00   0.00   0.00    -0.03   0.01   0.03    -0.01  -0.00   0.00
    12   6     0.00  -0.00  -0.00     0.02  -0.01  -0.03     0.05   0.11   0.04
    13   1     0.01  -0.00  -0.01     0.31  -0.03  -0.28    -0.03  -0.13  -0.16
    14   1     0.00  -0.00  -0.01    -0.12   0.01   0.14     0.25   0.03   0.15
    15   7    -0.00  -0.00   0.00    -0.00   0.00  -0.01    -0.03  -0.05  -0.03
    16   8     0.01   0.00  -0.00     0.01   0.00   0.01    -0.02  -0.02  -0.02
    17   6     0.00   0.00  -0.00    -0.00   0.01  -0.00     0.02  -0.11   0.04
    18   1     0.01  -0.00  -0.00    -0.01  -0.00  -0.01     0.04   0.00   0.11
    19   6    -0.00   0.00  -0.00    -0.01   0.00  -0.01     0.03  -0.01   0.03
    20   1    -0.00  -0.00  -0.00    -0.02  -0.00  -0.01     0.08   0.01   0.06
    21   1     0.00   0.00  -0.00     0.00  -0.01   0.00    -0.00   0.02  -0.01
    22   1    -0.00  -0.00  -0.00     0.00  -0.01   0.00    -0.01   0.02  -0.00
    23   6    -0.00   0.00   0.00    -0.01  -0.00  -0.00     0.14  -0.00   0.02
    24   6    -0.01  -0.00  -0.00     0.01   0.00   0.01    -0.01  -0.00  -0.06
    25   1    -0.01   0.00   0.01    -0.02  -0.00   0.00     0.24   0.00  -0.02
    26   6    -0.00   0.01   0.00    -0.00  -0.01   0.01    -0.02   0.04  -0.08
    27   6    -0.00  -0.01  -0.00     0.00   0.00   0.00    -0.04  -0.03   0.00
    28   6     0.01  -0.00  -0.00     0.00   0.01   0.00    -0.07  -0.08  -0.01
    29   1    -0.01  -0.00  -0.00    -0.00   0.01  -0.01     0.10  -0.04   0.06
    30   1    -0.03  -0.01   0.00     0.03  -0.00   0.00    -0.18   0.06  -0.02
    31   1     0.01  -0.00  -0.01    -0.00   0.00   0.02     0.00  -0.08  -0.20
    32   1     0.01   0.00   0.02    -0.01  -0.00  -0.01     0.04  -0.02   0.06
    33   6     0.00  -0.01   0.00    -0.00   0.00  -0.01     0.05  -0.00   0.08
    34   6    -0.00   0.01   0.00    -0.00  -0.00   0.00     0.05   0.07  -0.05
    35   1     0.01   0.00  -0.00     0.00  -0.00  -0.00    -0.01   0.05   0.04
    36   1     0.01  -0.02   0.00    -0.00   0.00   0.00    -0.04  -0.07   0.05
    37   1     0.02  -0.01   0.01     0.00   0.01  -0.00    -0.10  -0.05  -0.02
    38   1    -0.00   0.00   0.03     0.00   0.00  -0.02     0.03   0.01   0.21
    39   1    -0.01  -0.00  -0.02     0.00   0.00  -0.00    -0.02   0.02  -0.00
    40   1    -0.00   0.00  -0.00    -0.00  -0.01   0.00     0.07   0.21  -0.01
    41   7    -0.00   0.00  -0.00     0.01   0.00  -0.00    -0.07  -0.00   0.03
    42   6    -0.00   0.00   0.01    -0.00  -0.00   0.00     0.04   0.05  -0.02
    43   1    -0.01  -0.01   0.01    -0.00  -0.00   0.00     0.03   0.04   0.04
    44   1    -0.00  -0.01   0.05    -0.00  -0.00  -0.01     0.03   0.03   0.05
    45   6     0.00  -0.00  -0.01     0.00   0.00  -0.00    -0.04  -0.04   0.01
    46   1     0.02   0.03  -0.02    -0.00  -0.01   0.00     0.04   0.04  -0.02
    47   1    -0.00   0.01   0.01     0.00  -0.00  -0.01    -0.07  -0.05   0.12
    48   1    -0.01  -0.01   0.02     0.01   0.00  -0.01    -0.04  -0.05   0.11
    49   8     0.00  -0.00  -0.00    -0.00  -0.01  -0.00     0.01   0.08   0.02
    50   1    -0.00  -0.01  -0.00    -0.01  -0.01  -0.01    -0.00   0.08   0.02
    51   6    -0.01  -0.00   0.00    -0.13   0.00   0.11    -0.03   0.00   0.03
    52   9     0.00   0.00  -0.00     0.04  -0.01  -0.01     0.01  -0.00  -0.00
    53   9     0.00  -0.00  -0.00     0.01  -0.01  -0.02     0.00  -0.00  -0.00
    54   1     0.03   0.01  -0.03     0.61   0.16  -0.59     0.13   0.04  -0.13
    55   1     0.01   0.00  -0.01    -0.05  -0.00   0.05    -0.04  -0.08  -0.02
                     70                     71                     72
                      A                      A                      A
 Frequencies --   1041.4131              1059.7160              1064.7941
 Red. masses --      2.5482                 1.8967                 3.0728
 Frc consts  --      1.6283                 1.2550                 2.0526
 IR Inten    --      0.0000                 0.0000                 0.0000
  Atom  AN      X      Y      Z        X      Y      Z        X      Y      Z
     1   6     0.00  -0.02  -0.00     0.01  -0.01   0.01     0.07  -0.06   0.06
     2   6    -0.05  -0.04  -0.03     0.00  -0.00  -0.00     0.03   0.01   0.02
     3   6     0.05   0.05   0.03    -0.00   0.00   0.00    -0.02   0.04  -0.01
     4   6     0.01   0.01   0.00    -0.00   0.00  -0.00    -0.01   0.04  -0.01
     5   6    -0.05  -0.04  -0.04    -0.00   0.00  -0.00    -0.04   0.01  -0.03
     6   6     0.04   0.04   0.03    -0.00  -0.01  -0.00    -0.04  -0.05  -0.03
     7   1    -0.00  -0.17  -0.07    -0.01   0.02   0.02    -0.00   0.14   0.04
     8   6     0.03   0.05   0.06     0.01   0.00  -0.02     0.00   0.03  -0.00
     9   1    -0.04  -0.18  -0.03    -0.00   0.01  -0.00    -0.05   0.11  -0.04
    10   1     0.13  -0.01   0.12    -0.02   0.00  -0.02    -0.17   0.01  -0.15
    11   6     0.02  -0.00   0.01     0.01  -0.01   0.01     0.04  -0.04   0.05
    12   6    -0.03  -0.07  -0.04    -0.01  -0.01  -0.00    -0.06  -0.06  -0.05
    13   1     0.10   0.09   0.08     0.05   0.00  -0.00     0.21   0.02   0.02
    14   1    -0.21  -0.02  -0.06    -0.05   0.01  -0.06    -0.32   0.04  -0.18
    15   7     0.02   0.03   0.02     0.01   0.01   0.00     0.04   0.04   0.03
    16   8     0.02   0.01   0.02     0.02   0.00   0.01     0.15   0.02   0.11
    17   6    -0.05   0.02  -0.03    -0.03   0.02   0.03    -0.06  -0.03   0.03
    18   1    -0.25   0.02  -0.05     0.06  -0.05  -0.01    -0.06  -0.07  -0.00
    19   6    -0.02   0.01  -0.02    -0.02  -0.00  -0.01    -0.16  -0.02  -0.12
    20   1    -0.04  -0.00  -0.04    -0.02  -0.00  -0.01    -0.10   0.01  -0.08
    21   1     0.00  -0.01   0.00    -0.01  -0.00  -0.01    -0.11  -0.01  -0.10
    22   1    -0.00  -0.02  -0.00    -0.01  -0.00  -0.01    -0.14  -0.01  -0.08
    23   6     0.06  -0.09   0.05     0.03   0.05  -0.06     0.15   0.02  -0.04
    24   6     0.06   0.05  -0.05     0.03  -0.06   0.03    -0.06  -0.03  -0.01
    25   1     0.13  -0.16   0.08     0.03   0.09  -0.09     0.27   0.08  -0.14
    26   6    -0.07  -0.01  -0.08     0.03   0.08  -0.03     0.03   0.01   0.01
    27   6    -0.05  -0.03   0.01     0.05  -0.02  -0.04    -0.01   0.03  -0.01
    28   6    -0.10  -0.06  -0.01    -0.02   0.05  -0.10     0.01  -0.04   0.03
    29   1     0.15   0.04   0.01    -0.00  -0.05  -0.00    -0.11  -0.05   0.01
    30   1     0.12   0.12  -0.06     0.02  -0.07   0.03    -0.28  -0.10   0.03
    31   1    -0.07  -0.13  -0.20     0.11   0.04  -0.11     0.01   0.02   0.02
    32   1    -0.06  -0.11   0.05     0.13   0.07   0.11     0.05   0.06  -0.03
    33   6     0.08   0.01   0.05    -0.02  -0.08   0.09    -0.01   0.02   0.00
    34   6     0.04   0.07  -0.06    -0.08  -0.01   0.01     0.03  -0.01   0.01
    35   1     0.01   0.05   0.03     0.18  -0.03  -0.16    -0.07   0.03   0.05
    36   1    -0.11  -0.08   0.12     0.01  -0.00  -0.02     0.07   0.03  -0.07
    37   1    -0.11  -0.09  -0.07    -0.14   0.04  -0.27     0.04  -0.02   0.10
    38   1     0.06   0.05   0.16    -0.07  -0.01   0.38     0.00  -0.01  -0.10
    39   1    -0.00   0.05  -0.06    -0.23  -0.13   0.22     0.05   0.02   0.01
    40   1     0.06   0.36   0.14    -0.09   0.18   0.24     0.03  -0.16  -0.15
    41   7    -0.01   0.02   0.04    -0.01   0.01   0.03    -0.06  -0.02  -0.02
    42   6     0.09   0.05  -0.05     0.01  -0.09   0.04    -0.04   0.02   0.00
    43   1     0.05   0.12   0.15    -0.03   0.06   0.28    -0.01  -0.07  -0.16
    44   1     0.00   0.05  -0.15    -0.14  -0.06  -0.23     0.06   0.01   0.17
    45   6    -0.08  -0.05   0.02    -0.00   0.07  -0.01     0.03  -0.01  -0.00
    46   1     0.08  -0.01   0.00     0.06  -0.09   0.02    -0.04   0.05  -0.01
    47   1    -0.14  -0.17   0.22    -0.02  -0.12   0.00     0.05   0.10  -0.07
    48   1     0.02  -0.03   0.10     0.21   0.14  -0.19    -0.09  -0.05   0.05
    49   8    -0.00  -0.01   0.00    -0.00  -0.02   0.00    -0.00   0.01   0.01
    50   1    -0.00   0.00  -0.00     0.04   0.14  -0.01     0.05   0.23   0.00
    51   6     0.01  -0.00  -0.01     0.00   0.00  -0.00     0.01   0.00  -0.01
    52   9    -0.00   0.00   0.00    -0.00  -0.00  -0.00    -0.00  -0.00   0.00
    53   9    -0.00   0.00   0.00     0.00  -0.00   0.00    -0.00  -0.00   0.00
    54   1    -0.04  -0.01   0.03     0.00   0.00  -0.00    -0.03  -0.01   0.02
    55   1     0.02   0.07   0.01     0.00   0.03   0.01     0.02   0.14   0.04
                     73                     74                     75
                      A                      A                      A
 Frequencies --   1068.1160              1085.3592              1086.9594
 Red. masses --      2.5980                 2.0576                 2.4736
 Frc consts  --      1.7463                 1.4281                 1.7219
 IR Inten    --      0.0000                 0.0000                 0.0000
  Atom  AN      X      Y      Z        X      Y      Z        X      Y      Z
     1   6    -0.06   0.04  -0.05    -0.01   0.01  -0.01    -0.00  -0.00   0.00
     2   6    -0.04  -0.05  -0.03     0.01  -0.00   0.00     0.01  -0.00   0.00
     3   6     0.05   0.01   0.04    -0.01  -0.02  -0.01    -0.01  -0.00   0.00
     4   6     0.01  -0.01   0.01    -0.01  -0.00  -0.01    -0.00   0.00  -0.00
     5   6    -0.00  -0.04   0.00     0.02   0.00   0.01     0.01   0.00   0.00
     6   6     0.06   0.06   0.04    -0.00  -0.00  -0.00    -0.00  -0.00  -0.00
     7   1    -0.06  -0.26   0.02     0.00   0.01   0.01    -0.01   0.01   0.03
     8   6     0.02   0.02   0.01    -0.02  -0.00   0.00     0.01  -0.00  -0.03
     9   1     0.01  -0.23   0.02     0.02  -0.01   0.01     0.01  -0.01   0.01
    10   1     0.25  -0.03   0.19    -0.02   0.01  -0.01    -0.01   0.00  -0.01
    11   6     0.01   0.01   0.01     0.01  -0.01   0.01     0.01  -0.01   0.01
    12   6    -0.01  -0.02  -0.00    -0.00   0.00  -0.01    -0.01   0.00  -0.00
    13   1     0.07   0.08   0.06     0.03  -0.01  -0.00     0.04  -0.00  -0.00
    14   1    -0.04  -0.00  -0.06    -0.04   0.01   0.00    -0.05   0.02  -0.07
    15   7    -0.01   0.01  -0.01     0.00   0.00   0.00     0.01   0.01   0.00
    16   8    -0.11  -0.01  -0.08    -0.02   0.00  -0.01    -0.01   0.00  -0.00
    17   6    -0.10  -0.05   0.02     0.00   0.05   0.00    -0.01   0.02   0.03
    18   1    -0.10  -0.13  -0.04    -0.04   0.04  -0.01     0.19  -0.07  -0.02
    19   6     0.12   0.02   0.09     0.02   0.00   0.01     0.01   0.00   0.00
    20   1     0.04  -0.01   0.04     0.00  -0.00   0.01    -0.00  -0.00   0.00
    21   1     0.09  -0.01   0.09     0.01   0.00   0.01     0.00  -0.00   0.00
    22   1     0.11  -0.01   0.07     0.02   0.00   0.01     0.01  -0.00   0.00
    23   6     0.16   0.03  -0.06     0.07   0.01   0.07    -0.06   0.09  -0.12
    24   6    -0.05  -0.04   0.01    -0.01  -0.05  -0.04    -0.06  -0.03   0.06
    25   1     0.35   0.11  -0.20    -0.04  -0.00   0.12    -0.04   0.15  -0.16
    26   6     0.05   0.03  -0.00    -0.02   0.03   0.03     0.03  -0.03   0.01
    27   6    -0.01   0.02  -0.01     0.09  -0.02  -0.04    -0.03   0.04   0.07
    28   6    -0.00  -0.04  -0.01     0.03   0.05   0.06     0.07  -0.04  -0.04
    29   1    -0.06  -0.04  -0.01    -0.18  -0.17   0.15    -0.08   0.03  -0.09
    30   1    -0.31  -0.15   0.04    -0.22   0.07   0.01    -0.06  -0.16   0.04
    31   1     0.04   0.04   0.01    -0.07  -0.09  -0.05     0.15   0.16   0.12
    32   1     0.08   0.08  -0.03     0.13   0.13   0.12    -0.13  -0.12  -0.10
    33   6    -0.02   0.00   0.04     0.01  -0.03  -0.05    -0.03   0.00  -0.00
    34   6     0.03  -0.01   0.00    -0.07  -0.00   0.13    -0.03   0.03   0.03
    35   1    -0.05   0.04   0.03    -0.04  -0.07   0.02     0.08  -0.03  -0.07
    36   1     0.08   0.01  -0.07     0.22   0.04  -0.22    -0.09   0.09   0.07
    37   1    -0.01  -0.02   0.02     0.31  -0.13   0.20     0.04  -0.10  -0.16
    38   1    -0.02  -0.03  -0.01     0.09   0.12  -0.15    -0.13  -0.14   0.17
    39   1     0.00  -0.02   0.10    -0.05   0.00  -0.15     0.06  -0.00   0.02
    40   1     0.03  -0.13  -0.14    -0.08   0.10   0.29    -0.09  -0.08   0.24
    41   7    -0.06  -0.02  -0.02    -0.07   0.04  -0.06     0.10  -0.06   0.02
    42   6    -0.04   0.01   0.02     0.04   0.00  -0.12     0.11   0.12  -0.08
    43   1    -0.02  -0.07  -0.11     0.07   0.13  -0.18     0.12   0.13  -0.09
    44   1     0.04  -0.00   0.18     0.02   0.05  -0.38     0.09   0.12  -0.07
    45   6     0.03  -0.00  -0.01    -0.06  -0.03   0.03    -0.11  -0.11   0.00
    46   1    -0.03   0.05  -0.02    -0.02  -0.10   0.05     0.14   0.14  -0.08
    47   1     0.05   0.10  -0.07    -0.08  -0.14   0.08    -0.19  -0.14   0.33
    48   1    -0.07  -0.03   0.03     0.00  -0.01  -0.01    -0.10  -0.14   0.30
    49   8    -0.00   0.03   0.01    -0.00  -0.04  -0.01    -0.00  -0.01  -0.00
    50   1     0.07   0.29   0.01     0.02   0.02  -0.01     0.04   0.12  -0.00
    51   6    -0.00  -0.00   0.00     0.00   0.00  -0.00     0.00  -0.00  -0.00
    52   9     0.00  -0.00  -0.00    -0.00  -0.00  -0.00    -0.00   0.00   0.00
    53   9     0.00   0.00  -0.00     0.00  -0.00   0.00     0.00  -0.00   0.00
    54   1     0.01   0.00  -0.01     0.00   0.00  -0.00    -0.00  -0.00  -0.00
    55   1    -0.01   0.03  -0.02    -0.00   0.04   0.00     0.00   0.03   0.00
                     76                     77                     78
                      A                      A                      A
 Frequencies --   1096.1123              1103.2574              1124.6571
 Red. masses --      2.2138                 2.3056                 2.0153
 Frc consts  --      1.5671                 1.6534                 1.5018
 IR Inten    --      0.0000                 0.0000                 0.0000
  Atom  AN      X      Y      Z        X      Y      Z        X      Y      Z
     1   6     0.02  -0.01   0.01     0.01  -0.01   0.01     0.00   0.00  -0.00
     2   6    -0.04   0.02  -0.03    -0.03   0.02  -0.03     0.01  -0.00   0.00
     3   6     0.04   0.04   0.03     0.03   0.02   0.02    -0.01  -0.00  -0.00
     4   6     0.04  -0.02   0.03     0.03  -0.02   0.03    -0.00   0.01  -0.00
     5   6    -0.06  -0.01  -0.04    -0.04  -0.00  -0.03     0.00  -0.00   0.00
     6   6     0.01   0.02   0.01     0.01   0.02   0.01    -0.00  -0.00  -0.00
     7   1    -0.04  -0.00  -0.04    -0.04   0.03  -0.03     0.01  -0.01  -0.00
     8   6     0.05   0.00   0.04     0.03  -0.00   0.02     0.01  -0.00  -0.01
     9   1    -0.06   0.07  -0.05    -0.04   0.07  -0.04     0.01  -0.02   0.01
    10   1     0.11  -0.03   0.08     0.08  -0.02   0.06    -0.02   0.00  -0.01
    11   6    -0.06   0.06  -0.07    -0.04   0.05  -0.05     0.00  -0.00   0.00
    12   6     0.07   0.01   0.07     0.07   0.01   0.07    -0.01   0.00  -0.01
    13   1    -0.24   0.03   0.01    -0.19   0.02   0.00     0.01  -0.01  -0.01
    14   1     0.45  -0.14   0.25     0.42  -0.13   0.23    -0.06   0.03  -0.05
    15   7    -0.04  -0.05  -0.03    -0.04  -0.05  -0.03     0.01   0.01   0.00
    16   8     0.06  -0.01   0.05     0.04  -0.01   0.03    -0.00   0.00  -0.00
    17   6    -0.04  -0.04  -0.04    -0.08   0.07   0.00     0.00  -0.03   0.01
    18   1    -0.13   0.01  -0.01    -0.02  -0.03  -0.07     0.10  -0.03   0.02
    19   6    -0.06  -0.01  -0.05    -0.04  -0.01  -0.03     0.00   0.00   0.00
    20   1    -0.00   0.01  -0.00     0.01   0.01   0.00     0.00  -0.00  -0.00
    21   1    -0.04   0.00  -0.05    -0.02   0.00  -0.03     0.01   0.00   0.00
    22   1    -0.06   0.01  -0.04    -0.04   0.00  -0.02     0.00   0.00   0.00
    23   6    -0.03  -0.06   0.01     0.09   0.10  -0.05    -0.02  -0.01  -0.02
    24   6     0.03   0.01   0.03    -0.06  -0.05  -0.03     0.02   0.01   0.03
    25   1     0.10   0.02  -0.10     0.08   0.00   0.04     0.07  -0.16   0.07
    26   6     0.08   0.03   0.03    -0.09  -0.04  -0.05    -0.06  -0.05  -0.04
    27   6     0.02  -0.01  -0.01     0.01   0.01  -0.01     0.11  -0.04  -0.09
    28   6     0.00  -0.01  -0.07     0.01   0.02   0.09    -0.01   0.04   0.01
    29   1     0.17   0.10  -0.10    -0.24  -0.16   0.13    -0.05   0.01  -0.01
    30   1    -0.15  -0.15   0.04     0.05   0.13  -0.03     0.15  -0.01   0.00
    31   1    -0.02   0.02   0.08     0.02  -0.02  -0.09    -0.21  -0.16  -0.05
    32   1     0.13   0.14  -0.04    -0.12  -0.13   0.03     0.18   0.18   0.01
    33   6    -0.06  -0.00   0.05     0.06   0.00  -0.06    -0.01   0.03  -0.03
    34   6    -0.01   0.01   0.05    -0.01  -0.02  -0.03    -0.01  -0.10   0.01
    35   1    -0.12  -0.03   0.09     0.20   0.02  -0.16     0.26  -0.04  -0.22
    36   1     0.14   0.01  -0.13    -0.12   0.00   0.12    -0.05  -0.01   0.03
    37   1     0.10  -0.16  -0.14    -0.08   0.15   0.15    -0.04  -0.13  -0.25
    38   1    -0.05  -0.04  -0.03     0.06   0.05  -0.00     0.05   0.06  -0.23
    39   1    -0.05  -0.07   0.26     0.04   0.07  -0.25    -0.14  -0.13   0.41
    40   1     0.02   0.12   0.03    -0.06  -0.19   0.03    -0.02  -0.24  -0.08
    41   7    -0.04   0.02  -0.05     0.03  -0.01   0.08    -0.05   0.12   0.11
    42   6     0.00   0.03  -0.04     0.01  -0.02   0.03     0.02   0.08   0.02
    43   1     0.03   0.02  -0.15    -0.01  -0.00   0.13     0.01  -0.05  -0.02
    44   1     0.04   0.04  -0.02    -0.03  -0.02  -0.00     0.09   0.06   0.17
    45   6    -0.02  -0.03   0.01    -0.00   0.02  -0.01    -0.01  -0.06  -0.03
    46   1    -0.01   0.03  -0.01     0.04  -0.01  -0.01     0.08   0.18  -0.10
    47   1    -0.02  -0.01   0.04    -0.01  -0.02   0.02    -0.03   0.06   0.11
    48   1    -0.06  -0.05   0.06     0.05   0.03  -0.02    -0.10  -0.10   0.20
    49   8     0.00   0.04   0.01    -0.01  -0.05  -0.00     0.00   0.02   0.00
    50   1    -0.03  -0.09   0.01     0.07   0.26  -0.01    -0.01   0.00   0.00
    51   6    -0.01  -0.00   0.01    -0.01  -0.01   0.01     0.00   0.00  -0.00
    52   9     0.00   0.00   0.00     0.01   0.00   0.00    -0.00  -0.00  -0.00
    53   9    -0.00   0.00  -0.00    -0.00   0.00  -0.00     0.00  -0.00   0.00
    54   1     0.02   0.00  -0.01     0.01  -0.00  -0.01     0.00   0.00   0.00
    55   1    -0.01  -0.26  -0.03    -0.01  -0.21  -0.03     0.00   0.02   0.00
                     79                     80                     81
                      A                      A                      A
 Frequencies --   1149.9195              1154.4484              1164.5785
 Red. masses --      2.4164                 1.7683                 1.2844
 Frc consts  --      1.8826                 1.3885                 1.0264
 IR Inten    --      0.0000                 0.0000                 0.0000
  Atom  AN      X      Y      Z        X      Y      Z        X      Y      Z
     1   6    -0.00  -0.01   0.00     0.00   0.01  -0.00    -0.00   0.00  -0.00
     2   6     0.02   0.01   0.01    -0.01  -0.01  -0.01    -0.00  -0.00  -0.00
     3   6    -0.02  -0.04  -0.01     0.01   0.02   0.01    -0.00  -0.01  -0.00
     4   6    -0.02  -0.02  -0.02     0.01   0.01   0.01     0.00  -0.00   0.00
     5   6     0.03   0.00   0.02    -0.01   0.00  -0.01    -0.00   0.01  -0.00
     6   6    -0.01   0.00  -0.01     0.00  -0.01   0.00     0.00  -0.01   0.01
     7   1     0.02   0.17  -0.02    -0.01  -0.08   0.00     0.00   0.01  -0.02
     8   6     0.03   0.00   0.01    -0.00  -0.01  -0.01    -0.00  -0.00  -0.00
     9   1     0.04  -0.14   0.04    -0.02   0.09  -0.02    -0.01   0.10  -0.01
    10   1    -0.22   0.11  -0.18     0.11  -0.06   0.09     0.09  -0.05   0.06
    11   6    -0.01   0.01  -0.01     0.01  -0.00   0.01     0.00  -0.00   0.00
    12   6     0.02   0.01   0.02    -0.01   0.00  -0.01    -0.00   0.00  -0.00
    13   1    -0.12  -0.10  -0.07     0.05   0.04   0.02     0.02   0.00  -0.00
    14   1     0.08  -0.01   0.03    -0.05   0.02  -0.04    -0.02   0.01  -0.01
    15   7     0.01  -0.00   0.01    -0.00   0.00  -0.00    -0.00   0.00  -0.00
    16   8    -0.02   0.01  -0.02     0.01  -0.00   0.01     0.04  -0.01  -0.05
    17   6    -0.01   0.22   0.05    -0.01  -0.10  -0.01     0.00   0.01   0.00
    18   1    -0.02   0.25   0.07     0.19  -0.17  -0.04     0.01   0.01   0.01
    19   6     0.02   0.01   0.01    -0.01  -0.00  -0.01    -0.08   0.01   0.11
    20   1    -0.03  -0.01  -0.03     0.02   0.01   0.02     0.18  -0.01  -0.25
    21   1     0.02  -0.01   0.02    -0.01   0.01  -0.01     0.61   0.09   0.25
    22   1     0.02  -0.01   0.01    -0.01   0.00  -0.01    -0.38  -0.12  -0.51
    23   6     0.06  -0.08  -0.05    -0.05   0.05  -0.02     0.00  -0.00  -0.00
    24   6     0.01   0.04   0.05    -0.01  -0.03   0.02     0.00   0.00   0.00
    25   1    -0.00  -0.10  -0.01     0.01  -0.03   0.01    -0.01  -0.00   0.00
    26   6     0.05  -0.03  -0.00     0.01  -0.08  -0.03     0.00   0.00   0.00
    27   6    -0.02   0.01   0.01     0.01  -0.04   0.01     0.00   0.00  -0.00
    28   6    -0.01  -0.05  -0.03     0.06  -0.04   0.03    -0.00  -0.00  -0.00
    29   1    -0.29   0.03  -0.07    -0.10  -0.05   0.00    -0.01   0.00  -0.00
    30   1    -0.04  -0.17   0.04    -0.23  -0.10   0.05     0.01  -0.00  -0.00
    31   1    -0.10  -0.02   0.09    -0.14  -0.05   0.09     0.00   0.00   0.00
    32   1     0.05   0.07  -0.12     0.01   0.04  -0.16     0.00   0.00   0.00
    33   6    -0.04   0.05   0.03    -0.03   0.07  -0.00    -0.00  -0.00   0.00
    34   6     0.02   0.00  -0.07    -0.03   0.07  -0.07     0.00  -0.00  -0.00
    35   1    -0.06   0.02   0.05     0.09  -0.06  -0.07    -0.01  -0.00   0.00
    36   1    -0.06   0.01   0.04    -0.10   0.00   0.06     0.00  -0.00   0.00
    37   1     0.29  -0.36  -0.05     0.40  -0.25   0.20    -0.00  -0.00  -0.01
    38   1    -0.05  -0.07  -0.11    -0.03  -0.07  -0.22    -0.00  -0.00   0.00
    39   1     0.08   0.01   0.15     0.19   0.09  -0.02    -0.00  -0.00   0.00
    40   1     0.11   0.30  -0.16     0.03   0.35  -0.05     0.00  -0.00  -0.00
    41   7    -0.04   0.02  -0.00    -0.02   0.05   0.04    -0.00  -0.00  -0.00
    42   6     0.01  -0.00   0.03     0.03  -0.07   0.02    -0.00   0.00   0.00
    43   1    -0.02  -0.01   0.14     0.01   0.09   0.22    -0.00  -0.00  -0.00
    44   1    -0.02  -0.02   0.09    -0.13  -0.09  -0.06     0.00   0.00   0.00
    45   6     0.01   0.01  -0.00    -0.01   0.05   0.01     0.00  -0.00  -0.00
    46   1     0.01   0.01  -0.00     0.03  -0.11   0.04    -0.00   0.00  -0.00
    47   1     0.01   0.00  -0.00    -0.02  -0.11  -0.01     0.00   0.00   0.00
    48   1     0.01   0.01  -0.00     0.13   0.10  -0.13    -0.00  -0.00   0.00
    49   8    -0.02  -0.14  -0.01     0.01   0.06   0.01    -0.00  -0.00  -0.00
    50   1     0.05   0.12  -0.03    -0.00   0.03   0.01     0.00   0.00  -0.00
    51   6     0.00   0.01   0.00    -0.00  -0.01  -0.00    -0.00  -0.01   0.00
    52   9    -0.00  -0.00  -0.00     0.00   0.00   0.00     0.00   0.00   0.00
    53   9     0.00  -0.01   0.00    -0.00   0.00  -0.00    -0.00   0.00  -0.00
    54   1     0.03   0.02  -0.02    -0.01  -0.01   0.01    -0.01  -0.01   0.01
    55   1     0.01   0.01   0.01    -0.00  -0.00  -0.00    -0.01   0.02  -0.00
                     82                     83                     84
                      A                      A                      A
 Frequencies --   1165.9435              1170.9322              1171.7447
 Red. masses --      1.4738                 3.3501                 1.4989
 Frc consts  --      1.1804                 2.7063                 1.2125
 IR Inten    --      0.0000                 0.0000                 0.0000
  Atom  AN      X      Y      Z        X      Y      Z        X      Y      Z
     1   6    -0.01   0.01  -0.01    -0.00   0.00  -0.00    -0.00  -0.00  -0.00
     2   6    -0.02  -0.01  -0.02    -0.02  -0.02  -0.01    -0.00  -0.00  -0.00
     3   6    -0.01  -0.06  -0.00     0.00  -0.03   0.00    -0.00  -0.01  -0.00
     4   6     0.02  -0.03   0.02     0.00   0.02   0.00     0.00  -0.01   0.00
     5   6    -0.02   0.06  -0.02    -0.02   0.04  -0.02    -0.00   0.01  -0.00
     6   6     0.03  -0.03   0.02     0.02  -0.04   0.02     0.00  -0.00   0.00
     7   1    -0.03   0.04  -0.03    -0.02  -0.01  -0.02    -0.01   0.03  -0.00
     8   6    -0.02  -0.01  -0.02    -0.01  -0.02  -0.00    -0.00   0.00   0.00
     9   1    -0.05   0.61  -0.08    -0.04   0.44  -0.07    -0.00   0.06  -0.01
    10   1     0.46  -0.26   0.38     0.41  -0.24   0.33     0.04  -0.02   0.03
    11   6     0.01  -0.01   0.01    -0.01  -0.03   0.01    -0.00  -0.00   0.00
    12   6    -0.00   0.02  -0.01     0.01   0.02  -0.00     0.00   0.00  -0.00
    13   1     0.11   0.03  -0.00    -0.08  -0.13  -0.07     0.01  -0.00  -0.00
    14   1    -0.10   0.07  -0.06    -0.02   0.03   0.00    -0.01   0.00  -0.00
    15   7    -0.02   0.02  -0.01    -0.00   0.02  -0.01    -0.00   0.00  -0.00
    16   8     0.00  -0.01   0.02     0.00  -0.00   0.01    -0.00  -0.00  -0.00
    17   6     0.02   0.05   0.02     0.00   0.02   0.01     0.01   0.03   0.01
    18   1     0.04   0.07   0.04     0.01   0.04   0.02    -0.11   0.11   0.05
    19   6     0.01  -0.01  -0.02    -0.00  -0.00  -0.01     0.00   0.00  -0.00
    20   1    -0.01   0.01   0.06     0.01   0.01   0.02    -0.02  -0.00  -0.00
    21   1    -0.11  -0.02  -0.05    -0.03   0.00  -0.02    -0.01  -0.01   0.00
    22   1     0.06   0.02   0.09     0.00   0.01   0.02     0.01  -0.00   0.01
    23   6     0.02  -0.02  -0.00     0.01  -0.00  -0.00    -0.01  -0.03   0.01
    24   6     0.00   0.01   0.01     0.00   0.00   0.00     0.03  -0.01  -0.01
    25   1    -0.04  -0.03   0.03    -0.01   0.00   0.00    -0.02   0.19  -0.17
    26   6     0.01   0.00   0.00     0.00   0.00   0.00    -0.00   0.04   0.00
    27   6    -0.01   0.01  -0.01    -0.00   0.00   0.00     0.04   0.02   0.07
    28   6    -0.01  -0.00  -0.01    -0.00  -0.00  -0.00    -0.02   0.01  -0.01
    29   1    -0.09  -0.00   0.00    -0.02   0.00  -0.00     0.27   0.07  -0.06
    30   1     0.08   0.00  -0.01     0.01  -0.00  -0.00    -0.32  -0.09   0.04
    31   1     0.01   0.01   0.01    -0.00   0.00   0.00    -0.11  -0.14  -0.11
    32   1     0.01   0.01   0.00     0.00   0.00   0.00     0.09   0.08   0.08
    33   6    -0.00  -0.00   0.00    -0.00   0.00   0.00     0.01   0.00   0.04
    34   6     0.01  -0.01   0.00    -0.00  -0.00  -0.00    -0.07  -0.04  -0.08
    35   1    -0.04   0.03   0.03    -0.01  -0.00   0.00     0.06  -0.16  -0.11
    36   1     0.01  -0.01  -0.00    -0.00   0.01   0.00    -0.14   0.20   0.03
    37   1    -0.00  -0.06  -0.08     0.00  -0.01  -0.01     0.03   0.22   0.34
    38   1    -0.02  -0.01   0.04    -0.00  -0.00   0.00     0.13   0.13  -0.27
    39   1    -0.02  -0.01   0.03    -0.00  -0.00   0.01    -0.01   0.01   0.03
    40   1     0.03   0.03  -0.02     0.00  -0.00  -0.01    -0.12  -0.27  -0.07
    41   7    -0.00  -0.00  -0.00    -0.00  -0.00  -0.00    -0.01  -0.04  -0.05
    42   6    -0.01   0.01  -0.00     0.00   0.00   0.00     0.07   0.02   0.06
    43   1    -0.01  -0.02  -0.02     0.00  -0.00   0.01     0.04   0.06   0.20
    44   1     0.02   0.01   0.02     0.00   0.00   0.01    -0.04  -0.01   0.07
    45   6     0.01  -0.01   0.00    -0.00  -0.00  -0.00    -0.03   0.00  -0.04
    46   1    -0.01   0.02  -0.00     0.00   0.01  -0.00     0.12   0.03  -0.05
    47   1     0.01   0.02  -0.01    -0.00   0.00   0.00    -0.07  -0.07   0.14
    48   1    -0.02  -0.02   0.02    -0.00  -0.00   0.01     0.07   0.01   0.08
    49   8    -0.00  -0.03  -0.00     0.00  -0.01  -0.00    -0.00  -0.01  -0.00
    50   1     0.01   0.02  -0.01    -0.00  -0.01  -0.00    -0.03  -0.13  -0.00
    51   6    -0.04  -0.09   0.01     0.13   0.30  -0.04    -0.01  -0.01   0.00
    52   9     0.04   0.03   0.02    -0.14  -0.10  -0.07     0.01   0.00   0.00
    53   9    -0.01   0.03  -0.03     0.04  -0.11   0.10    -0.00   0.00  -0.00
    54   1    -0.12  -0.11   0.07     0.32   0.35  -0.15    -0.02  -0.01   0.01
    55   1    -0.03   0.07  -0.01    -0.00   0.11  -0.03    -0.00   0.02   0.00
                     85                     86                     87
                      A                      A                      A
 Frequencies --   1204.2698              1206.2005              1209.8641
 Red. masses --      2.1377                 1.7571                 1.4451
 Frc consts  --      1.8266                 1.5062                 1.2463
 IR Inten    --      0.0000                 0.0000                 0.0000
  Atom  AN      X      Y      Z        X      Y      Z        X      Y      Z
     1   6     0.00  -0.02   0.00     0.01  -0.02   0.01    -0.02   0.04  -0.01
     2   6     0.01   0.01   0.01     0.01   0.01   0.00    -0.02  -0.03  -0.01
     3   6    -0.01  -0.01  -0.00    -0.01  -0.02  -0.00     0.00  -0.03   0.01
     4   6    -0.02   0.01  -0.02    -0.01  -0.01  -0.00     0.00   0.01   0.00
     5   6    -0.00   0.01  -0.00    -0.00   0.01  -0.00     0.01  -0.00   0.01
     6   6     0.00  -0.02   0.00     0.00  -0.01   0.00    -0.01   0.01  -0.01
     7   1     0.01   0.09   0.00     0.00   0.14  -0.01    -0.01  -0.11  -0.01
     8   6     0.04   0.01   0.02     0.03   0.00   0.01     0.01  -0.02  -0.01
     9   1    -0.00   0.05  -0.01    -0.01   0.08  -0.01     0.02  -0.10   0.02
    10   1     0.02  -0.03   0.02     0.01  -0.02   0.01     0.00   0.01   0.00
    11   6    -0.03  -0.02  -0.01    -0.01   0.00  -0.01     0.00   0.00   0.01
    12   6     0.02  -0.01   0.02     0.00   0.00   0.01    -0.00   0.02  -0.00
    13   1    -0.11  -0.21  -0.20    -0.07  -0.03  -0.01     0.02   0.01  -0.00
    14   1    -0.02   0.01  -0.01    -0.04   0.03  -0.06    -0.06   0.05  -0.05
    15   7     0.01   0.03   0.01     0.01   0.01   0.00    -0.01  -0.00  -0.00
    16   8    -0.01  -0.02  -0.01    -0.01  -0.02  -0.01     0.01   0.07   0.01
    17   6    -0.02   0.01  -0.00    -0.02   0.03   0.02    -0.01   0.04   0.01
    18   1     0.02   0.02   0.01     0.08   0.08   0.06     0.12   0.03   0.02
    19   6     0.00   0.04   0.00     0.01   0.06  -0.00    -0.00  -0.13   0.01
    20   1    -0.17  -0.04  -0.13    -0.22  -0.05  -0.17     0.53   0.10   0.39
    21   1     0.06  -0.08   0.09     0.07  -0.10   0.11    -0.17   0.24  -0.26
    22   1     0.10  -0.08   0.05     0.13  -0.10   0.06    -0.30   0.23  -0.13
    23   6    -0.02  -0.02  -0.03    -0.03  -0.03  -0.05    -0.02  -0.02  -0.02
    24   6    -0.01   0.00   0.00    -0.01   0.00   0.01     0.00   0.01   0.01
    25   1     0.12  -0.00  -0.10     0.17   0.00  -0.15     0.06  -0.01  -0.07
    26   6    -0.02  -0.01  -0.01    -0.03  -0.01  -0.02    -0.02   0.00  -0.01
    27   6    -0.01  -0.02  -0.02    -0.02  -0.03  -0.03    -0.01  -0.01  -0.01
    28   6     0.01  -0.01   0.00     0.01  -0.02  -0.00    -0.00  -0.01  -0.01
    29   1     0.24   0.09  -0.07     0.36   0.14  -0.11     0.19   0.08  -0.06
    30   1    -0.19  -0.07   0.03    -0.29  -0.11   0.04    -0.17  -0.07   0.03
    31   1    -0.05  -0.05  -0.04    -0.08  -0.08  -0.06    -0.05  -0.05  -0.05
    32   1    -0.01  -0.02   0.01    -0.01  -0.02   0.03    -0.00  -0.01   0.03
    33   6     0.01  -0.00   0.00     0.01  -0.00   0.00     0.01  -0.00   0.01
    34   6     0.03   0.04   0.05     0.05   0.05   0.07     0.03   0.02   0.03
    35   1     0.13   0.04  -0.08     0.21   0.08  -0.14     0.09   0.04  -0.06
    36   1    -0.03  -0.07   0.05    -0.06  -0.12   0.10    -0.03  -0.06   0.06
    37   1    -0.01   0.07   0.08    -0.00   0.08   0.12     0.01   0.04   0.08
    38   1     0.03   0.03  -0.05     0.06   0.05  -0.10     0.04   0.04  -0.07
    39   1     0.01   0.01  -0.03     0.01   0.01  -0.03    -0.01  -0.00  -0.01
    40   1    -0.01  -0.03   0.13     0.00  -0.03   0.20     0.00  -0.01   0.10
    41   7     0.02   0.02   0.03     0.03   0.02   0.05     0.02   0.01   0.02
    42   6    -0.03  -0.02  -0.03    -0.05  -0.02  -0.05    -0.03  -0.01  -0.02
    43   1    -0.02  -0.02  -0.10    -0.03  -0.04  -0.15    -0.02  -0.03  -0.07
    44   1     0.00  -0.01  -0.04     0.01  -0.01  -0.06     0.01   0.00  -0.03
    45   6     0.01   0.01   0.01     0.02   0.01   0.02     0.01   0.00   0.01
    46   1    -0.05  -0.04   0.03    -0.08  -0.06   0.05    -0.04  -0.02   0.02
    47   1     0.03   0.01  -0.06     0.05   0.02  -0.09     0.03   0.02  -0.05
    48   1    -0.01   0.01  -0.05    -0.03   0.01  -0.08    -0.02  -0.00  -0.03
    49   8    -0.00  -0.01   0.00    -0.00  -0.01  -0.00    -0.00  -0.02   0.00
    50   1    -0.01  -0.01  -0.00    -0.01  -0.07   0.00     0.01   0.02  -0.00
    51   6     0.12  -0.05   0.15    -0.08   0.02  -0.09     0.01  -0.00   0.01
    52   9    -0.07  -0.05  -0.04     0.04   0.03   0.02    -0.00  -0.00  -0.00
    53   9    -0.04   0.08  -0.08     0.02  -0.05   0.05    -0.00   0.00  -0.00
    54   1     0.45  -0.11   0.50    -0.29   0.05  -0.30     0.03  -0.00   0.02
    55   1     0.01   0.12   0.00    -0.00   0.00   0.01    -0.00  -0.02  -0.01
                     88                     89                     90
                      A                      A                      A
 Frequencies --   1219.8487              1229.5801              1239.8493
 Red. masses --      1.5295                 1.3816                 1.2062
 Frc consts  --      1.3409                 1.2306                 1.0925
 IR Inten    --      0.0000                 0.0000                 0.0000
  Atom  AN      X      Y      Z        X      Y      Z        X      Y      Z
     1   6     0.01  -0.00   0.01    -0.00   0.01  -0.00     0.00   0.01   0.00
     2   6    -0.03   0.02  -0.02     0.01  -0.01   0.01     0.01  -0.00   0.01
     3   6     0.00  -0.00   0.00     0.00   0.04  -0.00    -0.01   0.03  -0.01
     4   6     0.05  -0.09   0.05    -0.01   0.04  -0.01    -0.00   0.02  -0.00
     5   6     0.00  -0.02   0.00    -0.00  -0.00  -0.00     0.00  -0.00   0.00
     6   6     0.00   0.04  -0.00    -0.00  -0.01  -0.00    -0.00  -0.00  -0.00
     7   1    -0.03   0.09  -0.03     0.02  -0.16   0.03     0.02  -0.11   0.01
     8   6    -0.05  -0.00  -0.05    -0.03  -0.00  -0.02    -0.01  -0.01  -0.02
     9   1    -0.00   0.09  -0.01    -0.00  -0.04   0.00     0.00   0.01  -0.00
    10   1    -0.13   0.11  -0.10     0.04  -0.03   0.04     0.01  -0.01   0.01
    11   6     0.04   0.08   0.01     0.01  -0.02   0.01     0.01   0.00   0.01
    12   6    -0.03   0.01  -0.02    -0.01  -0.01  -0.00    -0.01   0.00  -0.00
    13   1     0.42   0.59   0.40    -0.06  -0.12  -0.07     0.01  -0.01   0.00
    14   1    -0.06   0.03  -0.04     0.14  -0.08   0.11     0.07  -0.04   0.05
    15   7    -0.04  -0.06  -0.02     0.01   0.00   0.00     0.00  -0.01   0.00
    16   8    -0.00  -0.01   0.00     0.01  -0.01   0.01     0.00  -0.01   0.00
    17   6     0.02   0.02   0.02     0.01  -0.01  -0.02    -0.00   0.03  -0.02
    18   1     0.14   0.03   0.05     0.15  -0.19  -0.13     0.47  -0.26  -0.17
    19   6    -0.00   0.02  -0.00    -0.01   0.01  -0.01    -0.00   0.01  -0.00
    20   1    -0.09  -0.02  -0.07    -0.03   0.00  -0.02    -0.04  -0.00  -0.03
    21   1     0.03  -0.04   0.04     0.01  -0.02   0.02     0.02  -0.03   0.03
    22   1     0.05  -0.04   0.02     0.03  -0.03   0.01     0.03  -0.03   0.01
    23   6    -0.01  -0.01  -0.01    -0.02   0.01   0.01    -0.02  -0.05   0.02
    24   6     0.01   0.00   0.01     0.04  -0.01   0.01     0.03   0.04   0.01
    25   1    -0.04   0.02  -0.02    -0.18   0.11  -0.00    -0.04  -0.23   0.17
    26   6    -0.01   0.01  -0.00    -0.05   0.06   0.01     0.02  -0.01  -0.01
    27   6    -0.01   0.00  -0.01    -0.03   0.03   0.00     0.02  -0.00  -0.00
    28   6    -0.01   0.00  -0.00    -0.04   0.03  -0.00    -0.02  -0.00  -0.04
    29   1     0.03   0.02  -0.02    -0.11  -0.05   0.02     0.13   0.10  -0.07
    30   1    -0.07  -0.04   0.01    -0.12  -0.04   0.03    -0.06  -0.05   0.02
    31   1    -0.01  -0.03  -0.04     0.11   0.02  -0.12    -0.10  -0.06   0.01
    32   1     0.01  -0.00   0.04    -0.06  -0.08   0.16    -0.02  -0.02  -0.06
    33   6     0.01  -0.01   0.00     0.04  -0.03   0.00    -0.00   0.01   0.03
    34   6     0.02   0.00   0.01     0.04  -0.03  -0.00    -0.02  -0.02   0.00
    35   1     0.04   0.03  -0.03     0.00   0.07   0.00    -0.09  -0.03   0.07
    36   1    -0.06  -0.03   0.07    -0.19  -0.03   0.20     0.17   0.02  -0.16
    37   1     0.06  -0.05   0.02     0.26  -0.25   0.02    -0.07   0.20   0.16
    38   1     0.05   0.05  -0.07     0.19   0.21  -0.26    -0.04  -0.05   0.09
    39   1    -0.04  -0.02   0.05    -0.21  -0.13   0.26     0.11   0.09  -0.20
    40   1     0.02   0.04   0.04     0.09   0.21  -0.01    -0.05  -0.11   0.03
    41   7     0.01  -0.01   0.00     0.05  -0.06  -0.02    -0.02   0.02   0.00
    42   6    -0.02   0.00  -0.01    -0.03   0.02  -0.01     0.00   0.01   0.01
    43   1    -0.02  -0.03  -0.02    -0.05  -0.09   0.03     0.00  -0.00   0.01
    44   1     0.02   0.01  -0.01     0.06   0.04  -0.03     0.02   0.02  -0.02
    45   6     0.01  -0.00   0.01     0.02  -0.02   0.01     0.00  -0.01  -0.01
    46   1    -0.03   0.00   0.01    -0.04   0.03   0.00     0.01   0.01  -0.01
    47   1     0.02   0.02  -0.03     0.04   0.07  -0.05    -0.01   0.01   0.02
    48   1    -0.03  -0.01  -0.00    -0.07  -0.04   0.02    -0.01  -0.01   0.03
    49   8    -0.00  -0.01  -0.00    -0.01   0.00   0.01    -0.02  -0.02   0.02
    50   1     0.00   0.00  -0.00     0.06   0.27  -0.00     0.11   0.50  -0.00
    51   6     0.04   0.03   0.02    -0.00  -0.00  -0.00    -0.00   0.00  -0.00
    52   9    -0.03  -0.02  -0.02     0.00   0.00   0.00     0.00   0.00   0.00
    53   9    -0.00   0.00  -0.00    -0.00   0.00  -0.00     0.00  -0.00   0.00
    54   1     0.17   0.02   0.10    -0.02  -0.00  -0.01    -0.01   0.00  -0.01
    55   1     0.01  -0.26  -0.04    -0.00   0.06   0.00     0.00  -0.02  -0.00
                     91                     92                     93
                      A                      A                      A
 Frequencies --   1250.5168              1260.1214              1261.3171
 Red. masses --      1.7910                 1.5151                 2.1057
 Frc consts  --      1.6501                 1.4175                 1.9737
 IR Inten    --      0.0000                 0.0000                 0.0000
  Atom  AN      X      Y      Z        X      Y      Z        X      Y      Z
     1   6     0.02  -0.03   0.02     0.01   0.02   0.01     0.07  -0.00   0.05
     2   6    -0.01   0.03  -0.01     0.01  -0.03   0.01     0.00  -0.07   0.01
     3   6    -0.01  -0.11  -0.00    -0.01   0.04  -0.01    -0.04   0.02  -0.03
     4   6     0.01  -0.06   0.01    -0.00   0.08  -0.01     0.01   0.21  -0.01
     5   6     0.00   0.01   0.00    -0.01  -0.01  -0.01    -0.03  -0.03  -0.02
     6   6     0.01  -0.00   0.01    -0.02  -0.01  -0.01    -0.05  -0.04  -0.03
     7   1    -0.04   0.38  -0.05     0.01  -0.09   0.01    -0.01   0.13  -0.02
     8   6     0.12   0.01   0.09    -0.02  -0.03  -0.03     0.03  -0.08   0.02
     9   1    -0.01   0.13  -0.01    -0.01  -0.09   0.00    -0.03  -0.18  -0.01
    10   1    -0.12   0.06  -0.09     0.09  -0.07   0.07     0.19  -0.16   0.15
    11   6    -0.05   0.04  -0.04     0.02  -0.00   0.02     0.02   0.03   0.01
    12   6     0.06   0.01   0.04    -0.02   0.01  -0.01     0.02   0.05   0.02
    13   1    -0.07   0.06  -0.02     0.03   0.01   0.03    -0.01   0.04   0.06
    14   1    -0.41   0.22  -0.28     0.06  -0.01   0.03    -0.24   0.17  -0.19
    15   7    -0.00   0.02  -0.00     0.00  -0.03   0.00     0.01  -0.07   0.01
    16   8    -0.02   0.03  -0.02     0.00  -0.01   0.00    -0.03   0.02  -0.02
    17   6    -0.06  -0.03  -0.07    -0.01   0.04   0.02    -0.06   0.01  -0.01
    18   1     0.11  -0.22  -0.18     0.19   0.08   0.07     0.10   0.13   0.09
    19   6     0.02  -0.01   0.01    -0.00   0.01  -0.00     0.02   0.01   0.01
    20   1     0.01  -0.01   0.01    -0.03  -0.00  -0.02    -0.07  -0.02  -0.05
    21   1    -0.03   0.03  -0.03     0.01  -0.02   0.02    -0.01   0.00   0.01
    22   1    -0.04   0.04  -0.02     0.02  -0.02   0.01     0.00   0.00  -0.01
    23   6    -0.03   0.00   0.03     0.01  -0.02  -0.00    -0.00   0.01   0.00
    24   6     0.01  -0.00  -0.01    -0.04   0.01  -0.01     0.03  -0.01  -0.00
    25   1     0.06  -0.07   0.04     0.13  -0.11   0.02     0.04   0.02  -0.01
    26   6    -0.03   0.02   0.01    -0.04   0.01   0.02     0.01  -0.00  -0.01
    27   6     0.00   0.01  -0.00    -0.01  -0.01  -0.01     0.01   0.01  -0.00
    28   6    -0.01   0.02   0.02     0.03  -0.02   0.06    -0.03   0.03  -0.03
    29   1     0.04  -0.01   0.01     0.22   0.08  -0.04    -0.12  -0.06   0.03
    30   1    -0.03   0.02  -0.00    -0.01   0.01  -0.01    -0.02  -0.00   0.01
    31   1     0.18   0.14  -0.01     0.20   0.16   0.01    -0.01  -0.00   0.01
    32   1    -0.13  -0.13   0.04    -0.04  -0.04   0.07    -0.04  -0.04  -0.03
    33   6     0.03  -0.02  -0.01     0.02  -0.01  -0.04     0.00  -0.00   0.02
    34   6    -0.02  -0.01  -0.02    -0.00   0.06   0.00    -0.01  -0.05  -0.01
    35   1    -0.17   0.00   0.13    -0.14   0.02   0.12    -0.01   0.00   0.00
    36   1     0.07   0.01  -0.06     0.10  -0.03  -0.09    -0.02   0.02   0.02
    37   1     0.06  -0.07  -0.01    -0.08  -0.10  -0.19     0.07   0.03   0.11
    38   1     0.09   0.09  -0.09     0.07   0.07  -0.12    -0.01  -0.01   0.06
    39   1    -0.12  -0.08   0.14    -0.16  -0.13   0.27     0.05   0.05  -0.13
    40   1     0.02   0.02  -0.15     0.00  -0.20  -0.25     0.01   0.14   0.07
    41   7     0.01  -0.01  -0.01     0.01   0.01  -0.01    -0.00  -0.01   0.00
    42   6     0.02  -0.01   0.02     0.06  -0.06   0.00    -0.02   0.03   0.01
    43   1     0.04   0.06  -0.00     0.14   0.22  -0.20    -0.06  -0.11   0.11
    44   1    -0.03  -0.02   0.04    -0.17  -0.15   0.22     0.09   0.08  -0.12
    45   6    -0.02   0.01  -0.01    -0.06   0.05  -0.00     0.03  -0.03  -0.01
    46   1     0.04  -0.01  -0.01     0.10  -0.09   0.02    -0.04   0.05  -0.02
    47   1    -0.03  -0.04   0.04    -0.09  -0.18   0.07     0.04   0.10  -0.02
    48   1     0.04   0.02   0.01     0.18   0.12  -0.09    -0.09  -0.06   0.06
    49   8    -0.01   0.02   0.01    -0.00  -0.02   0.00     0.02   0.00  -0.00
    50   1     0.06   0.25   0.01    -0.00  -0.02  -0.00    -0.04  -0.20   0.00
    51   6    -0.00   0.01  -0.00    -0.00  -0.00   0.00    -0.01  -0.01   0.01
    52   9    -0.00  -0.00  -0.00     0.00  -0.00   0.00     0.00  -0.00  -0.00
    53   9     0.00  -0.01   0.01    -0.00   0.00  -0.00    -0.00   0.01  -0.01
    54   1    -0.02   0.01  -0.03     0.02  -0.01   0.01     0.06  -0.01   0.02
    55   1     0.01  -0.08   0.01     0.02  -0.16   0.01     0.08  -0.59   0.05
                     94                     95                     96
                      A                      A                      A
 Frequencies --   1278.4858              1297.8612              1300.0534
 Red. masses --      1.3943                 1.5658                 1.3879
 Frc consts  --      1.3428                 1.5540                 1.3821
 IR Inten    --      0.0000                 0.0000                 0.0000
  Atom  AN      X      Y      Z        X      Y      Z        X      Y      Z
     1   6     0.03  -0.01   0.03    -0.05   0.03  -0.04     0.01  -0.00   0.01
     2   6     0.00  -0.03   0.00    -0.00   0.05  -0.01     0.00  -0.01   0.00
     3   6    -0.03  -0.01  -0.02     0.03  -0.01   0.03    -0.01   0.00  -0.01
     4   6    -0.00   0.04  -0.00     0.01  -0.02   0.01    -0.00   0.00  -0.00
     5   6    -0.01  -0.01  -0.00     0.00   0.01   0.00    -0.00  -0.00   0.00
     6   6    -0.01  -0.01  -0.01     0.00   0.01   0.00    -0.00  -0.00  -0.00
     7   1    -0.01   0.07  -0.01    -0.00  -0.00  -0.00     0.00  -0.01  -0.00
     8   6     0.00   0.00   0.04     0.02  -0.03  -0.02    -0.00   0.00   0.00
     9   1    -0.01   0.04  -0.01     0.02  -0.17   0.02    -0.00   0.03  -0.00
    10   1     0.03  -0.03   0.02     0.01   0.01   0.01    -0.00   0.00  -0.00
    11   6     0.00   0.01  -0.00    -0.01  -0.00  -0.00     0.00   0.00   0.00
    12   6     0.02   0.00   0.00     0.01   0.02   0.01    -0.00  -0.00  -0.00
    13   1    -0.00   0.04   0.03    -0.03  -0.05  -0.05     0.01   0.01   0.01
    14   1    -0.07   0.03  -0.02    -0.09   0.06  -0.09     0.02  -0.01   0.02
    15   7     0.01  -0.02   0.01    -0.01   0.02  -0.01     0.00  -0.00   0.00
    16   8    -0.02   0.02  -0.01     0.03  -0.03   0.02    -0.00   0.01  -0.00
    17   6     0.06  -0.01  -0.05    -0.11   0.02  -0.01     0.01   0.00   0.00
    18   1    -0.28  -0.15  -0.18     0.62  -0.00   0.06    -0.05  -0.00  -0.01
    19   6     0.01  -0.00   0.01    -0.02   0.01  -0.02     0.00  -0.00   0.00
    20   1    -0.01  -0.01  -0.01     0.00   0.01   0.00    -0.00  -0.00   0.00
    21   1    -0.01   0.02  -0.01     0.03  -0.04   0.03    -0.01   0.00  -0.00
    22   1    -0.01   0.02  -0.01     0.04  -0.04   0.03    -0.01   0.01  -0.01
    23   6     0.02  -0.02   0.03     0.01  -0.03   0.08     0.02  -0.01  -0.01
    24   6    -0.04   0.02  -0.00    -0.02  -0.01  -0.03    -0.04   0.01   0.00
    25   1    -0.22   0.15  -0.01     0.12   0.09  -0.06    -0.01  -0.16   0.12
    26   6     0.02   0.02   0.02     0.00   0.00   0.02    -0.02  -0.01   0.02
    27   6    -0.01  -0.01   0.03     0.01   0.01   0.01     0.02  -0.02   0.03
    28   6     0.03  -0.04   0.01     0.01   0.02   0.05     0.05  -0.05   0.05
    29   1    -0.01   0.02   0.00     0.06  -0.02   0.04     0.17   0.08  -0.04
    30   1     0.17   0.05  -0.03     0.12   0.11  -0.04    -0.01  -0.01  -0.00
    31   1    -0.24  -0.24  -0.07    -0.10  -0.13  -0.04     0.21   0.18   0.05
    32   1     0.23   0.23   0.04     0.27   0.28   0.06    -0.02  -0.01   0.01
    33   6    -0.04   0.02  -0.01    -0.02   0.01  -0.03     0.01   0.01  -0.03
    34   6     0.03   0.06   0.01     0.01   0.02  -0.02    -0.03   0.07  -0.07
    35   1     0.20  -0.02  -0.15    -0.02  -0.03   0.01    -0.06  -0.10   0.03
    36   1    -0.19   0.02   0.15    -0.25   0.03   0.22     0.12   0.04  -0.13
    37   1    -0.09  -0.04  -0.16    -0.03  -0.11  -0.17    -0.08   0.00  -0.07
    38   1    -0.07  -0.06  -0.01    -0.10  -0.08   0.15     0.03   0.03  -0.09
    39   1     0.03  -0.00   0.05     0.02   0.01  -0.01    -0.09  -0.09   0.27
    40   1    -0.04  -0.18   0.13    -0.02  -0.02   0.08    -0.16  -0.13   0.34
    41   7     0.00  -0.03  -0.04     0.01  -0.05  -0.06    -0.02   0.02  -0.03
    42   6    -0.00  -0.02  -0.04    -0.00   0.00  -0.02    -0.02   0.02  -0.05
    43   1     0.01   0.04  -0.07    -0.04  -0.04   0.10    -0.19  -0.19   0.55
    44   1    -0.06  -0.06   0.14     0.01   0.00   0.00     0.08   0.07  -0.16
    45   6    -0.01   0.02   0.02     0.01  -0.00   0.01     0.06  -0.02   0.03
    46   1    -0.02  -0.05   0.03    -0.03   0.01   0.01    -0.14   0.00   0.04
    47   1    -0.01  -0.05  -0.02     0.02   0.01  -0.02     0.09   0.10  -0.08
    48   1     0.03   0.04  -0.07    -0.03  -0.01  -0.02    -0.16  -0.08   0.00
    49   8    -0.02  -0.01   0.02     0.02   0.00  -0.01    -0.00  -0.00   0.00
    50   1     0.09   0.41  -0.00    -0.03  -0.18   0.01     0.00   0.02  -0.00
    51   6    -0.00   0.00   0.00     0.00   0.00  -0.00    -0.00  -0.00   0.00
    52   9     0.00   0.00  -0.00    -0.00  -0.00  -0.00     0.00   0.00   0.00
    53   9     0.00  -0.00  -0.00     0.00  -0.00   0.00    -0.00   0.00  -0.00
    54   1     0.01   0.00  -0.01    -0.01   0.00  -0.00     0.00  -0.00  -0.00
    55   1     0.03  -0.18   0.02    -0.01   0.06  -0.01     0.00  -0.01   0.00
                     97                     98                     99
                      A                      A                      A
 Frequencies --   1308.3080              1312.1492              1322.7448
 Red. masses --      1.4789                 2.3452                 1.6283
 Frc consts  --      1.4915                 2.3791                 1.6785
 IR Inten    --      0.0000                 0.0000                 0.0000
  Atom  AN      X      Y      Z        X      Y      Z        X      Y      Z
     1   6     0.04  -0.02   0.03     0.13  -0.13   0.11    -0.06  -0.04  -0.04
     2   6     0.00  -0.03   0.00    -0.04  -0.06  -0.03    -0.02   0.05  -0.02
     3   6    -0.01   0.01  -0.01     0.05   0.04   0.03     0.08  -0.08   0.06
     4   6    -0.00   0.01  -0.00     0.05   0.02   0.04     0.06   0.05   0.05
     5   6    -0.00  -0.01  -0.00    -0.06  -0.05  -0.04    -0.02   0.04  -0.02
     6   6     0.00  -0.00   0.00     0.02  -0.01   0.01    -0.02  -0.01  -0.02
     7   1    -0.00  -0.00  -0.00    -0.07   0.40  -0.08    -0.06   0.64  -0.09
     8   6    -0.01   0.02   0.00    -0.02   0.05  -0.04    -0.06   0.01  -0.04
     9   1    -0.01   0.14  -0.02    -0.08   0.25  -0.08     0.02  -0.59   0.05
    10   1    -0.03   0.01  -0.02    -0.14   0.06  -0.11     0.19  -0.12   0.15
    11   6     0.01  -0.00   0.00     0.01  -0.05   0.01     0.00  -0.06   0.01
    12   6    -0.01  -0.01  -0.01    -0.04  -0.01  -0.02    -0.01   0.02  -0.01
    13   1     0.01   0.01   0.02     0.02  -0.08  -0.02     0.09  -0.01   0.02
    14   1     0.08  -0.05   0.06     0.29  -0.15   0.19     0.08  -0.02   0.07
    15   7     0.00  -0.01   0.00    -0.02   0.03  -0.02    -0.02   0.04  -0.02
    16   8    -0.02   0.02  -0.02    -0.08   0.10  -0.07     0.02  -0.01   0.01
    17   6     0.04   0.01  -0.00    -0.05  -0.01   0.02     0.06  -0.03  -0.01
    18   1    -0.11  -0.03  -0.05     0.39  -0.01   0.07    -0.06   0.06   0.03
    19   6     0.01  -0.00   0.01     0.06  -0.02   0.05    -0.01  -0.01  -0.00
    20   1    -0.00  -0.01  -0.01    -0.07  -0.07  -0.05    -0.04  -0.02  -0.02
    21   1    -0.02   0.03  -0.02    -0.12   0.12  -0.10     0.00   0.01  -0.01
    22   1    -0.02   0.02  -0.02    -0.13   0.12  -0.11    -0.01   0.01   0.00
    23   6    -0.01  -0.04  -0.01     0.01   0.00   0.02    -0.01  -0.01  -0.01
    24   6    -0.00  -0.01  -0.03     0.00   0.00   0.00    -0.00   0.00   0.00
    25   1     0.07   0.03  -0.10     0.03  -0.02   0.04    -0.04  -0.01   0.01
    26   6    -0.01  -0.05   0.02    -0.00   0.01  -0.00    -0.00  -0.00   0.00
    27   6     0.02   0.02  -0.03    -0.00  -0.00   0.01    -0.00  -0.00  -0.00
    28   6     0.02   0.06   0.10    -0.01  -0.00  -0.02     0.01  -0.00   0.01
    29   1     0.35   0.08  -0.04    -0.08  -0.03   0.02     0.06   0.02  -0.01
    30   1    -0.29   0.01   0.02     0.10   0.03  -0.01    -0.03  -0.01   0.01
    31   1     0.16   0.14   0.10    -0.08  -0.08  -0.05     0.01   0.02   0.01
    32   1     0.14   0.17  -0.03     0.05   0.04   0.03    -0.02  -0.02  -0.01
    33   6     0.01   0.01  -0.07    -0.01  -0.00   0.01     0.00   0.00  -0.01
    34   6    -0.03  -0.05   0.02     0.01   0.01  -0.01    -0.01  -0.00   0.01
    35   1    -0.02   0.03   0.01    -0.02  -0.00   0.02     0.01   0.01  -0.01
    36   1    -0.23  -0.00   0.21     0.01   0.01  -0.01     0.04  -0.01  -0.03
    37   1    -0.10   0.00  -0.13     0.04  -0.04  -0.01    -0.02   0.03   0.02
    38   1    -0.13  -0.12   0.32     0.01   0.01  -0.03    -0.00  -0.00   0.01
    39   1     0.02   0.01  -0.06     0.01   0.01  -0.01    -0.01  -0.01   0.03
    40   1     0.11   0.32  -0.27    -0.03  -0.10   0.07     0.02   0.05  -0.06
    41   7    -0.02   0.01  -0.02     0.01  -0.02  -0.01    -0.00   0.01   0.01
    42   6     0.01   0.00   0.04    -0.00  -0.00  -0.01     0.00  -0.00   0.01
    43   1     0.00  -0.01   0.04     0.00   0.01  -0.02    -0.00  -0.00   0.02
    44   1     0.06   0.07  -0.25    -0.02  -0.03   0.09     0.02   0.02  -0.08
    45   6     0.00  -0.02  -0.02    -0.00   0.01   0.01     0.00  -0.01  -0.00
    46   1     0.04   0.06  -0.04    -0.01  -0.02   0.01     0.01   0.01  -0.01
    47   1     0.01   0.05   0.01    -0.00  -0.02  -0.00     0.00   0.01   0.00
    48   1    -0.01  -0.03   0.05     0.01   0.01  -0.02    -0.00  -0.01   0.01
    49   8    -0.01  -0.01   0.01     0.01   0.01  -0.01    -0.01  -0.01   0.01
    50   1     0.03   0.18  -0.00    -0.04  -0.18   0.00     0.04   0.21   0.00
    51   6    -0.00  -0.00   0.00     0.00  -0.01   0.01     0.01  -0.00  -0.00
    52   9     0.00   0.00   0.00     0.00   0.00   0.00    -0.00  -0.00  -0.00
    53   9    -0.00   0.00  -0.00    -0.00   0.00  -0.00    -0.00   0.00  -0.00
    54   1    -0.00   0.00  -0.01    -0.04  -0.00  -0.04    -0.02  -0.00   0.00
    55   1     0.00   0.01  -0.00    -0.05   0.31  -0.04    -0.02  -0.00  -0.01
                    100                    101                    102
                      A                      A                      A
 Frequencies --   1327.9041              1340.1967              1343.5471
 Red. masses --      1.3251                 1.2904                 1.6292
 Frc consts  --      1.3767                 1.3656                 1.7327
 IR Inten    --      0.0000                 0.0000                 0.0000
  Atom  AN      X      Y      Z        X      Y      Z        X      Y      Z
     1   6    -0.01  -0.00  -0.00     0.00  -0.00   0.00    -0.00  -0.01  -0.00
     2   6     0.00   0.00  -0.00     0.00  -0.01   0.00     0.00   0.00   0.00
     3   6     0.00  -0.01   0.00    -0.00   0.00  -0.00     0.00  -0.00   0.00
     4   6     0.00   0.00   0.00    -0.00   0.00  -0.00    -0.01  -0.00  -0.00
     5   6    -0.00   0.00  -0.00     0.00  -0.00   0.00     0.00   0.01  -0.00
     6   6    -0.00  -0.00  -0.00    -0.00   0.00  -0.00     0.00  -0.00   0.00
     7   1    -0.00   0.04  -0.01    -0.00  -0.00   0.01     0.00   0.03  -0.00
     8   6    -0.00   0.00  -0.00    -0.01   0.00  -0.00     0.00   0.01   0.00
     9   1     0.00  -0.04   0.00     0.00   0.01  -0.00    -0.00   0.01   0.00
    10   1     0.02  -0.01   0.01     0.01  -0.00   0.00     0.01  -0.00   0.00
    11   6    -0.00  -0.00  -0.00     0.00  -0.00   0.00     0.01  -0.01  -0.00
    12   6     0.00  -0.00   0.00    -0.01   0.00  -0.01    -0.00  -0.00  -0.00
    13   1     0.01   0.00   0.00     0.01   0.01   0.01    -0.05  -0.01   0.03
    14   1     0.00  -0.00   0.00     0.02  -0.01   0.02     0.02  -0.01   0.01
    15   7    -0.00   0.00  -0.00     0.00  -0.00   0.00     0.00   0.00   0.00
    16   8     0.00  -0.00   0.00    -0.00   0.00  -0.00    -0.00   0.00  -0.00
    17   6     0.01  -0.01   0.00     0.03   0.01  -0.00     0.00  -0.00   0.00
    18   1    -0.07   0.00   0.00    -0.04   0.02   0.00     0.00  -0.02  -0.01
    19   6    -0.00  -0.00  -0.00     0.00  -0.00   0.00     0.00  -0.00   0.00
    20   1     0.00  -0.00  -0.00    -0.00  -0.00   0.00    -0.00  -0.00  -0.00
    21   1     0.00   0.00  -0.00     0.00   0.00  -0.00    -0.00   0.01  -0.01
    22   1     0.00   0.00   0.00     0.00   0.00   0.00    -0.01   0.01  -0.00
    23   6    -0.01   0.01  -0.03    -0.02  -0.02   0.02    -0.00  -0.00   0.00
    24   6     0.09   0.02  -0.00    -0.07  -0.04   0.00    -0.00  -0.00  -0.00
    25   1    -0.12  -0.09   0.09     0.22   0.20  -0.24     0.03   0.02  -0.03
    26   6    -0.01  -0.04  -0.01     0.01  -0.00   0.01    -0.00   0.00  -0.00
    27   6     0.07   0.00  -0.03     0.05   0.01  -0.03     0.00  -0.00  -0.01
    28   6    -0.04   0.03   0.02    -0.01   0.01  -0.04    -0.00   0.01   0.00
    29   1    -0.18  -0.04   0.00     0.18   0.01   0.01     0.02   0.00  -0.00
    30   1    -0.36  -0.10   0.06     0.31   0.10  -0.05     0.02   0.01  -0.00
    31   1     0.22   0.21   0.09    -0.08  -0.03   0.04    -0.01  -0.01  -0.01
    32   1     0.06   0.05  -0.03    -0.10  -0.11  -0.02     0.01   0.01   0.00
    33   6     0.01  -0.01   0.02     0.04   0.03  -0.06    -0.00  -0.01   0.01
    34   6     0.02  -0.02  -0.03    -0.01  -0.04  -0.03    -0.00   0.01  -0.00
    35   1    -0.19  -0.07   0.13    -0.22  -0.03   0.17    -0.05  -0.00   0.04
    36   1    -0.23   0.00   0.23    -0.06  -0.01   0.07    -0.00  -0.01   0.01
    37   1    -0.08  -0.02  -0.09     0.26   0.05   0.39     0.02  -0.04  -0.04
    38   1    -0.01  -0.02   0.09    -0.07  -0.05   0.25     0.01   0.01  -0.03
    39   1     0.04   0.05  -0.16    -0.04  -0.07   0.24     0.01   0.01  -0.05
    40   1    -0.08  -0.13   0.36    -0.04   0.13   0.29    -0.01  -0.04  -0.01
    41   7    -0.02   0.01  -0.01    -0.01   0.01   0.03     0.00  -0.00   0.01
    42   6    -0.00   0.01  -0.06    -0.01   0.02  -0.02     0.00  -0.00  -0.00
    43   1    -0.01  -0.01  -0.06    -0.01  -0.04  -0.05    -0.01  -0.00   0.02
    44   1    -0.11  -0.12   0.46    -0.07  -0.06   0.27     0.00   0.00  -0.01
    45   6    -0.00   0.03   0.02     0.00   0.02   0.00     0.00  -0.00   0.00
    46   1    -0.05  -0.08   0.05    -0.04  -0.07   0.03    -0.00   0.01  -0.00
    47   1    -0.02  -0.10   0.00    -0.01  -0.04   0.02     0.00   0.00  -0.00
    48   1    -0.01   0.03  -0.06    -0.01   0.01   0.01    -0.00  -0.00  -0.00
    49   8     0.00   0.00  -0.00    -0.01  -0.01   0.01    -0.00   0.00  -0.00
    50   1    -0.01  -0.02  -0.00     0.02   0.11  -0.00     0.00   0.01   0.00
    51   6     0.00   0.00  -0.00     0.00  -0.00   0.00    -0.15   0.02  -0.16
    52   9    -0.00  -0.00  -0.00     0.00   0.00   0.00     0.04  -0.01   0.02
    53   9     0.00  -0.00   0.00    -0.00   0.00  -0.00     0.02  -0.00   0.04
    54   1    -0.00   0.00   0.00     0.00  -0.00  -0.00     0.67  -0.10   0.68
    55   1     0.00  -0.01   0.00     0.00  -0.00   0.00    -0.01   0.03   0.02
                    103                    104                    105
                      A                      A                      A
 Frequencies --   1344.3742              1355.8937              1364.0862
 Red. masses --      1.3489                 1.4382                 1.4776
 Frc consts  --      1.4364                 1.5579                 1.6199
 IR Inten    --      0.0000                 0.0000                 0.0000
  Atom  AN      X      Y      Z        X      Y      Z        X      Y      Z
     1   6     0.00  -0.00   0.00     0.00  -0.00   0.00     0.01   0.00   0.00
     2   6    -0.00   0.01  -0.00    -0.00  -0.00  -0.00    -0.01   0.00  -0.00
     3   6     0.00  -0.00   0.00     0.00  -0.00   0.00     0.01   0.01   0.01
     4   6     0.00  -0.00   0.00     0.00   0.00   0.00     0.00   0.00   0.00
     5   6    -0.00  -0.00  -0.00    -0.00  -0.00  -0.00    -0.00  -0.01  -0.00
     6   6     0.00  -0.00   0.00    -0.00   0.00  -0.00     0.00   0.00   0.00
     7   1     0.00   0.01  -0.01     0.00   0.02  -0.01    -0.01  -0.02  -0.00
     8   6     0.01  -0.00   0.00    -0.00  -0.00   0.00    -0.01  -0.02  -0.01
     9   1    -0.00  -0.00  -0.00    -0.00  -0.00   0.00    -0.00   0.01  -0.00
    10   1    -0.01   0.00  -0.01     0.00  -0.00   0.00    -0.02   0.01  -0.01
    11   6    -0.00   0.00  -0.00     0.00  -0.00   0.00     0.00   0.00   0.00
    12   6     0.00  -0.00   0.00    -0.00   0.00  -0.00    -0.00   0.01  -0.00
    13   1    -0.02  -0.01  -0.01     0.00   0.00   0.00    -0.01  -0.02  -0.01
    14   1    -0.02   0.01  -0.02     0.00  -0.00   0.01    -0.01   0.01  -0.00
    15   7    -0.00   0.00  -0.00    -0.00   0.00  -0.00    -0.00  -0.00  -0.00
    16   8     0.00  -0.00   0.00    -0.00   0.00  -0.00     0.00  -0.00  -0.00
    17   6    -0.04  -0.00   0.00     0.00   0.00  -0.00     0.01   0.00  -0.01
    18   1     0.07  -0.04  -0.01     0.02  -0.01  -0.01     0.10   0.03   0.02
    19   6    -0.00   0.00   0.00     0.00   0.00   0.00    -0.00   0.00  -0.00
    20   1    -0.00  -0.00  -0.00     0.01   0.00  -0.00    -0.00   0.00  -0.00
    21   1    -0.00  -0.00   0.00    -0.00   0.00  -0.00     0.00  -0.00   0.00
    22   1    -0.00  -0.00  -0.00     0.00  -0.00   0.00    -0.00  -0.00  -0.00
    23   6     0.04   0.01  -0.01     0.02  -0.01   0.03    -0.02  -0.05   0.06
    24   6     0.02   0.03   0.01    -0.07  -0.01   0.02     0.04  -0.00  -0.02
    25   1    -0.22  -0.20   0.26     0.09  -0.14   0.10     0.12   0.23  -0.22
    26   6    -0.00   0.00   0.03    -0.02  -0.04  -0.01     0.06  -0.00   0.02
    27   6    -0.04   0.01   0.04     0.04  -0.01  -0.00    -0.00  -0.03   0.05
    28   6     0.01  -0.07  -0.01     0.03  -0.01  -0.07    -0.07   0.03   0.01
    29   1    -0.10   0.00   0.01     0.15   0.05  -0.01    -0.10  -0.07   0.05
    30   1    -0.11  -0.08   0.02     0.36   0.06  -0.05    -0.04   0.01  -0.00
    31   1     0.06   0.04   0.03     0.40   0.35   0.10     0.10   0.16   0.14
    32   1    -0.01   0.02   0.00     0.03   0.04  -0.03    -0.34  -0.33  -0.14
    33   6     0.04   0.04  -0.08    -0.02  -0.02   0.09     0.03  -0.01  -0.03
    34   6     0.00  -0.05   0.01     0.01  -0.00   0.01     0.04   0.04   0.01
    35   1     0.34   0.01  -0.28     0.15  -0.03  -0.12     0.41  -0.05  -0.32
    36   1     0.00   0.04  -0.03    -0.31   0.05   0.25    -0.04   0.08  -0.02
    37   1    -0.12   0.29   0.30     0.07   0.07   0.09     0.12  -0.21  -0.06
    38   1    -0.07  -0.05   0.22     0.14   0.14  -0.28    -0.04  -0.05   0.18
    39   1    -0.08  -0.11   0.37     0.11   0.07  -0.13    -0.06  -0.02  -0.03
    40   1     0.06   0.28   0.07     0.01   0.09   0.11    -0.02  -0.32  -0.09
    41   7    -0.03  -0.00  -0.05    -0.07   0.02  -0.06    -0.07   0.07  -0.04
    42   6    -0.01   0.00   0.00    -0.02  -0.00   0.04     0.00  -0.01  -0.01
    43   1     0.04   0.03  -0.18     0.05   0.04  -0.23    -0.02  -0.01   0.06
    44   1    -0.04  -0.03   0.13     0.03   0.03  -0.09     0.00  -0.00  -0.02
    45   6    -0.01   0.01  -0.01    -0.01  -0.01  -0.01     0.00  -0.00   0.01
    46   1     0.01  -0.05   0.01     0.04   0.05  -0.03    -0.00   0.00   0.01
    47   1    -0.02  -0.03   0.02    -0.01   0.05   0.01     0.01   0.00  -0.03
    48   1     0.02   0.02   0.02     0.05   0.01   0.01    -0.01   0.00  -0.03
    49   8     0.01   0.01  -0.01    -0.00  -0.00   0.00    -0.00  -0.01   0.01
    50   1    -0.02  -0.12   0.00     0.00   0.03  -0.00     0.02   0.08   0.00
    51   6    -0.02   0.00  -0.02     0.00   0.00  -0.00    -0.00  -0.00  -0.00
    52   9     0.00  -0.00   0.00    -0.00   0.00   0.00     0.00   0.00   0.00
    53   9     0.00  -0.00   0.00     0.00  -0.00   0.00     0.00   0.00   0.00
    54   1     0.07  -0.01   0.07    -0.00  -0.00   0.00     0.01  -0.00   0.01
    55   1    -0.00   0.01  -0.00    -0.00   0.01  -0.00    -0.01   0.04  -0.01
                    106                    107                    108
                      A                      A                      A
 Frequencies --   1374.9196              1377.7730              1382.6221
 Red. masses --      1.5856                 1.5409                 1.8569
 Frc consts  --      1.7661                 1.7234                 2.0915
 IR Inten    --      0.0000                 0.0000                 0.0000
  Atom  AN      X      Y      Z        X      Y      Z        X      Y      Z
     1   6    -0.03  -0.04  -0.02    -0.00  -0.00  -0.00    -0.05  -0.06  -0.03
     2   6     0.04  -0.00   0.03     0.00  -0.00   0.00     0.06  -0.01   0.04
     3   6    -0.04  -0.03  -0.03    -0.00  -0.01  -0.00    -0.05  -0.02  -0.04
     4   6    -0.04  -0.00  -0.03    -0.00   0.00  -0.00    -0.08  -0.01  -0.06
     5   6     0.02   0.04   0.01     0.00   0.01   0.00     0.03   0.06   0.02
     6   6    -0.00  -0.01  -0.00    -0.00  -0.00  -0.00     0.00  -0.01   0.00
     7   1     0.03   0.11   0.03     0.00   0.03  -0.00     0.05   0.11   0.05
     8   6     0.02   0.09   0.01     0.00   0.01   0.00     0.03   0.13   0.01
     9   1     0.03  -0.07   0.02     0.00  -0.01   0.00     0.04  -0.05   0.03
    10   1     0.11  -0.07   0.09     0.02  -0.01   0.01     0.16  -0.09   0.13
    11   6    -0.01  -0.01  -0.01    -0.00  -0.00  -0.00    -0.01  -0.02  -0.02
    12   6    -0.01  -0.03  -0.00    -0.00  -0.00  -0.00    -0.02  -0.04  -0.01
    13   1     0.09   0.12   0.09     0.02   0.02   0.01     0.13   0.19   0.15
    14   1     0.14  -0.09   0.09     0.03  -0.02   0.02     0.22  -0.14   0.15
    15   7     0.03  -0.00   0.02     0.00  -0.00   0.00     0.04  -0.02   0.04
    16   8     0.00   0.01   0.00     0.00   0.00  -0.00     0.00   0.03  -0.00
    17   6    -0.04   0.00   0.04    -0.01   0.01   0.01    -0.01   0.01   0.01
    18   1    -0.01  -0.29  -0.15     0.04  -0.06  -0.03     0.16  -0.14  -0.07
    19   6     0.00  -0.01   0.00     0.00  -0.00   0.00     0.01  -0.01   0.01
    20   1     0.01  -0.01   0.01     0.00  -0.00  -0.00     0.01  -0.01   0.01
    21   1    -0.01   0.02  -0.02    -0.00   0.00  -0.00    -0.02   0.04  -0.03
    22   1    -0.02   0.02  -0.01    -0.00   0.00  -0.00    -0.04   0.04  -0.01
    23   6     0.06   0.02  -0.04     0.02  -0.00   0.00    -0.05  -0.03   0.06
    24   6    -0.03  -0.02   0.03    -0.05  -0.01  -0.00     0.03   0.01  -0.03
    25   1    -0.24  -0.21   0.25    -0.00  -0.08   0.07     0.30   0.21  -0.26
    26   6     0.03   0.02   0.01     0.06   0.05   0.00    -0.05  -0.04  -0.01
    27   6     0.02   0.00  -0.01    -0.00   0.02   0.00    -0.04  -0.00   0.03
    28   6    -0.07   0.05  -0.01     0.07   0.04   0.04     0.02  -0.02   0.00
    29   1     0.28   0.08  -0.03     0.23   0.08  -0.05    -0.24  -0.08   0.03
    30   1     0.06  -0.06   0.02     0.05   0.07  -0.01    -0.00   0.07  -0.02
    31   1    -0.10  -0.07   0.00    -0.16  -0.11  -0.02     0.17   0.12  -0.00
    32   1    -0.09  -0.09  -0.03    -0.28  -0.28  -0.07     0.18   0.19   0.03
    33   6     0.02   0.00  -0.02    -0.04  -0.05   0.03    -0.00   0.00   0.02
    34   6     0.02   0.04   0.01    -0.03  -0.09   0.04     0.00  -0.03  -0.02
    35   1    -0.04  -0.02   0.03     0.12   0.00  -0.12     0.14   0.03  -0.10
    36   1    -0.14   0.00   0.13    -0.04   0.01   0.04     0.22   0.02  -0.21
    37   1     0.27  -0.23   0.08    -0.14   0.06  -0.22    -0.11   0.09  -0.03
    38   1    -0.06  -0.05   0.20     0.07   0.08  -0.21     0.03   0.03  -0.08
    39   1    -0.02  -0.00  -0.01     0.03   0.03  -0.18     0.03   0.02  -0.02
    40   1    -0.02  -0.28  -0.12     0.10   0.35  -0.12     0.02   0.13   0.07
    41   7    -0.02  -0.02  -0.01    -0.04  -0.00  -0.01     0.03   0.02  -0.00
    42   6     0.00  -0.01   0.01     0.03   0.03  -0.10    -0.00   0.01  -0.01
    43   1     0.01   0.02   0.01    -0.07  -0.10   0.27    -0.01  -0.02  -0.00
    44   1     0.03   0.02  -0.10    -0.12  -0.11   0.40    -0.03  -0.02   0.11
    45   6    -0.01  -0.01   0.00     0.01   0.02   0.02     0.01   0.01  -0.00
    46   1     0.03   0.03  -0.01    -0.08  -0.08   0.06    -0.04  -0.04   0.02
    47   1     0.01   0.03  -0.03    -0.00  -0.13   0.01    -0.01  -0.04   0.03
    48   1     0.03   0.00  -0.01    -0.11  -0.01  -0.02    -0.03  -0.00   0.02
    49   8     0.01   0.02  -0.02     0.00   0.00  -0.00    -0.00   0.00  -0.01
    50   1    -0.06  -0.28  -0.01    -0.01  -0.05  -0.00    -0.01  -0.03  -0.01
    51   6     0.00   0.00   0.00     0.00   0.00   0.00     0.00   0.00   0.01
    52   9    -0.00  -0.00  -0.00    -0.00  -0.00  -0.00    -0.00  -0.00  -0.00
    53   9    -0.00  -0.00  -0.00    -0.00  -0.00  -0.00    -0.00  -0.00  -0.00
    54   1    -0.02   0.00  -0.01    -0.00   0.00  -0.00    -0.02   0.01  -0.02
    55   1     0.05  -0.17   0.04     0.00  -0.01   0.00     0.07  -0.20   0.06
                    109                    110                    111
                      A                      A                      A
 Frequencies --   1387.0365              1401.4374              1413.8351
 Red. masses --      1.4646                 1.6273                 1.4150
 Frc consts  --      1.6601                 1.8831                 1.6665
 IR Inten    --      0.0000                 0.0000                 0.0000
  Atom  AN      X      Y      Z        X      Y      Z        X      Y      Z
     1   6     0.01   0.01   0.01     0.00   0.01   0.00     0.02   0.04   0.01
     2   6    -0.01   0.01  -0.01    -0.00   0.00  -0.00    -0.01  -0.01  -0.01
     3   6     0.01   0.00   0.01     0.00  -0.00   0.00    -0.03  -0.03  -0.02
     4   6     0.02   0.00   0.01     0.01   0.00   0.01     0.05   0.01   0.04
     5   6    -0.01  -0.01  -0.00    -0.00  -0.00  -0.00    -0.00  -0.02  -0.00
     6   6    -0.00   0.00  -0.00    -0.00  -0.00  -0.00    -0.01   0.00  -0.01
     7   1    -0.01  -0.03  -0.01    -0.00  -0.01  -0.00    -0.02  -0.03  -0.00
     8   6    -0.01  -0.03  -0.00    -0.01  -0.01  -0.00    -0.01   0.01  -0.00
     9   1    -0.01   0.00  -0.01    -0.00  -0.01  -0.00    -0.00  -0.03  -0.00
    10   1    -0.03   0.02  -0.03    -0.01   0.00  -0.01    -0.02   0.01  -0.02
    11   6     0.00   0.00   0.00     0.00  -0.00   0.00    -0.01  -0.03  -0.00
    12   6     0.01   0.01   0.01     0.00   0.00   0.00     0.01  -0.00   0.01
    13   1    -0.03  -0.04  -0.03    -0.00  -0.01  -0.01     0.02  -0.01  -0.01
    14   1    -0.06   0.04  -0.04    -0.02   0.01  -0.01     0.01   0.00   0.00
    15   7    -0.01   0.01  -0.01    -0.00   0.00  -0.00    -0.01   0.03  -0.01
    16   8     0.00  -0.01   0.00     0.00  -0.00   0.00     0.00  -0.01   0.00
    17   6     0.01  -0.00  -0.00     0.01   0.00   0.01    -0.01   0.02   0.03
    18   1    -0.10   0.03   0.01    -0.07  -0.00  -0.01     0.00  -0.20  -0.12
    19   6    -0.00   0.00  -0.00    -0.00   0.00  -0.00    -0.01   0.01  -0.00
    20   1    -0.00   0.00   0.00    -0.01  -0.00   0.00     0.02   0.02   0.02
    21   1     0.00  -0.01   0.01     0.00  -0.01   0.01     0.02  -0.03   0.02
    22   1     0.01  -0.01  -0.00    -0.00  -0.00  -0.01     0.03  -0.02   0.02
    23   6     0.00   0.02  -0.02    -0.01   0.03  -0.01     0.02  -0.02   0.00
    24   6    -0.02  -0.03   0.02    -0.02  -0.03   0.00    -0.01   0.00  -0.00
    25   1     0.00  -0.09   0.07     0.14  -0.20   0.10    -0.12   0.13  -0.06
    26   6    -0.07  -0.05  -0.01     0.01   0.02   0.01     0.00  -0.00  -0.00
    27   6    -0.06   0.00   0.04    -0.04   0.01   0.06     0.00  -0.01  -0.00
    28   6    -0.07   0.06  -0.04    -0.01   0.08   0.07     0.00   0.00   0.01
    29   1     0.19   0.03  -0.02     0.23   0.05  -0.05     0.02   0.01  -0.00
    30   1     0.12  -0.00   0.00    -0.05   0.06   0.02     0.01   0.01  -0.01
    31   1     0.21   0.12  -0.02    -0.07  -0.09  -0.05     0.01   0.02   0.01
    32   1     0.32   0.34   0.05    -0.01   0.01  -0.01    -0.02  -0.02  -0.02
    33   6     0.02   0.01   0.02    -0.02  -0.02  -0.00    -0.00  -0.00   0.00
    34   6     0.01  -0.03   0.04     0.05  -0.06  -0.14     0.01   0.01  -0.02
    35   1     0.18   0.04  -0.14     0.12  -0.08  -0.15     0.00   0.02   0.02
    36   1     0.23  -0.01  -0.21     0.28   0.01  -0.22     0.00   0.01  -0.02
    37   1     0.29  -0.16   0.15     0.13  -0.27  -0.22    -0.02  -0.04  -0.08
    38   1    -0.02  -0.02   0.14    -0.00   0.04   0.01     0.01   0.00  -0.03
    39   1     0.05   0.06  -0.12     0.05   0.02  -0.11     0.00   0.00  -0.02
    40   1     0.06  -0.09  -0.25    -0.04   0.14   0.51    -0.01  -0.01   0.06
    41   7     0.04  -0.01  -0.01     0.01  -0.01  -0.01    -0.00   0.01   0.01
    42   6     0.03   0.02  -0.07    -0.04   0.00   0.08    -0.02  -0.02   0.05
    43   1    -0.06  -0.07   0.24     0.07   0.03  -0.37     0.03   0.01  -0.14
    44   1    -0.08  -0.07   0.24     0.01   0.01   0.06     0.01   0.02  -0.13
    45   6     0.01   0.02   0.01    -0.02  -0.01  -0.01     0.08   0.07  -0.09
    46   1    -0.08  -0.12   0.06     0.05   0.10  -0.04    -0.36  -0.35   0.08
    47   1    -0.00  -0.11   0.02    -0.01   0.08   0.01    -0.10  -0.30   0.44
    48   1    -0.10  -0.02   0.02     0.11   0.03  -0.05    -0.34  -0.09   0.36
    49   8    -0.00  -0.00   0.00    -0.00  -0.00   0.00     0.01   0.01  -0.01
    50   1     0.01   0.04   0.00     0.00   0.02   0.00    -0.02  -0.11  -0.00
    51   6    -0.00  -0.00  -0.00     0.00  -0.00  -0.00     0.00   0.00  -0.00
    52   9    -0.00  -0.00   0.00    -0.00  -0.00   0.00    -0.00  -0.00   0.00
    53   9    -0.00   0.00   0.00    -0.00   0.00  -0.00     0.00  -0.00   0.00
    54   1     0.00  -0.00   0.00    -0.00  -0.00   0.00    -0.00  -0.00   0.01
    55   1    -0.01   0.03  -0.01    -0.00   0.00  -0.00    -0.01  -0.00  -0.00
                    112                    113                    114
                      A                      A                      A
 Frequencies --   1414.5329              1423.1307              1440.1396
 Red. masses --      1.9577                 1.9232                 1.6919
 Frc consts  --      2.3080                 2.2949                 2.0675
 IR Inten    --      0.0000                 0.0000                 0.0000
  Atom  AN      X      Y      Z        X      Y      Z        X      Y      Z
     1   6    -0.05  -0.08  -0.03     0.03   0.06   0.02    -0.01  -0.00  -0.01
     2   6     0.02   0.03   0.02     0.00  -0.05   0.00     0.03  -0.05   0.03
     3   6     0.07   0.06   0.05    -0.09  -0.03  -0.07    -0.08   0.03  -0.06
     4   6    -0.11  -0.02  -0.08     0.08   0.00   0.06     0.04  -0.03   0.03
     5   6     0.01   0.05   0.00     0.00  -0.04   0.01     0.02  -0.02   0.01
     6   6     0.03  -0.01   0.03    -0.03   0.02  -0.02    -0.02   0.03  -0.02
     7   1     0.04   0.08   0.00     0.00  -0.07   0.01     0.05  -0.04   0.01
     8   6     0.01  -0.03   0.01    -0.00   0.07  -0.00     0.03   0.07   0.01
     9   1     0.01   0.07   0.00     0.00  -0.05   0.01     0.02  -0.02   0.02
    10   1     0.04  -0.02   0.04     0.01   0.00   0.00     0.07  -0.01   0.05
    11   6     0.03   0.06   0.01    -0.05  -0.07  -0.03    -0.05  -0.05  -0.04
    12   6    -0.03   0.00  -0.02     0.04  -0.02   0.02     0.03  -0.03   0.02
    13   1    -0.05   0.01   0.01     0.09   0.06   0.04     0.07   0.10   0.05
    14   1    -0.03   0.00  -0.02     0.06  -0.03   0.05     0.03  -0.02   0.01
    15   7     0.02  -0.07   0.02    -0.00   0.07  -0.00     0.01   0.05   0.01
    16   8    -0.00   0.02  -0.00     0.00  -0.01   0.00     0.00   0.00   0.00
    17   6     0.01  -0.05  -0.06     0.04   0.00   0.01    -0.04  -0.08  -0.09
    18   1    -0.01   0.43   0.26    -0.06   0.10   0.06     0.24   0.61   0.40
    19   6     0.01  -0.01   0.01    -0.01   0.01  -0.01    -0.00  -0.00  -0.00
    20   1    -0.04  -0.04  -0.04     0.05   0.03   0.04     0.02   0.00   0.00
    21   1    -0.06   0.06  -0.06     0.07  -0.03   0.04     0.03   0.02  -0.01
    22   1    -0.06   0.05  -0.04     0.06  -0.03   0.07     0.01   0.01   0.04
    23   6    -0.04   0.06  -0.01    -0.08   0.07   0.01     0.05  -0.01  -0.01
    24   6     0.01  -0.01   0.01     0.03  -0.01   0.00    -0.02   0.00   0.00
    25   1     0.24  -0.33   0.19     0.68  -0.47   0.13    -0.43   0.17   0.04
    26   6     0.02   0.03   0.01     0.02   0.04   0.01    -0.00  -0.01  -0.00
    27   6     0.01   0.00   0.00     0.01   0.01   0.01    -0.00  -0.00  -0.00
    28   6    -0.01   0.01  -0.00    -0.01  -0.01  -0.02    -0.00   0.02   0.01
    29   1    -0.02  -0.01   0.01    -0.18  -0.05  -0.00     0.15   0.01   0.05
    30   1    -0.00  -0.01   0.01    -0.02   0.04   0.01     0.02  -0.08  -0.01
    31   1    -0.10  -0.08  -0.03    -0.12  -0.09  -0.03     0.03   0.02   0.00
    32   1    -0.03  -0.03   0.02     0.01  -0.01   0.06    -0.03  -0.02  -0.03
    33   6     0.00  -0.00  -0.01     0.00   0.00  -0.01    -0.00  -0.00   0.00
    34   6     0.01   0.02   0.01    -0.00   0.02   0.03     0.00  -0.01  -0.01
    35   1     0.01  -0.05  -0.04     0.01  -0.08  -0.07     0.01   0.04   0.03
    36   1    -0.10  -0.02   0.12    -0.11  -0.05   0.15     0.03   0.03  -0.06
    37   1     0.04  -0.05  -0.01     0.00   0.02   0.04     0.04  -0.04  -0.02
    38   1    -0.02  -0.01   0.03    -0.02  -0.02   0.03     0.01   0.01   0.00
    39   1    -0.02  -0.01   0.02    -0.04  -0.02   0.06     0.02   0.01  -0.03
    40   1    -0.00  -0.07  -0.04     0.00  -0.07  -0.09     0.00   0.02   0.03
    41   7    -0.01  -0.04  -0.03    -0.00  -0.05  -0.06     0.00   0.01   0.02
    42   6    -0.01  -0.01   0.02     0.00  -0.00  -0.01    -0.00   0.00   0.01
    43   1     0.01   0.01  -0.03    -0.02  -0.00   0.08     0.01  -0.02  -0.04
    44   1     0.01   0.01  -0.09     0.01   0.00  -0.03    -0.02  -0.00   0.01
    45   6     0.05   0.04  -0.05     0.00   0.00   0.00    -0.00   0.00  -0.00
    46   1    -0.21  -0.21   0.05    -0.01  -0.01   0.01    -0.01  -0.00   0.00
    47   1    -0.05  -0.19   0.25     0.00  -0.01  -0.01    -0.00   0.00   0.01
    48   1    -0.21  -0.06   0.21    -0.03  -0.01   0.00     0.01   0.00   0.01
    49   8    -0.01  -0.02   0.03    -0.01  -0.01   0.00    -0.01  -0.02   0.03
    50   1     0.05   0.23   0.01     0.01   0.08  -0.00     0.05   0.22   0.02
    51   6    -0.00  -0.00   0.01     0.00   0.00  -0.01    -0.00   0.00  -0.01
    52   9     0.00   0.00  -0.00    -0.00  -0.00   0.00     0.00  -0.00   0.00
    53   9    -0.00   0.00  -0.00     0.00  -0.00   0.00     0.00  -0.00   0.00
    54   1     0.01   0.01  -0.02    -0.01  -0.00   0.02     0.00  -0.00   0.01
    55   1     0.01   0.01   0.00     0.00  -0.02   0.01     0.01   0.03   0.02
                    115                    116                    117
                      A                      A                      A
 Frequencies --   1458.6783              1466.2935              1476.6694
 Red. masses --      2.2521                 1.3247                 1.0785
 Frc consts  --      2.8233                 1.6781                 1.3856
 IR Inten    --      0.0000                 0.0000                 0.0000
  Atom  AN      X      Y      Z        X      Y      Z        X      Y      Z
     1   6    -0.03   0.03  -0.02     0.01   0.02   0.01    -0.00  -0.00  -0.00
     2   6     0.03  -0.13   0.03    -0.02  -0.02  -0.01     0.00  -0.00   0.00
     3   6    -0.04   0.09  -0.04     0.03  -0.04   0.03    -0.00   0.00  -0.00
     4   6     0.03  -0.05   0.03    -0.04   0.05  -0.03    -0.00  -0.00   0.00
     5   6     0.07  -0.06   0.06    -0.02  -0.02  -0.01     0.00  -0.00   0.00
     6   6    -0.10   0.11  -0.09     0.04  -0.03   0.03     0.00   0.00   0.00
     7   1    -0.02   0.53  -0.04    -0.03   0.15  -0.04     0.00   0.01  -0.00
     8   6     0.04  -0.04   0.04     0.02   0.02   0.02     0.00   0.00   0.00
     9   1     0.09  -0.02   0.07    -0.03   0.14  -0.03    -0.00   0.00  -0.00
    10   1     0.26  -0.06   0.20    -0.13   0.05  -0.11     0.00   0.00   0.00
    11   6     0.04   0.10   0.02     0.01  -0.01   0.01    -0.00  -0.00  -0.00
    12   6    -0.04  -0.00  -0.03    -0.04   0.02  -0.03     0.00  -0.00   0.00
    13   1    -0.13  -0.06  -0.08     0.04   0.01   0.03     0.00   0.00   0.00
    14   1    -0.01  -0.02  -0.01     0.11  -0.05   0.08    -0.00   0.00  -0.00
    15   7    -0.01  -0.10  -0.01     0.01  -0.01   0.01     0.00   0.00   0.00
    16   8     0.02  -0.01   0.02    -0.02   0.00  -0.02    -0.00   0.00  -0.00
    17   6    -0.01   0.01   0.00    -0.01  -0.02  -0.01    -0.00  -0.01  -0.00
    18   1    -0.06  -0.14  -0.10     0.02   0.05   0.04     0.01   0.03   0.02
    19   6    -0.02  -0.02  -0.02    -0.07  -0.01  -0.06    -0.00  -0.00  -0.00
    20   1    -0.02  -0.01   0.01     0.30   0.18   0.30     0.02   0.01   0.02
    21   1     0.22   0.10  -0.01     0.56  -0.05   0.16     0.03  -0.00   0.01
    22   1     0.03   0.13   0.20     0.25   0.03   0.48     0.01   0.00   0.03
    23   6    -0.01  -0.00   0.00     0.00   0.00  -0.00     0.01  -0.00  -0.00
    24   6     0.00  -0.00  -0.00    -0.00   0.00  -0.00     0.01  -0.04   0.02
    25   1     0.02  -0.00  -0.01    -0.04   0.01   0.01    -0.03   0.02   0.00
    26   6    -0.00  -0.00   0.00    -0.00  -0.00   0.00     0.00  -0.00  -0.00
    27   6    -0.00   0.00   0.00    -0.00   0.00   0.00     0.00  -0.01  -0.00
    28   6    -0.00   0.00  -0.00    -0.00   0.00   0.00    -0.00   0.00  -0.00
    29   1    -0.02  -0.00  -0.00     0.01  -0.01   0.03    -0.07   0.13  -0.33
    30   1    -0.00   0.01   0.00     0.01  -0.03  -0.00    -0.05   0.33   0.05
    31   1     0.01  -0.00  -0.01     0.00  -0.00  -0.00    -0.02   0.03   0.04
    32   1     0.01   0.01  -0.00    -0.00   0.00  -0.00     0.02  -0.02   0.04
    33   6     0.00   0.00   0.00    -0.00  -0.00   0.00     0.01   0.01   0.01
    34   6     0.00   0.00  -0.00     0.00  -0.00  -0.00    -0.00  -0.01  -0.00
    35   1     0.00  -0.02  -0.02    -0.00  -0.01  -0.00     0.04   0.08   0.04
    36   1     0.02  -0.01  -0.00     0.01  -0.00  -0.01    -0.04   0.07  -0.05
    37   1     0.00  -0.00   0.00     0.01  -0.01  -0.00     0.01   0.01   0.03
    38   1    -0.00  -0.00   0.00     0.00   0.01   0.00    -0.03  -0.14  -0.05
    39   1    -0.00   0.00  -0.00     0.01   0.00  -0.00    -0.14   0.01  -0.04
    40   1    -0.00  -0.01  -0.00    -0.00  -0.00   0.00    -0.00   0.02   0.02
    41   7     0.00  -0.00  -0.00     0.00  -0.00   0.00    -0.00  -0.00  -0.00
    42   6     0.00   0.00   0.00     0.00   0.00   0.00    -0.04  -0.04  -0.01
    43   1    -0.00  -0.01  -0.00    -0.00  -0.02  -0.01     0.02   0.51   0.11
    44   1    -0.01  -0.00  -0.00    -0.03  -0.00  -0.01     0.52   0.06   0.14
    45   6     0.00  -0.00  -0.00    -0.00  -0.00  -0.00     0.01   0.01   0.01
    46   1    -0.00  -0.00   0.00    -0.00  -0.00   0.00     0.09   0.09  -0.03
    47   1    -0.00   0.00   0.00    -0.00   0.01   0.01     0.01  -0.21  -0.08
    48   1     0.00   0.00   0.00     0.01   0.00   0.00    -0.19  -0.04  -0.09
    49   8     0.00   0.01  -0.01    -0.00  -0.00   0.00    -0.00   0.00   0.00
    50   1    -0.01  -0.05  -0.00     0.00   0.02   0.00     0.00   0.01   0.00
    51   6    -0.00   0.00   0.00     0.00  -0.00  -0.00    -0.00   0.00  -0.00
    52   9    -0.00  -0.00   0.00    -0.00   0.00   0.00    -0.00  -0.00  -0.00
    53   9    -0.00  -0.00  -0.00    -0.00   0.00  -0.00     0.00  -0.00   0.00
    54   1     0.00   0.00  -0.01    -0.00  -0.00  -0.00     0.00   0.00   0.00
    55   1    -0.09   0.54  -0.09     0.02  -0.07   0.01     0.00   0.00   0.00
                    118                    119                    120
                      A                      A                      A
 Frequencies --   1481.0731              1484.0153              1485.8704
 Red. masses --      1.0774                 1.0917                 1.1567
 Frc consts  --      1.3925                 1.4165                 1.5046
 IR Inten    --      0.0000                 0.0000                 0.0000
  Atom  AN      X      Y      Z        X      Y      Z        X      Y      Z
     1   6    -0.00  -0.00   0.00     0.00   0.00   0.00    -0.01  -0.03  -0.01
     2   6    -0.00  -0.00   0.00    -0.00  -0.00  -0.00     0.01   0.03   0.01
     3   6     0.00   0.00   0.00     0.00  -0.00   0.00    -0.01   0.03  -0.01
     4   6    -0.00  -0.00  -0.00    -0.00   0.00  -0.00     0.01  -0.01   0.01
     5   6     0.00   0.00   0.00     0.00  -0.00   0.00    -0.01   0.01  -0.01
     6   6    -0.00   0.00  -0.00    -0.00   0.00  -0.00     0.02  -0.00   0.01
     7   1    -0.00   0.01  -0.00    -0.00   0.02  -0.00     0.02  -0.11   0.03
     8   6     0.00  -0.00   0.00     0.01   0.00   0.00    -0.04  -0.01  -0.03
     9   1     0.00  -0.00   0.00     0.00  -0.00   0.00    -0.01  -0.01  -0.01
    10   1     0.00  -0.00   0.00     0.01  -0.00   0.01    -0.01   0.01  -0.01
    11   6     0.00   0.00   0.00     0.00   0.00   0.00    -0.01  -0.01  -0.00
    12   6    -0.00  -0.00  -0.00    -0.01   0.00  -0.00     0.04  -0.02   0.03
    13   1    -0.00  -0.00  -0.00     0.00   0.00   0.00    -0.03  -0.04  -0.03
    14   1    -0.00   0.00  -0.00     0.01  -0.00   0.01    -0.09   0.03  -0.06
    15   7    -0.00  -0.00  -0.00     0.00  -0.01   0.00    -0.01   0.03  -0.01
    16   8    -0.00   0.00   0.00     0.00   0.00   0.00    -0.00  -0.01  -0.00
    17   6     0.00  -0.00  -0.00     0.00   0.00   0.00     0.01   0.01   0.01
    18   1    -0.02  -0.00  -0.00    -0.02   0.00  -0.00    -0.00  -0.04  -0.03
    19   6    -0.00   0.00   0.00    -0.00   0.01   0.00    -0.00  -0.05   0.01
    20   1     0.04   0.01  -0.01     0.09   0.03   0.01    -0.22  -0.16  -0.28
    21   1    -0.02  -0.01   0.00    -0.07  -0.06   0.02     0.32   0.51  -0.22
    22   1     0.02  -0.04  -0.01     0.04  -0.12  -0.05    -0.05   0.44   0.38
    23   6    -0.00   0.01  -0.00    -0.01   0.01  -0.00    -0.00  -0.00  -0.00
    24   6    -0.00   0.00  -0.00     0.00   0.01  -0.00     0.00   0.00  -0.00
    25   1     0.03  -0.04   0.02     0.06  -0.04   0.01     0.03  -0.01  -0.01
    26   6     0.01   0.00  -0.05    -0.00   0.00   0.01     0.00   0.00  -0.00
    27   6    -0.00  -0.04   0.00     0.01  -0.06  -0.00     0.00  -0.01  -0.00
    28   6     0.00   0.01   0.00    -0.01   0.00   0.00     0.00  -0.00   0.00
    29   1     0.03  -0.00   0.02     0.00  -0.03   0.07    -0.00  -0.00   0.00
    30   1    -0.00  -0.02  -0.00    -0.00  -0.07  -0.01    -0.00  -0.00  -0.00
    31   1    -0.25   0.20   0.32     0.03  -0.07  -0.08    -0.00  -0.00  -0.00
    32   1     0.17  -0.17   0.39    -0.04   0.03  -0.08    -0.00  -0.00  -0.00
    33   6     0.02   0.02   0.01    -0.04  -0.03  -0.03    -0.01  -0.00  -0.00
    34   6     0.00  -0.01  -0.01    -0.00  -0.00  -0.00    -0.00  -0.00  -0.00
    35   1     0.14   0.33   0.19     0.14   0.38   0.25     0.03   0.09   0.06
    36   1    -0.18   0.30  -0.19    -0.22   0.36  -0.22    -0.05   0.08  -0.05
    37   1     0.01  -0.01  -0.01    -0.00  -0.01  -0.01    -0.00  -0.00  -0.00
    38   1    -0.06  -0.28  -0.11     0.09   0.42   0.19     0.01   0.07   0.03
    39   1    -0.28   0.03  -0.10     0.44  -0.04   0.14     0.07  -0.01   0.02
    40   1     0.00   0.02   0.03    -0.01  -0.01   0.01    -0.00   0.00   0.00
    41   7     0.00  -0.01  -0.01     0.00  -0.01   0.00    -0.00  -0.00  -0.00
    42   6     0.01   0.01   0.00    -0.00  -0.01  -0.00     0.00   0.00  -0.00
    43   1    -0.01  -0.16  -0.04    -0.00   0.07   0.02    -0.00  -0.01   0.00
    44   1    -0.15  -0.02  -0.02     0.07   0.01   0.02    -0.01  -0.00  -0.00
    45   6    -0.00  -0.00  -0.00     0.00   0.00   0.01     0.00  -0.00   0.00
    46   1    -0.04  -0.01   0.01     0.01   0.06  -0.01    -0.00   0.01  -0.00
    47   1    -0.00   0.07   0.03     0.00  -0.08  -0.02    -0.00  -0.00   0.00
    48   1     0.06   0.01   0.01    -0.08  -0.01  -0.07    -0.00  -0.00  -0.01
    49   8    -0.00   0.00   0.00    -0.00  -0.00  -0.00     0.00   0.00  -0.00
    50   1    -0.00   0.01  -0.00    -0.00   0.00  -0.00    -0.00  -0.02  -0.00
    51   6    -0.00  -0.00   0.00    -0.00  -0.00   0.00     0.00   0.00  -0.00
    52   9     0.00   0.00   0.00     0.00   0.00   0.00    -0.00  -0.00  -0.00
    53   9    -0.00   0.00  -0.00    -0.00   0.00  -0.00     0.00  -0.00   0.00
    54   1     0.00   0.00  -0.00     0.00   0.00  -0.00    -0.00  -0.00   0.00
    55   1    -0.00   0.01  -0.00    -0.00   0.03  -0.00     0.01  -0.13   0.01
                    121                    122                    123
                      A                      A                      A
 Frequencies --   1489.7981              1491.6429              1494.8020
 Red. masses --      1.0488                 1.0468                 1.0657
 Frc consts  --      1.3716                 1.3723                 1.4030
 IR Inten    --      0.0000                 0.0000                 0.0000
  Atom  AN      X      Y      Z        X      Y      Z        X      Y      Z
     1   6    -0.00  -0.01  -0.00     0.00   0.00   0.00    -0.00  -0.00  -0.00
     2   6     0.00   0.00   0.00    -0.00   0.00  -0.00     0.00  -0.00   0.00
     3   6    -0.00   0.01  -0.00     0.00  -0.00   0.00    -0.00   0.00  -0.00
     4   6     0.00  -0.01   0.00    -0.00   0.00  -0.00     0.00  -0.00   0.00
     5   6    -0.00   0.00  -0.00     0.00  -0.00   0.00    -0.00   0.00  -0.00
     6   6     0.00   0.00   0.00    -0.00  -0.00  -0.00     0.00   0.00   0.00
     7   1     0.02  -0.03  -0.02    -0.00   0.00   0.00     0.00   0.00  -0.00
     8   6    -0.01  -0.00  -0.01     0.00  -0.00   0.00    -0.00  -0.00  -0.00
     9   1     0.00  -0.01  -0.00    -0.00   0.00  -0.00    -0.00  -0.00   0.00
    10   1     0.01  -0.00   0.00    -0.00   0.00  -0.00     0.00  -0.00   0.00
    11   6    -0.00  -0.00  -0.00     0.00   0.00   0.00    -0.00  -0.00  -0.00
    12   6     0.01  -0.00   0.01    -0.00   0.00  -0.00     0.00  -0.00   0.00
    13   1    -0.01  -0.01  -0.01    -0.00  -0.00  -0.00    -0.00   0.00  -0.00
    14   1    -0.02   0.01  -0.02     0.00  -0.00   0.00    -0.00   0.00  -0.00
    15   7    -0.00   0.01  -0.00    -0.00  -0.00  -0.00     0.00   0.00  -0.00
    16   8     0.01   0.00  -0.01    -0.00  -0.00   0.00    -0.00   0.00  -0.00
    17   6     0.00   0.00   0.00     0.00   0.00   0.00     0.00  -0.00  -0.00
    18   1     0.00  -0.00  -0.00    -0.00  -0.00  -0.00     0.00   0.02   0.01
    19   6     0.04  -0.01  -0.04    -0.00  -0.00   0.00    -0.00   0.00  -0.00
    20   1    -0.47  -0.00   0.52     0.00  -0.00  -0.01     0.01   0.01   0.03
    21   1     0.20  -0.33   0.23    -0.00   0.01  -0.01     0.01  -0.02   0.02
    22   1    -0.31   0.42  -0.15     0.00  -0.00   0.00     0.00  -0.01  -0.00
    23   6    -0.00   0.00  -0.00    -0.00   0.00   0.00     0.00   0.00  -0.00
    24   6    -0.00   0.00  -0.00    -0.00   0.01  -0.01     0.01  -0.04   0.02
    25   1     0.01  -0.01   0.00     0.00  -0.00  -0.00    -0.00  -0.01   0.01
    26   6     0.00   0.00  -0.00     0.00   0.00  -0.01    -0.00   0.00   0.03
    27   6     0.00  -0.01  -0.00     0.00   0.00   0.00     0.01  -0.02  -0.00
    28   6     0.00   0.00   0.00     0.00   0.00   0.00    -0.00  -0.00  -0.00
    29   1     0.01  -0.01   0.02     0.02  -0.03   0.08    -0.09   0.13  -0.34
    30   1     0.00  -0.02  -0.00     0.02  -0.08  -0.02    -0.07   0.35   0.06
    31   1    -0.01   0.01   0.02    -0.04   0.03   0.05     0.15  -0.14  -0.19
    32   1     0.01  -0.01   0.02     0.02  -0.03   0.06    -0.10   0.10  -0.24
    33   6    -0.00  -0.00  -0.00    -0.00  -0.00   0.00     0.01   0.00   0.00
    34   6    -0.00  -0.00   0.00     0.00   0.00  -0.01     0.00   0.01   0.01
    35   1     0.02   0.04   0.03    -0.01  -0.02  -0.01     0.05   0.14   0.10
    36   1    -0.03   0.04  -0.02     0.01  -0.01   0.01    -0.09   0.13  -0.07
    37   1    -0.00   0.00  -0.00    -0.01  -0.01  -0.03     0.00  -0.01  -0.01
    38   1     0.01   0.03   0.01     0.00   0.01  -0.00    -0.01  -0.07  -0.03
    39   1     0.03  -0.00   0.01     0.01   0.00  -0.00    -0.08   0.00  -0.02
    40   1     0.00   0.00  -0.00    -0.01  -0.00   0.04    -0.00  -0.01   0.02
    41   7    -0.00  -0.00  -0.00     0.00  -0.00  -0.00    -0.00  -0.00   0.00
    42   6    -0.00   0.00   0.00    -0.01   0.02   0.02    -0.00   0.01  -0.02
    43   1    -0.00  -0.00   0.00    -0.01  -0.10  -0.04    -0.03  -0.14   0.00
    44   1     0.00   0.00  -0.00    -0.05   0.03  -0.08    -0.11  -0.02  -0.01
    45   6     0.00   0.00   0.00    -0.02   0.04   0.01    -0.02   0.00  -0.02
    46   1     0.01   0.00  -0.00     0.57  -0.27   0.02     0.07  -0.35   0.07
    47   1     0.00  -0.01  -0.01     0.08  -0.31  -0.52     0.03   0.31  -0.07
    48   1    -0.01  -0.00  -0.01    -0.29  -0.08   0.30     0.30   0.04   0.37
    49   8    -0.00  -0.00   0.00     0.00   0.00  -0.00    -0.00  -0.00   0.00
    50   1    -0.00   0.00  -0.00    -0.00  -0.00  -0.00     0.00   0.00   0.00
    51   6    -0.00   0.00  -0.00     0.00  -0.00   0.00    -0.00   0.00  -0.00
    52   9    -0.00  -0.00  -0.00     0.00   0.00   0.00    -0.00  -0.00  -0.00
    53   9     0.00  -0.00   0.00    -0.00   0.00  -0.00     0.00  -0.00   0.00
    54   1     0.00  -0.00   0.00    -0.00  -0.00  -0.00     0.00   0.00   0.00
    55   1     0.00  -0.02   0.00    -0.00   0.00  -0.00    -0.00  -0.00   0.00
                    124                    125                    126
                      A                      A                      A
 Frequencies --   1500.2620              1508.1972              1511.4602
 Red. masses --      1.0824                 1.1076                 2.5071
 Frc consts  --      1.4353                 1.4845                 3.3746
 IR Inten    --      0.0000                 0.0000                 0.0000
  Atom  AN      X      Y      Z        X      Y      Z        X      Y      Z
     1   6     0.00   0.00   0.00    -0.00  -0.02  -0.00     0.04   0.18   0.02
     2   6    -0.00  -0.00  -0.00     0.01  -0.00   0.00    -0.06  -0.00  -0.04
     3   6     0.00  -0.00   0.00    -0.00   0.02  -0.00     0.02  -0.15   0.03
     4   6    -0.00   0.00  -0.00     0.00  -0.01   0.00    -0.04   0.07  -0.04
     5   6     0.00  -0.00   0.00    -0.00   0.00  -0.00     0.02  -0.02   0.01
     6   6    -0.00  -0.00  -0.00     0.00   0.00   0.00    -0.03  -0.02  -0.02
     7   1    -0.00   0.00  -0.00     0.01   0.01   0.00    -0.06  -0.12  -0.04
     8   6     0.00   0.00   0.00    -0.01   0.00  -0.01     0.11   0.01   0.08
     9   1     0.00   0.00   0.00    -0.00  -0.00  -0.00     0.01   0.03   0.01
    10   1    -0.00   0.00  -0.00     0.01   0.00   0.00    -0.08   0.00  -0.06
    11   6     0.00   0.00   0.00     0.00   0.00  -0.00    -0.02  -0.04  -0.01
    12   6    -0.00   0.00  -0.00     0.01  -0.01   0.01    -0.10   0.09  -0.08
    13   1     0.00   0.00   0.00    -0.01  -0.01  -0.01     0.19   0.19   0.14
    14   1     0.00  -0.00   0.00    -0.03   0.01  -0.02     0.29  -0.07   0.21
    15   7     0.00  -0.00   0.00    -0.00   0.01  -0.00     0.03  -0.05   0.02
    16   8     0.00  -0.00   0.00    -0.00   0.01  -0.00     0.03  -0.07   0.03
    17   6    -0.00  -0.00  -0.00    -0.01  -0.00  -0.00    -0.03  -0.02  -0.03
    18   1    -0.00  -0.00  -0.00     0.01   0.01   0.01    -0.02   0.10   0.06
    19   6     0.00  -0.00   0.00    -0.00   0.00  -0.00     0.03  -0.01   0.02
    20   1    -0.00  -0.00  -0.01     0.04   0.02   0.03    -0.40  -0.19  -0.26
    21   1    -0.00   0.01  -0.00     0.01  -0.03   0.02    -0.07   0.24  -0.15
    22   1     0.00   0.00   0.00     0.02  -0.03   0.01    -0.19   0.28  -0.06
    23   6     0.00  -0.00   0.00     0.02  -0.01   0.00     0.00   0.01  -0.00
    24   6    -0.00   0.01  -0.01     0.02  -0.04   0.03     0.01  -0.01   0.01
    25   1    -0.01   0.01  -0.01    -0.06   0.03   0.01    -0.06   0.00   0.03
    26   6     0.00  -0.00  -0.04     0.00  -0.01  -0.04    -0.00  -0.00  -0.01
    27   6    -0.01   0.02   0.00    -0.00   0.02   0.00    -0.00  -0.00   0.00
    28   6    -0.00   0.01   0.01    -0.01  -0.01  -0.00    -0.00  -0.00  -0.00
    29   1     0.04  -0.04   0.11    -0.11   0.15  -0.41    -0.03   0.04  -0.11
    30   1     0.02  -0.12  -0.02    -0.08   0.42   0.07    -0.02   0.12   0.02
    31   1    -0.17   0.15   0.22    -0.16   0.15   0.21    -0.03   0.03   0.04
    32   1     0.11  -0.13   0.27     0.10  -0.12   0.26     0.02  -0.02   0.05
    33   6    -0.02  -0.02  -0.01    -0.03  -0.02  -0.02    -0.00  -0.00  -0.00
    34   6     0.00  -0.00   0.01     0.00   0.01   0.01     0.00   0.00   0.00
    35   1    -0.03  -0.10  -0.08    -0.05  -0.13  -0.08     0.01   0.01   0.00
    36   1     0.07  -0.10   0.05     0.08  -0.12   0.08    -0.01   0.01  -0.00
    37   1    -0.01  -0.02  -0.03    -0.01  -0.01   0.02     0.01  -0.01   0.01
    38   1     0.04   0.20   0.09     0.06   0.28   0.12     0.01   0.05   0.03
    39   1     0.22  -0.02   0.05     0.30  -0.03   0.10     0.06  -0.01   0.02
    40   1     0.00   0.01   0.00     0.00  -0.03  -0.05     0.00  -0.01  -0.01
    41   7     0.00   0.00  -0.00    -0.00   0.00  -0.00     0.00  -0.00  -0.00
    42   6    -0.03  -0.02  -0.03     0.02   0.02   0.01     0.00   0.00   0.00
    43   1    -0.02   0.28   0.13     0.00  -0.23  -0.07    -0.00  -0.05  -0.02
    44   1     0.30   0.02   0.12    -0.23  -0.02  -0.09    -0.05  -0.00  -0.02
    45   6    -0.02  -0.00  -0.03     0.00   0.00   0.01     0.00   0.00   0.00
    46   1    -0.00  -0.32   0.06    -0.01   0.09  -0.02    -0.00   0.01  -0.00
    47   1     0.02   0.33   0.00    -0.01  -0.08   0.02    -0.00  -0.01   0.00
    48   1     0.31   0.05   0.34    -0.07  -0.01  -0.09    -0.01  -0.00  -0.01
    49   8     0.00   0.00   0.00     0.00   0.00   0.00    -0.00  -0.00   0.00
    50   1    -0.00   0.00  -0.00    -0.00   0.00   0.00     0.00   0.03   0.00
    51   6    -0.00  -0.00   0.00    -0.00   0.00  -0.00     0.00  -0.00  -0.00
    52   9     0.00   0.00   0.00    -0.00  -0.00   0.00     0.00   0.00   0.00
    53   9    -0.00   0.00  -0.00     0.00  -0.00   0.00    -0.00   0.00  -0.00
    54   1    -0.00  -0.00  -0.00     0.00   0.00   0.00    -0.00  -0.00  -0.00
    55   1    -0.00   0.00   0.00     0.00  -0.03   0.00    -0.01   0.27  -0.01
                    127                    128                    129
                      A                      A                      A
 Frequencies --   1532.4857              1565.6369              1637.8555
 Red. masses --      2.1416                 3.4531                 4.5235
 Frc consts  --      2.9633                 4.9870                 7.1495
 IR Inten    --      0.0000                 0.0000                 0.0000
  Atom  AN      X      Y      Z        X      Y      Z        X      Y      Z
     1   6     0.11  -0.08   0.09     0.14   0.02   0.11     0.01   0.09   0.00
     2   6    -0.01   0.07  -0.01    -0.05   0.04  -0.04    -0.03  -0.04  -0.02
     3   6    -0.01   0.03  -0.01    -0.01  -0.13   0.00     0.06  -0.11   0.05
     4   6     0.01  -0.04   0.01     0.02  -0.11   0.02    -0.05   0.17  -0.05
     5   6    -0.01   0.16  -0.02     0.03   0.13   0.01    -0.01  -0.03  -0.01
     6   6    -0.06  -0.06  -0.04    -0.10  -0.02  -0.08     0.02  -0.02   0.01
     7   1     0.02  -0.35   0.04    -0.03  -0.32  -0.02    -0.05   0.05  -0.04
     8   6     0.02  -0.08   0.02     0.01   0.17  -0.01    -0.16   0.23  -0.13
     9   1     0.03  -0.40   0.05     0.06  -0.31   0.06    -0.02   0.08  -0.02
    10   1     0.15  -0.18   0.13     0.14  -0.16   0.12    -0.08   0.03  -0.06
    11   6    -0.09  -0.03  -0.07     0.17   0.15   0.12    -0.05   0.09  -0.07
    12   6     0.03   0.05   0.01    -0.07  -0.10  -0.03     0.20  -0.18   0.16
    13   1     0.17   0.30   0.14    -0.33  -0.41  -0.23    -0.13   0.16   0.05
    14   1    -0.01   0.08  -0.01    -0.03  -0.13  -0.02    -0.32   0.04  -0.24
    15   7     0.03  -0.07   0.03    -0.06  -0.01  -0.06     0.04  -0.21   0.03
    16   8    -0.04   0.03  -0.03    -0.02  -0.00  -0.02     0.01  -0.03   0.01
    17   6    -0.00   0.02  -0.00    -0.00  -0.04  -0.01     0.02  -0.02   0.02
    18   1    -0.06  -0.03  -0.04     0.10   0.16   0.13     0.11   0.03   0.06
    19   6    -0.02   0.01  -0.02    -0.01   0.01  -0.01     0.00   0.00   0.00
    20   1     0.12   0.07   0.08    -0.01   0.01  -0.01    -0.04  -0.02  -0.03
    21   1     0.17  -0.01   0.05     0.08   0.02   0.01    -0.02   0.01  -0.01
    22   1     0.10  -0.02   0.15     0.03   0.03   0.07    -0.01   0.01  -0.01
    23   6     0.00  -0.00  -0.00     0.00   0.01   0.00     0.01  -0.00   0.00
    24   6    -0.00   0.00  -0.00     0.00  -0.00   0.00    -0.00   0.00  -0.00
    25   1     0.01   0.00  -0.01    -0.01   0.00   0.01     0.00  -0.00  -0.00
    26   6     0.00  -0.00   0.00     0.00   0.00   0.00     0.00   0.00  -0.00
    27   6     0.00   0.00  -0.00     0.00   0.00   0.00     0.00  -0.00  -0.00
    28   6     0.00  -0.00   0.00    -0.00   0.00  -0.00     0.00  -0.00   0.00
    29   1     0.00  -0.00   0.01     0.00   0.00  -0.01     0.01   0.01  -0.00
    30   1     0.00  -0.01  -0.00     0.00   0.01   0.00    -0.00   0.00  -0.00
    31   1    -0.00  -0.00   0.00    -0.00  -0.00  -0.00    -0.00   0.00   0.00
    32   1     0.00   0.00   0.00    -0.01  -0.00  -0.00    -0.00  -0.01   0.00
    33   6    -0.00   0.00  -0.00     0.00  -0.00  -0.00    -0.00  -0.00  -0.00
    34   6    -0.00   0.00   0.00    -0.00   0.00   0.00    -0.00  -0.00  -0.00
    35   1    -0.01  -0.01  -0.00    -0.00  -0.01  -0.00    -0.00   0.00   0.00
    36   1     0.00  -0.01   0.01    -0.00  -0.00   0.01    -0.00  -0.00   0.00
    37   1    -0.00   0.00  -0.00     0.00  -0.00   0.00    -0.01   0.00  -0.00
    38   1    -0.00  -0.00  -0.00     0.00   0.00   0.00     0.00   0.00  -0.00
    39   1    -0.00  -0.00   0.00     0.00  -0.00  -0.00     0.00  -0.00   0.00
    40   1    -0.00   0.00   0.00    -0.00  -0.00  -0.00     0.00   0.00   0.00
    41   7    -0.00   0.00   0.00    -0.00  -0.00  -0.00    -0.00   0.00   0.00
    42   6     0.00   0.00   0.00     0.00   0.00  -0.00     0.00   0.00   0.00
    43   1     0.00  -0.00  -0.00     0.00  -0.00  -0.00     0.00  -0.00  -0.00
    44   1    -0.00  -0.00  -0.00    -0.00  -0.00  -0.00    -0.00  -0.00  -0.00
    45   6    -0.00   0.00   0.00    -0.00   0.00  -0.00     0.00   0.00   0.00
    46   1     0.00   0.00  -0.00     0.00  -0.00   0.00    -0.00   0.00  -0.00
    47   1    -0.00  -0.00  -0.00    -0.00   0.00  -0.00    -0.00  -0.00   0.00
    48   1     0.00   0.00  -0.00     0.00  -0.00   0.00    -0.00   0.00  -0.00
    49   8     0.00  -0.00   0.00    -0.00  -0.00   0.00    -0.01  -0.00  -0.00
    50   1     0.00  -0.00   0.00     0.00   0.03   0.00    -0.00  -0.00  -0.00
    51   6    -0.01  -0.00   0.00     0.00   0.00  -0.00    -0.01   0.01   0.01
    52   9     0.00   0.00   0.00    -0.00  -0.00  -0.00     0.00  -0.00  -0.00
    53   9     0.00   0.00  -0.00    -0.00  -0.00   0.00     0.00  -0.00   0.00
    54   1     0.01   0.00  -0.01    -0.01   0.00   0.00     0.00   0.01  -0.00
    55   1    -0.04   0.54  -0.03    -0.03  -0.31  -0.04    -0.07   0.65  -0.06
                    130                    131                    132
                      A                      A                      A
 Frequencies --   1663.8678              1684.0373              3017.6093
 Red. masses --      6.0307                 5.6578                 1.0659
 Frc consts  --      9.8369                 9.4536                 5.7184
 IR Inten    --      0.0000                 0.0000                 0.0000
  Atom  AN      X      Y      Z        X      Y      Z        X      Y      Z
     1   6    -0.15  -0.10  -0.11    -0.01  -0.27   0.01    -0.00   0.00  -0.00
     2   6     0.08   0.10   0.05     0.01   0.32  -0.02    -0.00  -0.00  -0.00
     3   6    -0.22  -0.09  -0.16     0.02  -0.17   0.03    -0.00   0.00  -0.00
     4   6     0.24   0.16   0.17     0.01   0.15  -0.00     0.00  -0.00   0.00
     5   6    -0.13   0.05  -0.11     0.07  -0.31   0.08     0.00   0.00   0.00
     6   6     0.19  -0.10   0.16    -0.13   0.23  -0.12     0.00  -0.00   0.00
     7   1     0.11  -0.21   0.10     0.07  -0.51   0.09     0.00   0.00   0.00
     8   6     0.09   0.02   0.07     0.02   0.02   0.01     0.00  -0.00   0.00
     9   1    -0.14  -0.15  -0.10     0.04   0.35   0.01     0.00  -0.00   0.00
    10   1    -0.21   0.09  -0.17     0.29   0.04   0.22    -0.00   0.00  -0.00
    11   6     0.09   0.12   0.07     0.01  -0.02  -0.00     0.00   0.00   0.00
    12   6    -0.10   0.00  -0.07    -0.02   0.02  -0.01    -0.00   0.00  -0.00
    13   1    -0.11  -0.10  -0.08     0.01   0.01   0.05     0.00  -0.00   0.00
    14   1     0.07  -0.07   0.05     0.04  -0.00   0.03     0.00  -0.00   0.00
    15   7    -0.04  -0.17  -0.04     0.00  -0.01   0.00    -0.00  -0.00   0.00
    16   8    -0.00   0.02  -0.00    -0.00   0.04  -0.00     0.00  -0.00   0.00
    17   6    -0.01  -0.00  -0.01     0.00  -0.00  -0.00     0.00   0.00  -0.00
    18   1    -0.01   0.04   0.02     0.00   0.03   0.02    -0.00  -0.00   0.00
    19   6     0.01  -0.01   0.01    -0.02  -0.00  -0.01    -0.00  -0.00  -0.00
    20   1     0.02  -0.01   0.02     0.07   0.04   0.05     0.00  -0.00   0.00
    21   1    -0.02   0.01  -0.01     0.09  -0.02   0.02    -0.00   0.00   0.00
    22   1    -0.02   0.01  -0.02     0.04  -0.01   0.08     0.00   0.00  -0.00
    23   6    -0.00   0.01   0.00     0.00   0.00  -0.00     0.00   0.00   0.00
    24   6     0.00  -0.00  -0.00    -0.00   0.00  -0.00     0.00  -0.00   0.00
    25   1     0.01   0.00   0.00     0.00   0.00   0.00    -0.01  -0.01  -0.02
    26   6    -0.00   0.00   0.00     0.00   0.00   0.00    -0.00  -0.00   0.00
    27   6    -0.00   0.00   0.00     0.00  -0.00  -0.00     0.01   0.02   0.01
    28   6    -0.00   0.00  -0.00     0.00  -0.00  -0.00    -0.00  -0.00   0.00
    29   1    -0.01  -0.00   0.00     0.00   0.00   0.00    -0.00   0.01   0.01
    30   1     0.00   0.00   0.00     0.00  -0.00  -0.00    -0.01   0.00  -0.05
    31   1     0.00  -0.00  -0.00    -0.00  -0.00   0.00    -0.00   0.00  -0.00
    32   1     0.00   0.00  -0.00     0.00  -0.00   0.00     0.00  -0.00  -0.00
    33   6     0.00  -0.00   0.00    -0.00   0.00  -0.00    -0.00  -0.00  -0.00
    34   6     0.00  -0.00   0.00    -0.00   0.00   0.00     0.02  -0.00   0.00
    35   1     0.00  -0.00  -0.00    -0.01  -0.01   0.00     0.07  -0.06   0.08
    36   1     0.00   0.00   0.00    -0.00  -0.01   0.01    -0.17  -0.21  -0.20
    37   1     0.00  -0.00   0.00    -0.00   0.00  -0.00     0.00   0.00  -0.00
    38   1    -0.00  -0.00   0.00    -0.00  -0.00   0.00     0.00  -0.00   0.00
    39   1    -0.00   0.00  -0.00    -0.00  -0.00   0.00    -0.00   0.00  -0.00
    40   1    -0.00  -0.00  -0.00    -0.00   0.00   0.00    -0.23   0.05  -0.05
    41   7     0.00  -0.00  -0.00    -0.00   0.00  -0.00     0.00   0.00   0.00
    42   6    -0.00  -0.00  -0.00     0.00   0.00   0.00    -0.06  -0.02  -0.02
    43   1     0.00   0.00   0.00     0.00  -0.00  -0.00     0.79  -0.12   0.18
    44   1     0.00   0.00   0.00    -0.00  -0.00  -0.00    -0.09   0.33   0.06
    45   6    -0.00  -0.00  -0.00    -0.00   0.00   0.00     0.00  -0.00   0.00
    46   1     0.00  -0.00   0.00     0.00   0.00  -0.00    -0.01  -0.01  -0.04
    47   1    -0.00  -0.00   0.00     0.00   0.00  -0.00    -0.04   0.00  -0.01
    48   1    -0.00  -0.00   0.00     0.00   0.00  -0.00    -0.00   0.01   0.00
    49   8    -0.00  -0.00   0.00    -0.00  -0.00   0.00     0.00   0.00  -0.00
    50   1     0.00   0.01   0.00     0.00   0.01  -0.00    -0.00   0.00   0.00
    51   6     0.00   0.01   0.00    -0.01  -0.00   0.01     0.00  -0.00  -0.00
    52   9    -0.00  -0.00  -0.00     0.00   0.00   0.00    -0.00  -0.00  -0.00
    53   9     0.00  -0.00   0.00     0.00   0.00  -0.00    -0.00  -0.00   0.00
    54   1    -0.01   0.00   0.00     0.00   0.00  -0.01    -0.00   0.00   0.00
    55   1    -0.11   0.53  -0.12    -0.01   0.07  -0.01    -0.00  -0.00  -0.00
                    133                    134                    135
                      A                      A                      A
 Frequencies --   3026.6158              3036.3913              3045.3899
 Red. masses --      1.0692                 1.0818                 1.0838
 Frc consts  --      5.7709                 5.8766                 5.9225
 IR Inten    --      0.0000                 0.0000                 0.0000
  Atom  AN      X      Y      Z        X      Y      Z        X      Y      Z
     1   6     0.00  -0.00   0.00     0.00  -0.00   0.00     0.00  -0.00   0.00
     2   6    -0.00   0.00  -0.00     0.00   0.00   0.00     0.00   0.00   0.00
     3   6     0.00  -0.00   0.00     0.00  -0.00   0.00    -0.00   0.00  -0.00
     4   6    -0.00   0.00  -0.00    -0.00   0.00  -0.00    -0.00  -0.00  -0.00
     5   6    -0.00  -0.00   0.00    -0.00  -0.00   0.00    -0.00   0.00  -0.00
     6   6    -0.00   0.00  -0.00    -0.00   0.00  -0.00    -0.00   0.00  -0.00
     7   1     0.00  -0.00   0.00    -0.00  -0.00  -0.00    -0.02  -0.00  -0.01
     8   6    -0.00  -0.00  -0.00     0.00   0.00   0.00    -0.00  -0.00  -0.00
     9   1    -0.00   0.00  -0.00     0.00   0.00   0.00     0.00  -0.00   0.00
    10   1     0.00  -0.00   0.00     0.00  -0.00  -0.00     0.00  -0.00   0.00
    11   6    -0.00  -0.00   0.00     0.00   0.00   0.00     0.00   0.00  -0.00
    12   6     0.00  -0.00   0.00    -0.00   0.00  -0.00     0.00  -0.00   0.00
    13   1    -0.00   0.00  -0.00    -0.00   0.00  -0.00    -0.00  -0.00   0.00
    14   1     0.00   0.00  -0.00    -0.00  -0.00  -0.00    -0.00  -0.00   0.00
    15   7     0.00  -0.00   0.00     0.00  -0.00   0.00     0.00  -0.00   0.00
    16   8    -0.00   0.00  -0.00    -0.00   0.00  -0.00    -0.00   0.00  -0.00
    17   6     0.00  -0.00   0.00    -0.00  -0.00   0.00     0.01   0.05  -0.07
    18   1     0.00   0.01  -0.01     0.00   0.00  -0.00    -0.09  -0.56   0.82
    19   6     0.00   0.00   0.00     0.00   0.00   0.00    -0.00  -0.00  -0.00
    20   1    -0.00   0.01  -0.00    -0.00   0.00  -0.00     0.00  -0.00   0.00
    21   1     0.00  -0.01  -0.01     0.00  -0.00  -0.00    -0.00   0.01   0.01
    22   1    -0.01  -0.00   0.01    -0.00  -0.00   0.00     0.01   0.00  -0.00
    23   6     0.00   0.00   0.01     0.00   0.00   0.00     0.00   0.00   0.00
    24   6     0.00  -0.00   0.00     0.00   0.00   0.00    -0.00   0.00  -0.00
    25   1    -0.02  -0.05  -0.07    -0.01  -0.01  -0.01    -0.02  -0.04  -0.06
    26   6     0.00   0.00  -0.00    -0.00   0.00  -0.00    -0.00   0.00   0.00
    27   6    -0.03  -0.06  -0.03     0.01  -0.01   0.01    -0.00  -0.00  -0.00
    28   6    -0.00  -0.00   0.00     0.00   0.00  -0.00    -0.00  -0.00   0.00
    29   1    -0.00   0.01   0.00     0.00  -0.00  -0.00     0.00  -0.01  -0.01
    30   1    -0.00   0.00  -0.02     0.00   0.00   0.00     0.01  -0.00   0.04
    31   1     0.01  -0.01   0.01     0.00  -0.01   0.01    -0.00   0.01  -0.01
    32   1    -0.01   0.01   0.01    -0.00   0.00   0.00     0.02  -0.01  -0.01
    33   6    -0.00  -0.00  -0.00     0.00  -0.00   0.00    -0.00  -0.00  -0.00
    34   6     0.01  -0.00   0.00    -0.07   0.01  -0.01     0.00  -0.00   0.00
    35   1    -0.16   0.14  -0.18    -0.08   0.08  -0.09    -0.00   0.00  -0.00
    36   1     0.45   0.54   0.52     0.00  -0.00  -0.00     0.00   0.00   0.00
    37   1     0.01   0.01  -0.01    -0.03  -0.03   0.02     0.00   0.00  -0.00
    38   1     0.01  -0.00   0.00    -0.05   0.02  -0.01     0.00  -0.00   0.00
    39   1    -0.00   0.01   0.00     0.00  -0.01  -0.00    -0.00   0.01   0.00
    40   1    -0.11   0.02  -0.02     0.83  -0.18   0.18    -0.00   0.00  -0.00
    41   7     0.00  -0.00  -0.00     0.00  -0.00   0.00    -0.00   0.00   0.00
    42   6    -0.02  -0.00  -0.01     0.00  -0.04  -0.01     0.00  -0.00  -0.00
    43   1     0.32  -0.05   0.07     0.08  -0.02   0.02    -0.00   0.00  -0.00
    44   1    -0.02   0.07   0.02    -0.10   0.44   0.09    -0.00   0.01   0.00
    45   6     0.00   0.00   0.00     0.00   0.00   0.00     0.00   0.00  -0.00
    46   1    -0.00  -0.01  -0.01    -0.00  -0.00  -0.01     0.00   0.00   0.00
    47   1    -0.03   0.00  -0.01    -0.02   0.00  -0.01    -0.00   0.00  -0.00
    48   1     0.00   0.00   0.00     0.01  -0.05  -0.00     0.00  -0.00  -0.00
    49   8     0.00  -0.00   0.00     0.00   0.00   0.00    -0.00   0.00   0.00
    50   1    -0.00   0.00  -0.00    -0.00  -0.00   0.00     0.01   0.01  -0.01
    51   6     0.00   0.00  -0.00     0.00  -0.00  -0.00    -0.00  -0.00  -0.00
    52   9     0.00   0.00   0.00    -0.00  -0.00  -0.00    -0.00  -0.00   0.00
    53   9     0.00  -0.00   0.00    -0.00  -0.00   0.00     0.00  -0.00   0.00
    54   1     0.00  -0.00  -0.00    -0.00  -0.00   0.00     0.00   0.00   0.00
    55   1     0.00   0.00   0.00    -0.00  -0.00  -0.00     0.00  -0.00   0.00
                    136                    137                    138
                      A                      A                      A
 Frequencies --   3046.7395              3051.2440              3052.7371
 Red. masses --      1.0348                 1.0829                 1.0371
 Frc consts  --      5.6597                 5.9402                 5.6944
 IR Inten    --      0.0000                 0.0000                 0.0000
  Atom  AN      X      Y      Z        X      Y      Z        X      Y      Z
     1   6     0.00  -0.00   0.00     0.00   0.00   0.00     0.00  -0.00  -0.00
     2   6     0.00   0.00   0.00    -0.00  -0.00  -0.00     0.00   0.00   0.00
     3   6     0.00  -0.00   0.00    -0.00   0.00   0.00    -0.00  -0.00   0.00
     4   6    -0.00   0.00  -0.00     0.00   0.00   0.00     0.00  -0.00   0.00
     5   6    -0.00  -0.00  -0.00     0.00  -0.00   0.00    -0.00   0.00  -0.00
     6   6    -0.00   0.00  -0.00    -0.00   0.00  -0.00     0.00   0.00   0.00
     7   1    -0.01  -0.00  -0.01     0.01   0.00   0.00    -0.00  -0.00  -0.00
     8   6    -0.00   0.00  -0.00     0.00  -0.00  -0.00     0.00   0.00   0.00
     9   1     0.00   0.00   0.00    -0.00   0.00  -0.00     0.00   0.00   0.00
    10   1     0.00  -0.00   0.00    -0.00  -0.00  -0.00    -0.00  -0.00  -0.00
    11   6    -0.00  -0.00   0.00    -0.00  -0.00  -0.00     0.00   0.00   0.00
    12   6     0.00  -0.00   0.00     0.00  -0.00   0.00    -0.00   0.00  -0.00
    13   1    -0.00   0.00  -0.00    -0.00   0.00  -0.00    -0.00   0.00  -0.00
    14   1    -0.00  -0.00  -0.00    -0.00  -0.00  -0.00    -0.00  -0.00   0.00
    15   7     0.00  -0.00   0.00     0.00   0.00   0.00     0.00   0.00  -0.00
    16   8    -0.00   0.00  -0.00    -0.00  -0.00  -0.00    -0.00   0.00  -0.00
    17   6    -0.00  -0.00   0.00     0.00   0.00  -0.01     0.00   0.00  -0.00
    18   1     0.00   0.01  -0.02    -0.01  -0.04   0.06    -0.00  -0.00   0.00
    19   6    -0.03  -0.03  -0.03    -0.00  -0.00  -0.00     0.00   0.00   0.00
    20   1     0.07  -0.29   0.07     0.00  -0.02   0.00    -0.00   0.00  -0.00
    21   1    -0.17   0.33   0.57    -0.01   0.02   0.03     0.00  -0.00  -0.00
    22   1     0.50   0.29  -0.32     0.03   0.02  -0.02    -0.00  -0.00   0.00
    23   6     0.00   0.00   0.00    -0.02  -0.05  -0.06    -0.00  -0.00  -0.00
    24   6    -0.00   0.00  -0.00     0.00  -0.00   0.02     0.00  -0.00   0.00
    25   1    -0.02  -0.03  -0.04     0.28   0.55   0.71     0.00   0.00   0.00
    26   6     0.00  -0.00   0.00     0.00   0.00  -0.00    -0.00   0.00   0.00
    27   6    -0.00  -0.00  -0.00    -0.00  -0.01  -0.00     0.00  -0.00   0.00
    28   6    -0.00  -0.00   0.00     0.00   0.00   0.00     0.00   0.00  -0.00
    29   1    -0.00   0.00   0.00    -0.00   0.02   0.01    -0.00   0.01   0.01
    30   1     0.00  -0.00   0.01    -0.05   0.02  -0.27    -0.01   0.00  -0.04
    31   1    -0.00   0.00  -0.00     0.01  -0.02   0.02    -0.00   0.00  -0.00
    32   1     0.00  -0.00  -0.00    -0.01   0.01   0.01     0.00  -0.00  -0.00
    33   6    -0.00  -0.00  -0.00    -0.00   0.00  -0.00    -0.00  -0.00  -0.00
    34   6    -0.00   0.00  -0.00     0.00  -0.00   0.00    -0.00   0.00  -0.00
    35   1    -0.00   0.00  -0.00    -0.03   0.03  -0.03    -0.01   0.01  -0.01
    36   1     0.01   0.01   0.01     0.03   0.04   0.04     0.01   0.01   0.01
    37   1     0.00   0.00  -0.00    -0.00  -0.01   0.00    -0.04  -0.04   0.03
    38   1     0.00  -0.00   0.00     0.00  -0.00   0.00     0.02  -0.01   0.00
    39   1    -0.00   0.00   0.00    -0.00   0.00   0.00    -0.00   0.02   0.01
    40   1     0.00  -0.00   0.00    -0.04   0.01  -0.01     0.02  -0.00   0.01
    41   7     0.00  -0.00   0.00    -0.00  -0.00  -0.00     0.00   0.00   0.00
    42   6    -0.00   0.00  -0.00     0.00  -0.01  -0.00     0.00  -0.00  -0.00
    43   1     0.00  -0.00   0.00    -0.00  -0.00  -0.00    -0.01  -0.00  -0.00
    44   1     0.00  -0.00  -0.00    -0.02   0.09   0.02    -0.01   0.04   0.01
    45   6    -0.00  -0.00   0.00     0.00   0.00   0.00    -0.03  -0.03   0.02
    46   1    -0.00  -0.00  -0.00    -0.00   0.00   0.00    -0.06  -0.13  -0.45
    47   1     0.00  -0.00   0.00    -0.01   0.00  -0.00     0.62  -0.07   0.16
    48   1    -0.00   0.00   0.00     0.01  -0.02  -0.00    -0.16   0.57   0.06
    49   8     0.00  -0.00  -0.00    -0.00   0.00   0.00     0.00   0.00  -0.00
    50   1    -0.00  -0.00   0.00     0.00   0.00  -0.00    -0.00   0.00   0.00
    51   6     0.00   0.00  -0.00    -0.00   0.00   0.00     0.00  -0.00  -0.00
    52   9    -0.00  -0.00  -0.00    -0.00   0.00   0.00    -0.00  -0.00  -0.00
    53   9    -0.00  -0.00   0.00    -0.00   0.00   0.00    -0.00  -0.00   0.00
    54   1    -0.00  -0.00   0.00     0.00  -0.00  -0.00    -0.00   0.00   0.00
    55   1     0.00  -0.00   0.00     0.00   0.00  -0.00    -0.00  -0.00  -0.00
                    139                    140                    141
                      A                      A                      A
 Frequencies --   3056.0393              3060.9892              3069.6873
 Red. masses --      1.0964                 1.0604                 1.0675
 Frc consts  --      6.0333                 5.8541                 5.9266
 IR Inten    --      0.0000                 0.0000                 0.0000
  Atom  AN      X      Y      Z        X      Y      Z        X      Y      Z
     1   6     0.00  -0.00   0.00    -0.00   0.00  -0.00     0.00   0.00   0.00
     2   6     0.00   0.00   0.00    -0.00  -0.00  -0.00    -0.00  -0.00  -0.00
     3   6     0.00  -0.00   0.00     0.00  -0.00   0.00    -0.00   0.00   0.00
     4   6    -0.00   0.00  -0.00     0.00   0.00   0.00     0.00   0.00   0.00
     5   6     0.00  -0.00   0.00    -0.00  -0.00  -0.00     0.00  -0.00   0.00
     6   6    -0.00   0.00  -0.00     0.00   0.00   0.00    -0.00   0.00  -0.00
     7   1    -0.00  -0.00  -0.00     0.00   0.00   0.00     0.00   0.00   0.00
     8   6    -0.00   0.00  -0.00     0.00   0.00   0.00    -0.00  -0.00  -0.00
     9   1    -0.00   0.00   0.00     0.00   0.00   0.00    -0.00  -0.00  -0.00
    10   1     0.00  -0.00   0.00    -0.00  -0.00  -0.00    -0.00  -0.00  -0.00
    11   6    -0.00  -0.00  -0.00     0.00   0.00   0.00     0.00  -0.00  -0.00
    12   6     0.00  -0.00   0.00    -0.00   0.00  -0.00     0.00  -0.00   0.00
    13   1     0.00  -0.00   0.00    -0.00   0.00  -0.00     0.00  -0.00   0.00
    14   1     0.00   0.00  -0.00     0.00   0.00   0.00     0.00   0.00  -0.00
    15   7     0.00   0.00   0.00     0.00  -0.00   0.00     0.00  -0.00   0.00
    16   8    -0.00   0.00  -0.00     0.00  -0.00  -0.00     0.00  -0.00   0.00
    17   6    -0.00  -0.00   0.00    -0.00  -0.00   0.00    -0.00  -0.00   0.00
    18   1     0.00   0.01  -0.02     0.00   0.01  -0.01     0.00   0.01  -0.01
    19   6     0.00   0.00   0.00     0.00   0.00  -0.00    -0.00  -0.00  -0.00
    20   1    -0.00   0.00  -0.00    -0.00   0.00  -0.00     0.00  -0.00   0.00
    21   1     0.00  -0.00  -0.00     0.00  -0.00  -0.00    -0.00   0.00   0.00
    22   1    -0.00  -0.00   0.00    -0.00  -0.00   0.00     0.00   0.00  -0.00
    23   6     0.00   0.00   0.00    -0.00  -0.00  -0.00    -0.01  -0.01  -0.02
    24   6    -0.00   0.00  -0.01     0.00   0.00   0.00    -0.02   0.03  -0.06
    25   1    -0.02  -0.03  -0.04     0.00   0.01   0.01     0.08   0.16   0.20
    26   6     0.00  -0.00   0.00    -0.01   0.00   0.02     0.00  -0.00  -0.01
    27   6    -0.01   0.00  -0.01     0.00  -0.00   0.00     0.00  -0.00   0.00
    28   6    -0.00  -0.00   0.00     0.01   0.01  -0.00    -0.01  -0.01   0.00
    29   1     0.01  -0.03  -0.02    -0.00  -0.00  -0.00     0.07  -0.33  -0.18
    30   1     0.02  -0.01   0.15    -0.00   0.00  -0.01     0.13  -0.07   0.84
    31   1    -0.01   0.01  -0.01    -0.11   0.16  -0.16     0.03  -0.05   0.05
    32   1     0.00  -0.00  -0.00     0.19  -0.17  -0.13    -0.07   0.06   0.05
    33   6    -0.01  -0.00  -0.00    -0.05  -0.03  -0.03    -0.00  -0.00  -0.00
    34   6     0.03  -0.01   0.01    -0.01   0.00  -0.00    -0.00   0.00  -0.00
    35   1     0.04  -0.04   0.04    -0.01   0.01  -0.01    -0.02   0.02  -0.03
    36   1     0.03   0.04   0.04    -0.00  -0.00  -0.00    -0.00  -0.00  -0.00
    37   1     0.03   0.03  -0.03    -0.08  -0.08   0.05     0.07   0.07  -0.05
    38   1     0.08  -0.03   0.02     0.62  -0.25   0.15     0.05  -0.02   0.01
    39   1    -0.00   0.04   0.01    -0.05   0.56   0.18    -0.00   0.04   0.01
    40   1    -0.35   0.08  -0.08     0.06  -0.02   0.01     0.04  -0.01   0.01
    41   7    -0.00   0.00   0.00     0.00   0.00   0.00    -0.00  -0.00  -0.00
    42   6     0.05  -0.07  -0.01    -0.00   0.00   0.00    -0.01   0.01  -0.00
    43   1    -0.39   0.04  -0.09     0.03  -0.00   0.01     0.11  -0.01   0.03
    44   1    -0.16   0.75   0.16     0.01  -0.04  -0.01     0.02  -0.08  -0.02
    45   6    -0.01   0.01   0.00     0.00  -0.00  -0.00     0.00  -0.00   0.00
    46   1    -0.01  -0.00  -0.02     0.00   0.00   0.02    -0.00  -0.01  -0.03
    47   1     0.09  -0.01   0.03    -0.03   0.00  -0.01     0.01  -0.00   0.00
    48   1     0.04  -0.14  -0.02     0.00  -0.00   0.00    -0.01   0.05   0.01
    49   8     0.00  -0.00  -0.00    -0.00   0.00  -0.00    -0.00  -0.00   0.00
    50   1    -0.00  -0.00   0.00    -0.00  -0.00   0.00    -0.00  -0.00  -0.00
    51   6    -0.00   0.00   0.00     0.00  -0.00   0.00    -0.00   0.00  -0.00
    52   9     0.00   0.00   0.00    -0.00  -0.00  -0.00     0.00   0.00   0.00
    53   9     0.00   0.00  -0.00    -0.00   0.00  -0.00     0.00  -0.00   0.00
    54   1     0.00  -0.00  -0.00    -0.00   0.00   0.00     0.00  -0.00  -0.00
    55   1     0.00   0.00   0.00    -0.00  -0.00  -0.00     0.00   0.00  -0.00
                    142                    143                    144
                      A                      A                      A
 Frequencies --   3072.3369              3092.2244              3095.6365
 Red. masses --      1.0642                 1.0967                 1.1021
 Frc consts  --      5.9187                 6.1786                 6.2224
 IR Inten    --      0.0000                 0.0000                 0.0000
  Atom  AN      X      Y      Z        X      Y      Z        X      Y      Z
     1   6     0.00  -0.00   0.00    -0.00   0.00  -0.00    -0.00   0.00  -0.00
     2   6    -0.00  -0.00  -0.00     0.00  -0.00   0.00     0.00  -0.00   0.00
     3   6     0.00   0.00   0.00     0.00  -0.00   0.00     0.00  -0.00  -0.00
     4   6    -0.00   0.00   0.00     0.00  -0.00  -0.00     0.00  -0.00   0.00
     5   6     0.00  -0.00   0.00     0.00   0.00   0.00     0.00   0.00   0.00
     6   6    -0.00   0.00  -0.00     0.00  -0.00   0.00     0.00  -0.00   0.00
     7   1     0.00   0.00   0.00    -0.00   0.00  -0.00    -0.00   0.00  -0.00
     8   6     0.00   0.00  -0.00     0.00  -0.00   0.00     0.00   0.00   0.00
     9   1    -0.00  -0.00  -0.00    -0.00  -0.00  -0.00    -0.00  -0.00  -0.00
    10   1    -0.00  -0.00   0.00    -0.00   0.00  -0.00     0.00   0.00   0.00
    11   6    -0.00   0.00   0.00     0.00  -0.00   0.00    -0.00   0.00  -0.00
    12   6    -0.00  -0.00   0.00     0.00   0.00   0.00    -0.00  -0.00  -0.00
    13   1     0.00  -0.00   0.00    -0.00   0.00  -0.00     0.00  -0.00   0.00
    14   1     0.00   0.00   0.00     0.00   0.00  -0.00     0.00   0.00   0.00
    15   7    -0.00  -0.00   0.00     0.00  -0.00   0.00     0.00   0.00   0.00
    16   8    -0.00   0.00  -0.00     0.00  -0.00   0.00     0.00  -0.00   0.00
    17   6    -0.00  -0.00   0.00     0.00   0.00  -0.00    -0.00  -0.00   0.00
    18   1     0.00   0.01  -0.02    -0.00  -0.00   0.00     0.00   0.00  -0.00
    19   6     0.00   0.00  -0.00    -0.00  -0.00   0.00    -0.00  -0.00   0.00
    20   1     0.00  -0.00   0.00    -0.00   0.00  -0.00     0.00  -0.00   0.00
    21   1    -0.00   0.00   0.00     0.00  -0.00  -0.00     0.00  -0.00  -0.00
    22   1    -0.00  -0.00   0.00     0.00   0.00  -0.00     0.00   0.00  -0.00
    23   6    -0.00  -0.00  -0.00    -0.00  -0.00  -0.00     0.00   0.00   0.00
    24   6    -0.00   0.00  -0.01    -0.00   0.00  -0.00    -0.00   0.00   0.00
    25   1     0.02   0.03   0.04     0.01   0.02   0.03    -0.00  -0.01  -0.01
    26   6    -0.03   0.01   0.06     0.00  -0.00   0.00    -0.03   0.04  -0.02
    27   6    -0.00  -0.00  -0.00    -0.05   0.03  -0.06     0.00  -0.00   0.00
    28   6    -0.00  -0.01   0.00     0.01   0.01  -0.00     0.01   0.01  -0.01
    29   1     0.01  -0.05  -0.02     0.01  -0.02  -0.01     0.00  -0.02  -0.01
    30   1     0.02  -0.01   0.11     0.00  -0.00   0.02     0.00   0.00   0.01
    31   1    -0.19   0.29  -0.29    -0.01   0.03  -0.02     0.20  -0.32   0.33
    32   1     0.52  -0.46  -0.37    -0.02   0.02   0.02     0.12  -0.11  -0.09
    33   6     0.03  -0.00   0.01     0.00  -0.00  -0.00     0.04  -0.06  -0.01
    34   6     0.00  -0.00   0.00    -0.01   0.00  -0.00     0.00  -0.00   0.00
    35   1    -0.00   0.00  -0.00     0.51  -0.51   0.59    -0.01   0.01  -0.01
    36   1     0.01   0.02   0.02     0.15   0.19   0.17    -0.01  -0.01  -0.01
    37   1     0.06   0.07  -0.05    -0.06  -0.06   0.05    -0.15  -0.15   0.11
    38   1    -0.32   0.12  -0.08    -0.03   0.01  -0.01    -0.44   0.16  -0.11
    39   1     0.01  -0.12  -0.03    -0.00   0.02   0.01    -0.03   0.61   0.20
    40   1    -0.01   0.00  -0.00     0.15  -0.03   0.03    -0.05   0.01  -0.01
    41   7     0.00   0.00   0.00    -0.00   0.00  -0.00    -0.00   0.00  -0.00
    42   6    -0.00   0.00  -0.00    -0.00   0.00  -0.00     0.00  -0.00   0.00
    43   1     0.01  -0.00   0.00     0.03  -0.01   0.01    -0.01   0.00  -0.00
    44   1    -0.00   0.00   0.00     0.00  -0.00  -0.00    -0.00   0.01   0.00
    45   6    -0.00   0.00   0.00     0.00  -0.00   0.00     0.00  -0.00  -0.00
    46   1    -0.00  -0.00  -0.01     0.00  -0.00  -0.00     0.00   0.00   0.02
    47   1     0.01  -0.00   0.00    -0.02   0.00  -0.01    -0.02   0.00  -0.01
    48   1     0.00  -0.00  -0.00    -0.01   0.03   0.00    -0.00   0.02   0.00
    49   8    -0.00   0.00  -0.00    -0.00   0.00   0.00    -0.00   0.00  -0.00
    50   1     0.00  -0.00   0.00    -0.00   0.00  -0.00    -0.00  -0.00   0.00
    51   6    -0.00   0.00   0.00     0.00   0.00  -0.00     0.00  -0.00  -0.00
    52   9     0.00   0.00  -0.00    -0.00  -0.00  -0.00    -0.00   0.00   0.00
    53   9    -0.00   0.00  -0.00    -0.00  -0.00   0.00    -0.00  -0.00   0.00
    54   1     0.00  -0.00  -0.00    -0.00   0.00   0.00    -0.00   0.00   0.00
    55   1     0.00   0.00   0.00    -0.00  -0.00  -0.00    -0.00  -0.00  -0.00
                    145                    146                    147
                      A                      A                      A
 Frequencies --   3102.8914              3113.3140              3115.6154
 Red. masses --      1.0879                 1.1066                 1.1016
 Frc consts  --      6.1714                 6.3197                 6.3004
 IR Inten    --      0.0000                 0.0000                 0.0000
  Atom  AN      X      Y      Z        X      Y      Z        X      Y      Z
     1   6    -0.00   0.00  -0.00    -0.00   0.00   0.00    -0.00   0.00  -0.00
     2   6     0.00   0.00   0.00     0.00   0.00   0.00     0.00   0.00   0.00
     3   6    -0.00  -0.00  -0.00     0.00   0.00  -0.00    -0.00  -0.00  -0.00
     4   6     0.00  -0.00   0.00     0.00  -0.00  -0.00    -0.00  -0.00   0.00
     5   6    -0.00   0.00  -0.00     0.00   0.00  -0.00    -0.00   0.00  -0.00
     6   6     0.00  -0.00   0.00     0.00  -0.00  -0.00     0.00  -0.00   0.00
     7   1    -0.00  -0.00  -0.00    -0.00  -0.00   0.00    -0.00  -0.00  -0.00
     8   6     0.00   0.00   0.00     0.00  -0.00   0.00     0.00   0.00   0.00
     9   1     0.00   0.00   0.00    -0.00  -0.00  -0.00     0.00   0.00   0.00
    10   1    -0.00   0.00  -0.00    -0.00  -0.00  -0.00     0.00   0.00   0.00
    11   6     0.00   0.00   0.00    -0.00   0.00   0.00     0.00   0.00   0.00
    12   6    -0.00   0.00  -0.00    -0.00   0.00   0.00    -0.00   0.00  -0.00
    13   1    -0.00   0.00  -0.00     0.00  -0.00   0.00     0.00  -0.00   0.00
    14   1     0.00  -0.00   0.00     0.00  -0.00  -0.00     0.00  -0.00   0.00
    15   7     0.00   0.00  -0.00    -0.00  -0.00   0.00    -0.00   0.00  -0.00
    16   8     0.00  -0.00   0.00    -0.00  -0.00   0.00     0.00  -0.00   0.00
    17   6     0.00   0.00  -0.00     0.00  -0.00   0.00     0.00  -0.00   0.00
    18   1    -0.00  -0.00   0.00     0.00   0.00  -0.00     0.00   0.00  -0.00
    19   6    -0.00  -0.00   0.00     0.06  -0.00  -0.07     0.00  -0.00  -0.00
    20   1    -0.00   0.00  -0.00     0.01   0.01  -0.02     0.00   0.00  -0.00
    21   1     0.00  -0.00  -0.00    -0.17   0.36   0.57    -0.00   0.00   0.00
    22   1     0.00   0.00  -0.00    -0.54  -0.33   0.33    -0.00  -0.00   0.00
    23   6     0.00   0.00   0.00     0.00  -0.00  -0.00     0.00   0.00   0.00
    24   6     0.00  -0.00   0.01    -0.00   0.00   0.00     0.00  -0.00  -0.00
    25   1    -0.01  -0.02  -0.02     0.00  -0.00   0.00    -0.00  -0.01  -0.01
    26   6    -0.01   0.01  -0.01    -0.00   0.00  -0.00    -0.02   0.02  -0.01
    27   6    -0.00   0.00  -0.01    -0.00   0.00  -0.00    -0.00   0.00  -0.00
    28   6    -0.05  -0.05   0.03     0.00   0.00  -0.00    -0.01  -0.01   0.01
    29   1     0.00  -0.01  -0.00     0.00  -0.00  -0.00    -0.01   0.04   0.02
    30   1    -0.03   0.01  -0.14     0.00   0.00  -0.00    -0.00   0.00  -0.01
    31   1     0.06  -0.09   0.10     0.00  -0.00   0.00     0.11  -0.17   0.18
    32   1     0.01  -0.01  -0.01     0.00  -0.00  -0.00     0.13  -0.11  -0.09
    33   6     0.00  -0.02  -0.01    -0.00   0.00   0.00    -0.01   0.01   0.00
    34   6    -0.01   0.00  -0.00    -0.00   0.00  -0.00     0.00  -0.00   0.00
    35   1     0.05  -0.05   0.06     0.00  -0.00   0.00     0.01  -0.01   0.01
    36   1     0.01   0.01   0.01     0.00   0.00   0.00     0.00   0.00   0.00
    37   1     0.56   0.57  -0.41    -0.00  -0.00   0.00     0.14   0.14  -0.11
    38   1     0.00  -0.00   0.00     0.00  -0.00   0.00     0.13  -0.05   0.03
    39   1    -0.01   0.22   0.08     0.00  -0.00  -0.00     0.01  -0.11  -0.04
    40   1     0.08  -0.02   0.02     0.00  -0.00   0.00    -0.01   0.00  -0.00
    41   7    -0.00   0.00  -0.00    -0.00   0.00  -0.00    -0.00   0.00  -0.00
    42   6    -0.00   0.00   0.00    -0.00   0.00  -0.00     0.01  -0.01   0.00
    43   1     0.03  -0.00   0.01     0.00  -0.00   0.00    -0.10   0.01  -0.02
    44   1     0.01  -0.05  -0.01    -0.00  -0.00   0.00    -0.02   0.11   0.02
    45   6    -0.02   0.02   0.00    -0.00   0.00   0.00     0.06  -0.05   0.01
    46   1    -0.01  -0.02  -0.08    -0.00  -0.00  -0.00     0.01  -0.02  -0.04
    47   1     0.17  -0.01   0.04     0.01  -0.00   0.00    -0.59   0.05  -0.15
    48   1     0.04  -0.16  -0.02     0.00  -0.01  -0.00    -0.15   0.61   0.07
    49   8    -0.00   0.00   0.00    -0.00   0.00  -0.00    -0.00   0.00  -0.00
    50   1    -0.00  -0.00   0.00    -0.00   0.00   0.00     0.00  -0.00   0.00
    51   6     0.00  -0.00  -0.00     0.00  -0.00  -0.00     0.00   0.00   0.00
    52   9    -0.00  -0.00  -0.00    -0.00  -0.00   0.00    -0.00  -0.00  -0.00
    53   9    -0.00  -0.00   0.00     0.00  -0.00   0.00    -0.00   0.00  -0.00
    54   1    -0.00   0.00   0.00    -0.00   0.00   0.00    -0.00  -0.00   0.00
    55   1    -0.00  -0.00  -0.00     0.00   0.00  -0.00    -0.00  -0.00  -0.00
                    148                    149                    150
                      A                      A                      A
 Frequencies --   3116.7597              3125.2605              3127.2311
 Red. masses --      1.1049                 1.0967                 1.1008
 Frc consts  --      6.3239                 6.3113                 6.3425
 IR Inten    --      0.0000                 0.0000                 0.0000
  Atom  AN      X      Y      Z        X      Y      Z        X      Y      Z
     1   6    -0.00   0.00  -0.00     0.00   0.00   0.00     0.00  -0.00   0.00
     2   6    -0.00  -0.00  -0.00    -0.00  -0.00  -0.00    -0.00  -0.00  -0.00
     3   6    -0.00   0.00  -0.00     0.00  -0.00   0.00     0.00   0.00   0.00
     4   6     0.00  -0.00   0.00     0.00   0.00   0.00    -0.00   0.00  -0.00
     5   6    -0.00   0.00  -0.00     0.00  -0.00   0.00     0.00  -0.00   0.00
     6   6     0.00  -0.00   0.00    -0.00   0.00  -0.00    -0.00   0.00  -0.00
     7   1     0.00   0.00   0.00     0.00   0.00   0.00     0.00   0.00   0.00
     8   6     0.00   0.00   0.00    -0.00  -0.00   0.00    -0.00  -0.00  -0.00
     9   1     0.00  -0.00   0.00    -0.00  -0.00  -0.00    -0.00  -0.00  -0.00
    10   1     0.00   0.00  -0.00    -0.00  -0.00  -0.00    -0.00  -0.00  -0.00
    11   6     0.00   0.00   0.00    -0.00   0.00   0.00     0.00  -0.00   0.00
    12   6    -0.00   0.00  -0.00    -0.00  -0.00   0.00     0.00  -0.00   0.00
    13   1     0.00  -0.00   0.00     0.00  -0.00   0.00    -0.00   0.00  -0.00
    14   1     0.00   0.00   0.00    -0.00  -0.00  -0.00    -0.00   0.00  -0.00
    15   7    -0.00   0.00  -0.00     0.00  -0.00   0.00    -0.00  -0.00   0.00
    16   8     0.00  -0.00   0.00     0.00  -0.00   0.00    -0.00   0.00  -0.00
    17   6     0.00  -0.00   0.00    -0.00  -0.00  -0.00     0.00  -0.00  -0.00
    18   1     0.00   0.00  -0.00    -0.00  -0.00   0.00    -0.00  -0.00   0.00
    19   6    -0.00  -0.00   0.00     0.00  -0.00  -0.00     0.00   0.00  -0.00
    20   1    -0.00  -0.00   0.00    -0.00   0.00  -0.00     0.00  -0.00   0.00
    21   1     0.00  -0.00  -0.00    -0.00   0.00   0.00    -0.00   0.00   0.00
    22   1     0.01   0.00  -0.00    -0.00  -0.00   0.00    -0.00  -0.00   0.00
    23   6     0.00  -0.00  -0.00    -0.00  -0.00  -0.01    -0.00  -0.00  -0.00
    24   6     0.00  -0.01  -0.01     0.01  -0.06  -0.06     0.00  -0.01  -0.00
    25   1     0.00   0.00   0.01     0.03   0.05   0.06     0.00   0.01   0.01
    26   6    -0.04   0.05  -0.02     0.01  -0.01   0.00     0.00  -0.00   0.00
    27   6    -0.00   0.00  -0.00    -0.00   0.00  -0.00    -0.00  -0.00  -0.00
    28   6     0.01   0.01  -0.00    -0.00  -0.00   0.00    -0.00  -0.00   0.00
    29   1    -0.02   0.10   0.05    -0.18   0.81   0.39    -0.01   0.07   0.03
    30   1     0.01  -0.01   0.05     0.06  -0.04   0.34     0.00  -0.00   0.03
    31   1     0.24  -0.38   0.41    -0.03   0.04  -0.04    -0.00   0.00  -0.00
    32   1     0.30  -0.26  -0.22    -0.04   0.03   0.03    -0.00   0.00   0.00
    33   6    -0.03   0.04   0.00     0.00  -0.01  -0.00     0.00  -0.00  -0.00
    34   6    -0.00   0.00  -0.00    -0.00   0.00  -0.00    -0.00   0.00   0.00
    35   1     0.03  -0.03   0.03     0.00  -0.00   0.00     0.00  -0.00   0.00
    36   1     0.01   0.01   0.01     0.00   0.00   0.00     0.00   0.00   0.00
    37   1    -0.07  -0.07   0.05     0.03   0.03  -0.02     0.05   0.05  -0.04
    38   1     0.31  -0.11   0.08    -0.05   0.02  -0.01    -0.00   0.00  -0.00
    39   1     0.02  -0.35  -0.12    -0.00   0.08   0.03    -0.00   0.01   0.00
    40   1     0.02  -0.01   0.01     0.01  -0.00   0.00     0.01  -0.00   0.00
    41   7    -0.00   0.00  -0.00     0.00  -0.00  -0.00     0.00   0.00  -0.00
    42   6    -0.01   0.00  -0.00    -0.00   0.00   0.00    -0.00  -0.01  -0.00
    43   1     0.05  -0.01   0.01     0.01  -0.00   0.00     0.04  -0.00   0.01
    44   1     0.01  -0.05  -0.01     0.00  -0.01  -0.00    -0.01   0.06   0.01
    45   6    -0.02   0.02  -0.00     0.00   0.00   0.01    -0.03  -0.04  -0.08
    46   1    -0.00   0.01   0.02    -0.01  -0.02  -0.08     0.09   0.22   0.84
    47   1     0.24  -0.02   0.06    -0.02   0.00  -0.00     0.31  -0.04   0.06
    48   1     0.06  -0.25  -0.03     0.01  -0.02  -0.00    -0.09   0.32   0.02
    49   8    -0.00   0.00  -0.00     0.00   0.00  -0.00     0.00   0.00  -0.00
    50   1     0.00   0.00   0.00     0.00   0.00   0.00     0.00   0.00   0.00
    51   6     0.00  -0.00  -0.00     0.00   0.00   0.00    -0.00   0.00   0.00
    52   9    -0.00  -0.00  -0.00    -0.00  -0.00   0.00     0.00   0.00   0.00
    53   9    -0.00  -0.00   0.00    -0.00  -0.00   0.00     0.00  -0.00   0.00
    54   1    -0.00   0.00   0.00     0.00  -0.00  -0.00     0.00  -0.00  -0.00
    55   1    -0.00  -0.00  -0.00    -0.00   0.00  -0.00     0.00   0.00   0.00
                    151                    152                    153
                      A                      A                      A
 Frequencies --   3138.4953              3190.4626              3200.6606
 Red. masses --      1.0885                 1.1007                 1.0910
 Frc consts  --      6.3172                 6.6013                 6.5853
 IR Inten    --      0.0000                 0.0000                 0.0000
  Atom  AN      X      Y      Z        X      Y      Z        X      Y      Z
     1   6     0.00   0.00   0.00    -0.00   0.00  -0.00     0.00   0.00   0.00
     2   6    -0.00  -0.00  -0.00     0.01   0.00   0.01    -0.04  -0.01  -0.03
     3   6     0.00   0.00  -0.00    -0.00   0.00  -0.00     0.00  -0.00   0.00
     4   6    -0.00  -0.00   0.00    -0.00   0.00  -0.00     0.00   0.00   0.00
     5   6     0.00   0.00   0.00    -0.00  -0.00  -0.00    -0.05  -0.01  -0.04
     6   6    -0.00   0.00  -0.00    -0.00  -0.00  -0.00     0.01   0.02   0.01
     7   1     0.00   0.00   0.00    -0.08  -0.01  -0.06     0.45   0.07   0.33
     8   6     0.00  -0.00   0.00     0.00   0.00   0.00    -0.00   0.00  -0.00
     9   1    -0.00  -0.00  -0.00     0.00   0.00   0.00     0.62   0.10   0.47
    10   1     0.00   0.00   0.00     0.00   0.00   0.00    -0.07  -0.21  -0.04
    11   6     0.00   0.00  -0.00    -0.00   0.00   0.00    -0.00   0.00  -0.00
    12   6    -0.00   0.00   0.00     0.00  -0.00   0.00     0.00   0.00   0.00
    13   1     0.00  -0.00   0.00     0.00  -0.00   0.00     0.00  -0.01   0.01
    14   1    -0.00  -0.00  -0.00     0.00  -0.00   0.00    -0.00   0.00   0.00
    15   7    -0.00   0.00   0.00    -0.00  -0.00  -0.00    -0.00   0.00  -0.00
    16   8     0.00  -0.00   0.00     0.00   0.00   0.00    -0.00  -0.00  -0.00
    17   6    -0.00  -0.00   0.00    -0.00  -0.00   0.00     0.00   0.00  -0.00
    18   1     0.00   0.00  -0.00    -0.00   0.00  -0.00    -0.00  -0.01   0.01
    19   6    -0.00   0.00   0.00     0.01  -0.09   0.01     0.00  -0.01   0.00
    20   1     0.00  -0.00   0.00    -0.23   0.90  -0.21    -0.01   0.05  -0.01
    21   1     0.00  -0.00  -0.00    -0.05   0.09   0.17    -0.01   0.01   0.01
    22   1     0.00   0.00  -0.00     0.16   0.08  -0.10     0.01   0.01  -0.01
    23   6    -0.00  -0.00  -0.00    -0.00  -0.00  -0.00     0.00   0.00   0.00
    24   6     0.00  -0.00  -0.00    -0.00   0.00  -0.00    -0.00   0.00   0.00
    25   1     0.00   0.00   0.00     0.00   0.00   0.00    -0.00  -0.00  -0.00
    26   6     0.00  -0.00   0.00     0.00  -0.00   0.00     0.00  -0.00  -0.00
    27   6    -0.00  -0.00  -0.00     0.00  -0.00   0.00    -0.00   0.00   0.00
    28   6    -0.00  -0.00   0.00     0.00   0.00  -0.00    -0.00  -0.00   0.00
    29   1    -0.00   0.00   0.00     0.00  -0.00  -0.00     0.00  -0.00  -0.00
    30   1     0.00  -0.00   0.00     0.00  -0.00   0.00    -0.00   0.00  -0.00
    31   1    -0.00   0.00  -0.00    -0.00   0.00  -0.00     0.00  -0.00   0.00
    32   1    -0.00   0.00   0.00     0.00  -0.00  -0.00    -0.00   0.00   0.00
    33   6     0.00  -0.00   0.00     0.00   0.00   0.00    -0.00  -0.00  -0.00
    34   6     0.00  -0.00   0.00     0.00  -0.00   0.00    -0.00  -0.00  -0.00
    35   1    -0.00   0.00  -0.00    -0.00   0.00  -0.00     0.00  -0.00   0.00
    36   1     0.00   0.00   0.00    -0.00  -0.00   0.00     0.00  -0.00  -0.00
    37   1     0.00   0.00  -0.00    -0.00  -0.00   0.00     0.00   0.00  -0.00
    38   1    -0.00   0.00  -0.00    -0.00   0.00  -0.00     0.00  -0.00   0.00
    39   1     0.00   0.00   0.00    -0.00  -0.00  -0.00     0.00   0.00   0.00
    40   1    -0.00   0.00  -0.00    -0.00   0.00  -0.00     0.00   0.00  -0.00
    41   7    -0.00   0.00  -0.00    -0.00  -0.00   0.00     0.00   0.00   0.00
    42   6     0.00  -0.00  -0.00     0.00  -0.00  -0.00     0.00   0.00   0.00
    43   1    -0.00   0.00  -0.00    -0.00   0.00  -0.00    -0.00   0.00  -0.00
    44   1    -0.00   0.00   0.00    -0.00   0.00   0.00     0.00  -0.00  -0.00
    45   6     0.00  -0.00  -0.00     0.00  -0.00  -0.00     0.00  -0.00   0.00
    46   1     0.00   0.00   0.00     0.00   0.00   0.00    -0.00  -0.00  -0.00
    47   1    -0.00   0.00  -0.00    -0.00  -0.00  -0.00    -0.00   0.00  -0.00
    48   1    -0.00   0.00   0.00    -0.00   0.00   0.00    -0.00   0.00   0.00
    49   8    -0.00   0.00  -0.00    -0.00  -0.00   0.00    -0.00  -0.00   0.00
    50   1     0.00  -0.00   0.00     0.00   0.00  -0.00     0.00   0.00  -0.00
    51   6     0.00  -0.08  -0.01    -0.00  -0.00   0.00    -0.00  -0.00   0.00
    52   9     0.00   0.00  -0.00     0.00   0.00   0.00     0.00   0.00   0.00
    53   9     0.00   0.00  -0.00     0.00   0.00  -0.00     0.00   0.00  -0.00
    54   1    -0.04   0.98   0.18     0.00   0.00   0.00     0.00   0.00   0.00
    55   1     0.00   0.00   0.00     0.00  -0.00   0.00     0.00  -0.00   0.00
                    154                    155                    156
                      A                      A                      A
 Frequencies --   3201.7130              3228.3156              3234.3182
 Red. masses --      1.0922                 1.0952                 1.0917
 Frc consts  --      6.5964                 6.7251                 6.7284
 IR Inten    --      0.0000                 0.0000                 0.0000
  Atom  AN      X      Y      Z        X      Y      Z        X      Y      Z
     1   6     0.00   0.00   0.00     0.00  -0.00   0.00     0.00  -0.00   0.00
     2   6    -0.06  -0.01  -0.04    -0.00   0.00  -0.00     0.00   0.00   0.00
     3   6     0.00  -0.00   0.00     0.00   0.00   0.00     0.00  -0.00   0.00
     4   6     0.00  -0.00   0.00     0.00   0.00   0.00    -0.00   0.00  -0.00
     5   6     0.04   0.01   0.03    -0.02   0.00  -0.02    -0.00  -0.00  -0.00
     6   6    -0.00  -0.01  -0.00    -0.03  -0.08  -0.01    -0.00  -0.00  -0.00
     7   1     0.65   0.10   0.48     0.01   0.00   0.01    -0.00  -0.00  -0.00
     8   6    -0.00  -0.00  -0.00    -0.00  -0.00  -0.00     0.00  -0.00   0.00
     9   1    -0.43  -0.07  -0.33     0.21   0.03   0.16     0.02   0.00   0.01
    10   1     0.05   0.13   0.03     0.31   0.89   0.18     0.01   0.03   0.01
    11   6     0.00  -0.00   0.00    -0.00   0.00  -0.00     0.03  -0.06   0.04
    12   6    -0.00   0.00  -0.00    -0.00  -0.00  -0.00     0.01   0.03   0.00
    13   1    -0.00   0.01  -0.00     0.01  -0.02   0.02    -0.38   0.66  -0.50
    14   1    -0.00  -0.00  -0.00     0.01   0.02   0.00    -0.12  -0.38  -0.06
    15   7     0.00  -0.00   0.00    -0.00  -0.00  -0.00    -0.00   0.00  -0.00
    16   8    -0.00  -0.00  -0.00    -0.00   0.00  -0.00    -0.00   0.00  -0.00
    17   6     0.00   0.00  -0.00     0.00   0.00  -0.00     0.00   0.00   0.00
    18   1    -0.00  -0.01   0.01     0.00  -0.00   0.00    -0.00   0.00   0.00
    19   6     0.00  -0.01   0.00    -0.00   0.00  -0.00     0.00   0.00   0.00
    20   1    -0.02   0.07  -0.02     0.00  -0.00   0.00    -0.00   0.00  -0.00
    21   1    -0.01   0.01   0.02     0.00   0.00   0.00     0.00  -0.00  -0.00
    22   1     0.02   0.01  -0.01     0.00   0.00  -0.00    -0.00  -0.00   0.00
    23   6     0.00   0.00   0.00     0.00  -0.00  -0.00    -0.00   0.00   0.00
    24   6    -0.00   0.00   0.00    -0.00   0.00  -0.00    -0.00  -0.00  -0.00
    25   1    -0.00  -0.01  -0.01     0.00   0.00   0.00    -0.00  -0.00  -0.00
    26   6     0.00  -0.00  -0.00     0.00  -0.00   0.00    -0.00   0.00   0.00
    27   6    -0.00   0.00   0.00    -0.00  -0.00  -0.00     0.00   0.00   0.00
    28   6    -0.00  -0.00   0.00     0.00  -0.00   0.00     0.00   0.00  -0.00
    29   1     0.00  -0.00  -0.00    -0.00   0.00   0.00     0.00  -0.00  -0.00
    30   1    -0.00   0.00  -0.00     0.00  -0.00   0.00     0.00  -0.00   0.00
    31   1     0.00  -0.00   0.00    -0.00   0.00  -0.00     0.00   0.00   0.00
    32   1    -0.00   0.00   0.00    -0.00   0.00   0.00     0.00  -0.00  -0.00
    33   6    -0.00  -0.00  -0.00     0.00  -0.00  -0.00     0.00   0.00  -0.00
    34   6    -0.00  -0.00  -0.00     0.00   0.00   0.00     0.00   0.00   0.00
    35   1     0.00  -0.00   0.00    -0.00   0.00  -0.00    -0.00   0.00  -0.00
    36   1     0.00  -0.00  -0.00     0.00   0.00   0.00    -0.00  -0.00  -0.00
    37   1     0.00   0.00  -0.00     0.00   0.00  -0.00    -0.00  -0.00   0.00
    38   1     0.00  -0.00   0.00    -0.00   0.00  -0.00    -0.00   0.00  -0.00
    39   1     0.00   0.00   0.00    -0.00   0.00   0.00     0.00  -0.00  -0.00
    40   1     0.00   0.00  -0.00    -0.00   0.00   0.00    -0.00   0.00  -0.00
    41   7     0.00   0.00   0.00    -0.00  -0.00   0.00     0.00   0.00  -0.00
    42   6     0.00   0.00   0.00     0.00  -0.00  -0.00    -0.00  -0.00   0.00
    43   1    -0.00   0.00  -0.00    -0.00  -0.00  -0.00     0.00   0.00   0.00
    44   1     0.00  -0.00  -0.00    -0.00   0.00   0.00     0.00   0.00   0.00
    45   6     0.00   0.00   0.00    -0.00  -0.00  -0.00     0.00   0.00   0.00
    46   1    -0.00  -0.00  -0.00     0.00   0.00   0.00     0.00  -0.00  -0.00
    47   1    -0.00   0.00  -0.00     0.00  -0.00   0.00    -0.00   0.00  -0.00
    48   1    -0.00   0.00   0.00    -0.00   0.00   0.00     0.00  -0.00   0.00
    49   8    -0.00  -0.00   0.00    -0.00   0.00  -0.00     0.00  -0.00   0.00
    50   1     0.00   0.00  -0.00    -0.00   0.00  -0.00    -0.00  -0.00   0.00
    51   6     0.00   0.00   0.00    -0.00  -0.00   0.00     0.00  -0.00  -0.00
    52   9    -0.00  -0.00  -0.00     0.00   0.00   0.00    -0.00  -0.00  -0.00
    53   9    -0.00  -0.00   0.00     0.00   0.00  -0.00     0.00   0.00  -0.00
    54   1    -0.00  -0.00  -0.00     0.00   0.00  -0.00    -0.00   0.00   0.00
    55   1    -0.00   0.00  -0.00     0.00  -0.00   0.00     0.01  -0.00   0.01
                    157                    158                    159
                      A                      A                      A
 Frequencies --   3248.6530              3563.4082              3841.5316
 Red. masses --      1.0937                 1.0778                 1.0670
 Frc consts  --      6.8009                 8.0635                 9.2771
 IR Inten    --      0.0000                 0.0000                 0.0000
  Atom  AN      X      Y      Z        X      Y      Z        X      Y      Z
     1   6     0.00  -0.00   0.00     0.00   0.00   0.00     0.00  -0.00   0.00
     2   6    -0.00  -0.00  -0.00    -0.00  -0.00  -0.00    -0.00   0.00  -0.00
     3   6     0.00   0.00   0.00     0.00   0.00   0.00     0.00  -0.00   0.00
     4   6    -0.00   0.00  -0.00     0.00  -0.00   0.00    -0.00   0.00  -0.00
     5   6    -0.00  -0.00  -0.00     0.00  -0.00   0.00     0.00   0.00   0.00
     6   6     0.00   0.00   0.00    -0.00   0.00  -0.00     0.00   0.00   0.00
     7   1     0.00   0.00   0.00     0.00   0.00   0.00     0.00  -0.00   0.00
     8   6    -0.00   0.00  -0.00    -0.00   0.00  -0.00    -0.00   0.00  -0.00
     9   1     0.00   0.00   0.00    -0.00   0.00  -0.00     0.00   0.00   0.00
    10   1    -0.00  -0.00  -0.00    -0.00  -0.00  -0.00     0.00  -0.00  -0.00
    11   6     0.02  -0.03   0.02    -0.00   0.00  -0.00    -0.00   0.00  -0.00
    12   6    -0.02  -0.08  -0.01     0.00  -0.00   0.00     0.00  -0.00   0.00
    13   1    -0.17   0.29  -0.22     0.01  -0.01   0.01     0.00  -0.00   0.00
    14   1     0.28   0.86   0.15     0.00   0.00   0.00    -0.00   0.00  -0.00
    15   7     0.00   0.00   0.00    -0.06  -0.01  -0.04     0.00  -0.00   0.00
    16   8    -0.00   0.00  -0.00    -0.00  -0.00   0.00    -0.00   0.00  -0.00
    17   6    -0.00  -0.00  -0.00     0.00  -0.00  -0.00     0.00   0.00  -0.00
    18   1     0.00  -0.00   0.00     0.00   0.00   0.00    -0.00   0.00   0.01
    19   6     0.00  -0.00   0.00    -0.00   0.00  -0.00     0.00  -0.00   0.00
    20   1    -0.00   0.00  -0.00     0.00  -0.00   0.00    -0.00   0.00  -0.00
    21   1    -0.00   0.00   0.00     0.00   0.00  -0.00    -0.00  -0.00  -0.00
    22   1    -0.00  -0.00   0.00    -0.00   0.00   0.00     0.00  -0.00  -0.00
    23   6     0.00  -0.00   0.00    -0.00   0.00   0.00    -0.00   0.00   0.00
    24   6     0.00  -0.00   0.00     0.00  -0.00   0.00    -0.00   0.00   0.00
    25   1    -0.00  -0.00  -0.00    -0.00   0.00   0.00    -0.00   0.00   0.00
    26   6     0.00  -0.00  -0.00    -0.00   0.00  -0.00     0.00   0.00  -0.00
    27   6     0.00   0.00   0.00    -0.00   0.00   0.00     0.00  -0.00  -0.00
    28   6    -0.00  -0.00   0.00    -0.00   0.00  -0.00     0.00  -0.00  -0.00
    29   1    -0.00   0.00   0.00    -0.00   0.00   0.00    -0.00  -0.00  -0.00
    30   1     0.00   0.00  -0.00     0.00   0.00  -0.00    -0.00  -0.00  -0.00
    31   1     0.00  -0.00   0.00     0.00  -0.00   0.00    -0.00   0.00  -0.00
    32   1    -0.00   0.00   0.00     0.00  -0.00  -0.00     0.00  -0.00   0.00
    33   6    -0.00   0.00   0.00    -0.00  -0.00   0.00     0.00  -0.00  -0.00
    34   6    -0.00   0.00  -0.00    -0.00  -0.00   0.00     0.00   0.00   0.00
    35   1     0.00  -0.00  -0.00     0.00  -0.00   0.00    -0.00   0.00  -0.00
    36   1    -0.00  -0.00  -0.00    -0.00  -0.00  -0.00    -0.00   0.00   0.00
    37   1     0.00   0.00  -0.00     0.00   0.00  -0.00    -0.00  -0.00   0.00
    38   1     0.00  -0.00   0.00     0.00  -0.00   0.00    -0.00   0.00   0.00
    39   1    -0.00  -0.00  -0.00    -0.00   0.00   0.00     0.00  -0.00   0.00
    40   1     0.00  -0.00  -0.00     0.00  -0.00   0.00    -0.00  -0.00  -0.00
    41   7     0.00  -0.00  -0.00     0.00  -0.00   0.00    -0.00  -0.00  -0.00
    42   6     0.00   0.00   0.00    -0.00   0.00  -0.00     0.00  -0.00   0.00
    43   1    -0.00   0.00  -0.00     0.00   0.00   0.00    -0.00   0.00  -0.00
    44   1     0.00  -0.00  -0.00     0.00  -0.00  -0.00    -0.00   0.00   0.00
    45   6     0.00   0.00   0.00    -0.00   0.00   0.00     0.00   0.00  -0.00
    46   1    -0.00  -0.00  -0.00    -0.00  -0.00  -0.00     0.00   0.00   0.00
    47   1    -0.00   0.00  -0.00     0.00  -0.00   0.00    -0.00  -0.00  -0.00
    48   1     0.00  -0.00   0.00    -0.00  -0.00   0.00     0.00  -0.00  -0.00
    49   8    -0.00   0.00  -0.00     0.00   0.00  -0.00     0.03  -0.01  -0.05
    50   1     0.00   0.00   0.00    -0.00   0.00   0.00    -0.50   0.16   0.85
    51   6     0.00  -0.00  -0.00     0.00   0.00   0.00    -0.00  -0.00   0.00
    52   9    -0.00   0.00   0.00    -0.00  -0.00  -0.00     0.00   0.00  -0.00
    53   9     0.00   0.00  -0.00    -0.00  -0.00   0.00    -0.00   0.00  -0.00
    54   1    -0.00   0.01   0.00    -0.00  -0.00   0.00     0.00   0.00  -0.00
    55   1     0.01  -0.00   0.00     0.79   0.15   0.60    -0.00  -0.00  -0.00

 -------------------
 - Thermochemistry -
 -------------------
 Temperature   298.150 Kelvin.  Pressure   1.00000 Atm.
 Atom     1 has atomic number  6 and mass  12.00000
 Atom     2 has atomic number  6 and mass  12.00000
 Atom     3 has atomic number  6 and mass  12.00000
 Atom     4 has atomic number  6 and mass  12.00000
 Atom     5 has atomic number  6 and mass  12.00000
 Atom     6 has atomic number  6 and mass  12.00000
 Atom     7 has atomic number  1 and mass   1.00783
 Atom     8 has atomic number  6 and mass  12.00000
 Atom     9 has atomic number  1 and mass   1.00783
 Atom    10 has atomic number  1 and mass   1.00783
 Atom    11 has atomic number  6 and mass  12.00000
 Atom    12 has atomic number  6 and mass  12.00000
 Atom    13 has atomic number  1 and mass   1.00783
 Atom    14 has atomic number  1 and mass   1.00783
 Atom    15 has atomic number  7 and mass  14.00307
 Atom    16 has atomic number  8 and mass  15.99491
 Atom    17 has atomic number  6 and mass  12.00000
 Atom    18 has atomic number  1 and mass   1.00783
 Atom    19 has atomic number  6 and mass  12.00000
 Atom    20 has atomic number  1 and mass   1.00783
 Atom    21 has atomic number  1 and mass   1.00783
 Atom    22 has atomic number  1 and mass   1.00783
 Atom    23 has atomic number  6 and mass  12.00000
 Atom    24 has atomic number  6 and mass  12.00000
 Atom    25 has atomic number  1 and mass   1.00783
 Atom    26 has atomic number  6 and mass  12.00000
 Atom    27 has atomic number  6 and mass  12.00000
 Atom    28 has atomic number  6 and mass  12.00000
 Atom    29 has atomic number  1 and mass   1.00783
 Atom    30 has atomic number  1 and mass   1.00783
 Atom    31 has atomic number  1 and mass   1.00783
 Atom    32 has atomic number  1 and mass   1.00783
 Atom    33 has atomic number  6 and mass  12.00000
 Atom    34 has atomic number  6 and mass  12.00000
 Atom    35 has atomic number  1 and mass   1.00783
 Atom    36 has atomic number  1 and mass   1.00783
 Atom    37 has atomic number  1 and mass   1.00783
 Atom    38 has atomic number  1 and mass   1.00783
 Atom    39 has atomic number  1 and mass   1.00783
 Atom    40 has atomic number  1 and mass   1.00783
 Atom    41 has atomic number  7 and mass  14.00307
 Atom    42 has atomic number  6 and mass  12.00000
 Atom    43 has atomic number  1 and mass   1.00783
 Atom    44 has atomic number  1 and mass   1.00783
 Atom    45 has atomic number  6 and mass  12.00000
 Atom    46 has atomic number  1 and mass   1.00783
 Atom    47 has atomic number  1 and mass   1.00783
 Atom    48 has atomic number  1 and mass   1.00783
 Atom    49 has atomic number  8 and mass  15.99491
 Atom    50 has atomic number  1 and mass   1.00783
 Atom    51 has atomic number  6 and mass  12.00000
 Atom    52 has atomic number  9 and mass  18.99840
 Atom    53 has atomic number  9 and mass  18.99840
 Atom    54 has atomic number  1 and mass   1.00783
 Atom    55 has atomic number  1 and mass   1.00783
 Molecular mass:   378.21188 amu.
 Principal axes and moments of inertia in atomic units:
                           1         2         3
     Eigenvalues --  6640.72480********************
           X            0.99993   0.01134  -0.00240
           Y           -0.01137   0.99982  -0.01502
           Z            0.00223   0.01504   0.99988
 This molecule is an asymmetric top.
 Rotational symmetry number  1.
 Warning -- assumption of classical behavior for rotation
           may cause significant error
 Rotational temperatures (Kelvin)      0.01304     0.00609     0.00513
 Rotational constants (GHZ):           0.27177     0.12684     0.10689
    1 imaginary frequencies ignored.
 Zero-point vibrational energy    1231060.8 (Joules/Mol)
                                  294.23058 (Kcal/Mol)
 Warning -- explicit consideration of  40 degrees of freedom as
           vibrations may cause significant error
 Vibrational temperatures:     32.55    37.66    41.15    48.24    68.09
          (Kelvin)             83.98   105.77   127.50   137.83   197.35
                              204.28   233.91   244.73   256.34   300.01
                              310.57   319.23   349.45   352.96   372.13
                              383.69   388.20   433.52   458.94   499.36
                              513.69   529.74   540.51   584.74   600.94
                              631.79   664.52   692.64   750.83   777.36
                              784.66   785.82   810.75   840.02   859.66
                              897.13   909.47   941.89   998.64  1043.26
                             1052.02  1077.66  1118.11  1143.97  1155.31
                             1194.80  1197.07  1216.06  1226.43  1260.20
                             1283.12  1298.69  1326.78  1353.30  1363.21
                             1373.03  1381.34  1390.73  1415.87  1438.57
                             1440.74  1471.00  1482.28  1498.36  1524.69
                             1532.00  1536.78  1561.59  1563.89  1577.06
                             1587.34  1618.13  1654.48  1660.99  1675.57
                             1677.53  1684.71  1685.88  1732.68  1735.45
                             1740.72  1755.09  1769.09  1783.87  1799.21
                             1813.03  1814.75  1839.46  1867.33  1870.49
                             1882.36  1887.89  1903.13  1910.56  1928.24
                             1933.06  1934.25  1950.83  1962.62  1978.20
                             1982.31  1989.28  1995.64  2016.36  2034.19
                             2035.20  2047.57  2072.04  2098.71  2109.67
                             2124.60  2130.93  2135.17  2137.84  2143.49
                             2146.14  2150.69  2158.54  2169.96  2174.65
                             2204.91  2252.60  2356.51  2393.93  2422.95
                             4341.67  4354.63  4368.69  4381.64  4383.58
                             4390.06  4392.21  4396.96  4404.08  4416.60
                             4420.41  4449.02  4453.93  4464.37  4479.36
                             4482.68  4484.32  4496.55  4499.39  4515.59
                             4590.36  4605.04  4606.55  4644.83  4653.46
                             4674.09  5126.95  5527.11
 
 Zero-point correction=                           0.468886 (Hartree/Particle)
 Thermal correction to Energy=                    0.493937
 Thermal correction to Enthalpy=                  0.494881
 Thermal correction to Gibbs Free Energy=         0.411727
 Sum of electronic and zero-point Energies=          -1275.974700
 Sum of electronic and thermal Energies=             -1275.949649
 Sum of electronic and thermal Enthalpies=           -1275.948705
 Sum of electronic and thermal Free Energies=        -1276.031859
 
                     E (Thermal)             CV                S
                      KCal/Mol        Cal/Mol-Kelvin    Cal/Mol-Kelvin
 Total                  309.950             97.551            175.013
 Electronic               0.000              0.000              1.377
 Translational            0.889              2.981             43.683
 Rotational               0.889              2.981             35.721
 Vibrational            308.173             91.589             94.230
 Vibration     1          0.593              1.985              6.389
 Vibration     2          0.593              1.985              6.100
 Vibration     3          0.593              1.984              5.924
 Vibration     4          0.594              1.983              5.609
 Vibration     5          0.595              1.979              4.926
 Vibration     6          0.596              1.974              4.512
 Vibration     7          0.599              1.966              4.057
 Vibration     8          0.601              1.957              3.690
 Vibration     9          0.603              1.952              3.538
 Vibration    10          0.614              1.916              2.843
 Vibration    11          0.615              1.911              2.777
 Vibration    12          0.623              1.888              2.520
 Vibration    13          0.625              1.879              2.434
 Vibration    14          0.629              1.869              2.348
 Vibration    15          0.642              1.828              2.057
 Vibration    16          0.645              1.817              1.994
 Vibration    17          0.648              1.808              1.944
 Vibration    18          0.659              1.775              1.782
 Vibration    19          0.660              1.771              1.764
 Vibration    20          0.667              1.748              1.671
 Vibration    21          0.672              1.734              1.618
 Vibration    22          0.674              1.729              1.597
 Vibration    23          0.693              1.671              1.410
 Vibration    24          0.705              1.637              1.315
 Vibration    25          0.725              1.581              1.179
 Vibration    26          0.732              1.561              1.135
 Vibration    27          0.741              1.538              1.087
 Vibration    28          0.747              1.522              1.057
 Vibration    29          0.771              1.456              0.939
 Vibration    30          0.781              1.432              0.900
 Vibration    31          0.799              1.385              0.829
 Vibration    32          0.820              1.335              0.761
 Vibration    33          0.838              1.291              0.706
 Vibration    34          0.877              1.202              0.606
 Vibration    35          0.895              1.161              0.565
 Vibration    36          0.901              1.150              0.554
 Vibration    37          0.901              1.148              0.552
 Vibration    38          0.919              1.110              0.517
 Vibration    39          0.941              1.066              0.478
 Vibration    40          0.955              1.037              0.454
                       Q            Log10(Q)             Ln(Q)
 Total Bot       0.415685-189       -189.381236       -436.066411
 Total V=0       0.195565D+27         26.291291         60.537934
 Vib (Bot)       0.502793-205       -205.298611       -472.717521
 Vib (Bot)    1  0.915382D+01          0.961603          2.214172
 Vib (Bot)    2  0.791236D+01          0.898306          2.068426
 Vib (Bot)    3  0.724023D+01          0.859752          1.979653
 Vib (Bot)    4  0.617342D+01          0.790525          1.820252
 Vib (Bot)    5  0.436957D+01          0.640439          1.474665
 Vib (Bot)    6  0.353871D+01          0.548845          1.263763
 Vib (Bot)    7  0.280420D+01          0.447810          1.031120
 Vib (Bot)    8  0.232072D+01          0.365622          0.841876
 Vib (Bot)    9  0.214402D+01          0.331228          0.762681
 Vib (Bot)   10  0.148353D+01          0.171296          0.394425
 Vib (Bot)   11  0.143138D+01          0.155754          0.358637
 Vib (Bot)   12  0.124253D+01          0.094306          0.217148
 Vib (Bot)   13  0.118474D+01          0.073623          0.169524
 Vib (Bot)   14  0.112805D+01          0.052327          0.120488
 Vib (Bot)   15  0.953068D+00         -0.020876         -0.048069
 Vib (Bot)   16  0.917951D+00         -0.037180         -0.085611
 Vib (Bot)   17  0.890788D+00         -0.050226         -0.115649
 Vib (Bot)   18  0.806244D+00         -0.093533         -0.215368
 Vib (Bot)   19  0.797319D+00         -0.098368         -0.226501
 Vib (Bot)   20  0.751453D+00         -0.124098         -0.285746
 Vib (Bot)   21  0.725915D+00         -0.139114         -0.320322
 Vib (Bot)   22  0.716345D+00         -0.144878         -0.333593
 Vib (Bot)   23  0.630691D+00         -0.200183         -0.460939
 Vib (Bot)   24  0.589677D+00         -0.229386         -0.528181
 Vib (Bot)   25  0.532598D+00         -0.273601         -0.629989
 Vib (Bot)   26  0.514381D+00         -0.288715         -0.664791
 Vib (Bot)   27  0.495085D+00         -0.305320         -0.703026
 Vib (Bot)   28  0.482736D+00         -0.316290         -0.728286
 Vib (Bot)   29  0.436486D+00         -0.360030         -0.829000
 Vib (Bot)   30  0.421147D+00         -0.375566         -0.864773
 Vib (Bot)   31  0.393954D+00         -0.404555         -0.931522
 Vib (Bot)   32  0.367692D+00         -0.434515         -1.000509
 Vib (Bot)   33  0.346992D+00         -0.459680         -1.058453
 Vib (Bot)   34  0.308783D+00         -0.510347         -1.175118
 Vib (Bot)   35  0.293158D+00         -0.532898         -1.227043
 Vib (Bot)   36  0.289035D+00         -0.539050         -1.241208
 Vib (Bot)   37  0.288383D+00         -0.540030         -1.243465
 Vib (Bot)   38  0.274873D+00         -0.560867         -1.291445
 Vib (Bot)   39  0.259994D+00         -0.585037         -1.347097
 Vib (Bot)   40  0.250554D+00         -0.601099         -1.384082
 Vib (V=0)       0.236546D+11         10.373916         23.886825
 Vib (V=0)    1  0.966747D+01          0.985313          2.268767
 Vib (V=0)    2  0.842814D+01          0.925732          2.131577
 Vib (V=0)    3  0.775747D+01          0.889720          2.048657
 Vib (V=0)    4  0.669363D+01          0.825662          1.901156
 Vib (V=0)    5  0.489809D+01          0.690026          1.588844
 Vib (V=0)    6  0.407386D+01          0.610006          1.404592
 Vib (V=0)    7  0.334843D+01          0.524841          1.208492
 Vib (V=0)    8  0.287397D+01          0.458482          1.055694
 Vib (V=0)    9  0.270155D+01          0.431613          0.993825
 Vib (V=0)   10  0.206552D+01          0.315030          0.725383
 Vib (V=0)   11  0.201619D+01          0.304532          0.701211
 Vib (V=0)   12  0.183936D+01          0.264666          0.609416
 Vib (V=0)   13  0.178593D+01          0.251864          0.579938
 Vib (V=0)   14  0.173389D+01          0.239022          0.550369
 Vib (V=0)   15  0.157626D+01          0.197628          0.455056
 Vib (V=0)   16  0.154529D+01          0.189010          0.435213
 Vib (V=0)   17  0.152152D+01          0.182278          0.419710
 Vib (V=0)   18  0.144870D+01          0.160978          0.370666
 Vib (V=0)   19  0.144113D+01          0.158702          0.365424
 Vib (V=0)   20  0.140260D+01          0.146933          0.338326
 Vib (V=0)   21  0.138145D+01          0.140335          0.323133
 Vib (V=0)   22  0.137358D+01          0.137855          0.317424
 Vib (V=0)   23  0.130484D+01          0.115558          0.266082
 Vib (V=0)   24  0.127312D+01          0.104870          0.241473
 Vib (V=0)   25  0.123052D+01          0.090089          0.207437
 Vib (V=0)   26  0.121735D+01          0.085415          0.196674
 Vib (V=0)   27  0.120364D+01          0.080497          0.185350
 Vib (V=0)   28  0.119501D+01          0.077370          0.178152
 Vib (V=0)   29  0.116372D+01          0.065847          0.151619
 Vib (V=0)   30  0.115373D+01          0.062105          0.143002
 Vib (V=0)   31  0.113655D+01          0.055590          0.128000
 Vib (V=0)   32  0.112064D+01          0.049467          0.113903
 Vib (V=0)   33  0.110861D+01          0.044778          0.103105
 Vib (V=0)   34  0.108766D+01          0.036494          0.084030
 Vib (V=0)   35  0.107960D+01          0.033265          0.076595
 Vib (V=0)   36  0.107753D+01          0.032429          0.074672
 Vib (V=0)   37  0.107720D+01          0.032298          0.074369
 Vib (V=0)   38  0.107057D+01          0.029617          0.068195
 Vib (V=0)   39  0.106356D+01          0.026761          0.061619
 Vib (V=0)   40  0.105926D+01          0.025005          0.057575
 Electronic      0.200000D+01          0.301030          0.693147
 Translational   0.289106D+09          8.461057         19.482303
 Rotational      0.142984D+08          7.155288         16.475659
 ***** Axes restored to original set *****
 -------------------------------------------------------------------
 Center     Atomic                   Forces (Hartrees/Bohr)
 Number     Number              X              Y              Z
 -------------------------------------------------------------------
      1        6           0.000000012    0.000000045   -0.000000120
      2        6           0.000000159    0.000000245    0.000000029
      3        6          -0.000000100   -0.000000100   -0.000000003
      4        6           0.000000016   -0.000000071    0.000000065
      5        6           0.000000131   -0.000000009    0.000000040
      6        6           0.000000162    0.000000164    0.000000183
      7        1           0.000000147   -0.000000064   -0.000000081
      8        6           0.000000015    0.000000163   -0.000000019
      9        1          -0.000000168   -0.000000017   -0.000000041
     10        1          -0.000000095   -0.000000234   -0.000000031
     11        6          -0.000000137    0.000000251    0.000000093
     12        6          -0.000000050   -0.000000028    0.000000168
     13        1           0.000000006    0.000000038   -0.000000015
     14        1          -0.000000008    0.000000063    0.000000035
     15        7           0.000000219   -0.000000106    0.000000021
     16        8           0.000000060    0.000000055    0.000000062
     17        6          -0.000000100    0.000000111    0.000000152
     18        1           0.000000009   -0.000000034   -0.000000010
     19        6          -0.000000177    0.000000025    0.000000162
     20        1          -0.000000021   -0.000000191    0.000000013
     21        1           0.000000053   -0.000000067   -0.000000129
     22        1           0.000000529    0.000000438   -0.000000303
     23        6          -0.000000146   -0.000000081    0.000000180
     24        6          -0.000000509   -0.000000030   -0.000000208
     25        1          -0.000000061   -0.000000117   -0.000000121
     26        6          -0.000000021   -0.000000074   -0.000000060
     27        6          -0.000000225    0.000000036    0.000000120
     28        6           0.000000210    0.000000120    0.000000021
     29        1          -0.000000005    0.000000062    0.000000063
     30        1           0.000000076   -0.000000024    0.000000066
     31        1           0.000000023   -0.000000026    0.000000055
     32        1          -0.000000008    0.000000058    0.000000039
     33        6          -0.000000016   -0.000000000    0.000000100
     34        6           0.000000140   -0.000000144   -0.000000141
     35        1           0.000000012    0.000000052    0.000000044
     36        1          -0.000000175   -0.000000171    0.000000018
     37        1          -0.000000082   -0.000000075    0.000000079
     38        1          -0.000000091    0.000000021   -0.000000040
     39        1          -0.000000007    0.000000004   -0.000000063
     40        1          -0.000000055    0.000000042    0.000000008
     41        7          -0.000000115   -0.000000225   -0.000000097
     42        6          -0.000000202    0.000000074    0.000000052
     43        1           0.000000217   -0.000000006    0.000000057
     44        1           0.000000011   -0.000000047   -0.000000001
     45        6          -0.000000257   -0.000000035   -0.000000164
     46        1           0.000000015    0.000000023    0.000000051
     47        1           0.000000304   -0.000000099   -0.000000014
     48        1          -0.000000032    0.000000016    0.000000035
     49        8           0.000000126   -0.000000007   -0.000000009
     50        1          -0.000000020   -0.000000046   -0.000000002
     51        6          -0.000000077    0.000000263   -0.000000368
     52        9           0.000000011   -0.000000116   -0.000000102
     53        9           0.000000074   -0.000000199    0.000000121
     54        1           0.000000198    0.000000090   -0.000000039
     55        1           0.000000025   -0.000000019    0.000000049
 -------------------------------------------------------------------
 Cartesian Forces:  Max     0.000000529 RMS     0.000000130
 Red2BG is reusing G-inverse.
 Leave Link  716 at Mon Dec  1 22:46:47 2025, MaxMem=   104857600 cpu:               0.0 elap:               0.0
 (Enter /home/zhouoh/g16/l9999.exe)
 1\1\GINC-ZHOUOH-B650M\Freq\UExternal='python ../GauUMA_client.py'\ZDO\
 C21H28F2N2O2(1+,2)\ZHOUOH\01-Dec-2025\0\\#p opt=(calcall,ts,noeigen,no
 micro) external='python ../GauUMA_client.py'\\t\\1,2\C,1.4782283746,2.
 7818354034,-0.3022477108\C,0.9311693684,1.5359456976,-0.5101616863\C,1
 .5277706938,0.4001690334,0.0793575481\C,2.6695395168,0.573299724,0.879
 0425577\C,3.2204738544,1.85131432,1.0851006583\C,2.6353687088,2.932744
 7259,0.5016346289\H,0.0329820753,1.4187129501,-1.1019787145\C,1.002988
 5044,-0.9236737238,-0.0818321209\H,4.1047691269,1.9672720964,1.6993618
 05\H,3.0338142365,3.9288294104,0.6380318896\C,2.8387293741,-1.78344563
 41,1.2200358331\C,1.6400585948,-1.98111265,0.5056352753\H,3.2682930367
 ,-2.5535630158,1.8455914332\H,1.2544924348,-2.9838564831,0.3911097484\
 N,3.2402586595,-0.5251506089,1.4713852823\O,0.9944924007,3.9220456223,
 -0.8102953153\C,-0.2542226387,-1.1296149657,-0.8952740316\H,-0.1471209
 831,-0.5601892337,-1.8236015365\C,-0.1660929897,3.8412666069,-1.635553
 7871\H,-0.3932937907,4.8611519067,-1.9267066828\H,0.0330928108,3.23860
 23059,-2.5237807906\H,-1.0073170803,3.4157869409,-1.0849359848\C,-1.47
 97954865,-0.5200112957,-0.1575339829\C,-2.4148826104,-1.5516339494,0.5
 114867997\H,-1.0922016946,0.1429306104,0.6201528871\C,-3.0173926689,-0
 .448727813,-2.00728281\C,-3.1143496419,1.2096820207,-0.2882072016\C,-3
 .8547489075,-1.0945886891,0.2486377011\H,-2.274070733,-2.546440148,0.0
 923608998\H,-2.2043816245,-1.6147795508,1.5807291068\H,-3.4365286329,0
 .2207264124,-2.7587950367\H,-2.3488078047,-1.1359217119,-2.5283329529\
 C,-4.1239298539,-1.2225268065,-1.2535315918\C,-4.0338416503,0.37842542
 11,0.64491873\H,-3.6951890006,1.8123085371,-0.9887345234\H,-2.50201665
 95,1.8980909983,0.3044391782\H,-4.5509440256,-1.7232449304,0.803684720
 2\H,-5.1093650373,-0.8137912989,-1.4858197281\H,-4.1311894062,-2.27220
 27082,-1.5507965355\H,-5.076952358,0.6455951051,0.4474572978\N,-2.2132
 748213,0.3612782203,-1.0786302005\C,-3.7546140417,0.6705676972,2.11908
 18787\H,-2.6956437982,0.4922004153,2.3388610205\H,-3.9146511952,1.7397
 295112,2.2880601285\C,-4.6219403495,-0.1290244762,3.0828395971\H,-4.45
 82910295,0.1872674903,4.1128396019\H,-5.6814955881,0.0077353993,2.8576
 517673\H,-4.4080083354,-1.1976139294,3.029427225\O,-0.4514753768,-2.49
 92212458,-1.1940592227\H,0.003761647,-2.7107237316,-2.015048919\C,4.26
 74862845,-2.2917666275,-0.4208993542\F,5.3960534242,-1.8127176767,0.07
 7244116\F,3.8616173672,-1.5789160557,-1.4539386387\H,4.2638568115,-3.3
 681199186,-0.5832733341\H,4.0661695088,-0.3795997042,2.036722078\\Vers
 ion=ES64L-G16RevA.03\HF=-1276.4435859\S2=0.\S2-1=0.\S2A=0.\RMSD=0.000e
 +00\RMSF=1.301e-07\ZeroPoint=0.4688863\Thermal=0.4939372\Dipole=0.,0.,
 0.\PG=C01 [X(C21H28F2N2O2)]\NImag=1\\0.51385265,0.04725124,0.72393044,
 0.23818468,-0.04669034,0.34638545,-0.16178884,-0.11848040,-0.04957584,
 0.55129525,-0.06519322,-0.29429625,-0.01347470,0.06813512,0.68140601,-
 0.05688126,-0.05061133,-0.10111972,0.28398054,-0.03551370,0.32900474,0
 .03421329,0.02134587,0.02109003,-0.14133332,0.04705599,-0.06235371,0.5
 0589377,-0.02241043,-0.06840454,-0.00636367,0.07906038,-0.21060905,0.0
 7836851,0.02845959,0.67034430,0.02749400,0.02504542,0.01586447,-0.0684
 1023,0.05565520,-0.11718397,0.24080301,-0.05886444,0.34007943,-0.02660
 421,-0.02424585,-0.01135004,-0.01670416,0.04407433,-0.02361560,-0.2149
 4543,-0.03095242,-0.09718122,0.51187301,-0.04271095,-0.02299465,-0.027
 80812,0.02014623,0.04480657,0.00896131,-0.02004792,-0.14459924,-0.0056
 1453,0.05021399,0.69080942,-0.00860693,-0.01492728,-0.01004760,-0.0193
 1755,0.02573595,-0.01202788,-0.10102495,-0.01178351,-0.14303406,0.2515
 0042,-0.04146275,0.34652669,-0.01274923,0.02385158,-0.01579225,-0.0018
 6504,-0.00299637,0.00058364,-0.00901185,-0.02233366,-0.00988317,-0.142
 23686,-0.10047910,-0.04082334,0.55065707,0.06565986,0.04352223,0.04148
 411,0.00335539,-0.05917402,0.01049436,-0.04528951,0.02324927,-0.034169
 03,-0.05781631,-0.23012927,-0.01768727,-0.00080402,0.67678063,-0.02137
 065,0.01142371,-0.01274986,-0.00008722,0.00591982,-0.00328107,-0.00660
 918,-0.01792613,0.00778628,-0.04695322,-0.04710624,-0.09314473,0.30172
 292,-0.08312868,0.35948985,-0.20601265,-0.00803468,-0.09320265,-0.0083
 1639,-0.05298206,-0.00454433,-0.02406379,0.01962666,-0.01763506,0.0369
 2849,0.03963423,0.01724317,-0.16236244,0.06400194,-0.08512285,0.485937
 18,-0.06297451,-0.12523689,-0.03756471,-0.02682398,0.02268483,-0.02078
 063,0.01360998,-0.01209970,0.01080637,-0.00274601,-0.06242861,0.008365
 96,0.12068504,-0.31446677,0.12611470,0.02214553,0.79232487,-0.08543574
 ,0.00174022,-0.13449810,-0.00823918,-0.03976724,0.00858341,-0.01651472
 ,0.01526350,-0.01781059,0.02292645,0.03861937,0.01643152,-0.09295889,0
 .08467467,-0.13867471,0.24636673,-0.08282488,0.32551013,-0.00394938,-0
 .00227492,-0.00596905,-0.24534000,-0.02843652,-0.14103795,-0.00609681,
 -0.00002780,-0.00545703,0.00241566,0.00124597,-0.00169521,0.00024048,-
 0.00018559,0.00066915,0.00171597,-0.00168656,-0.00266869,0.25415712,-0
 .02349133,0.00434031,-0.01615156,-0.02863142,-0.06281470,-0.01538627,0
 .02126087,0.00722712,0.01388825,0.00129524,-0.00403005,0.00213337,0.00
 014155,-0.00094023,0.00015234,-0.00212433,-0.00509537,0.00018033,0.028
 64707,0.06913557,-0.00381151,-0.00139512,0.00336655,-0.13911795,-0.015
 28379,-0.12720183,-0.00889740,-0.00101162,-0.00451253,-0.00184267,0.00
 271119,0.00332565,0.00061904,-0.00038393,-0.00017935,-0.00314084,0.000
 14196,0.00422293,0.15325901,0.01372351,0.12973941,0.00236034,0.0026829
 2,-0.00299497,0.01345986,0.00890873,0.00510548,-0.12723270,-0.06920047
 ,-0.02859558,-0.01243724,-0.03113288,-0.00657319,-0.00329048,-0.000826
 93,-0.00638244,-0.00198283,0.00134065,-0.00095360,-0.00096862,0.000751
 96,0.00126168,0.49459902,0.02061090,0.01636701,0.01282656,-0.00378168,
 -0.06017423,0.00582626,-0.05900926,-0.22832429,-0.01432557,-0.03606448
 ,0.02012762,-0.02842092,-0.00097629,-0.00478570,0.00050909,-0.00554590
 ,0.00493765,-0.00479758,-0.00020226,0.00082821,-0.00068028,-0.02398373
 ,0.67026051,-0.00598024,0.00008648,0.00160569,0.00698524,0.01700237,0.
 00662274,-0.03261259,-0.02412760,-0.08661117,-0.00440714,-0.02413264,0
 .00409218,-0.00593426,0.00092133,0.00051127,0.00027431,-0.00009792,-0.
 00074784,0.00132542,-0.00026825,-0.00224452,0.20940840,-0.07919966,0.3
 3930933,0.00363834,0.00122878,-0.00403474,-0.00006813,0.00015189,0.000
 59186,0.00160308,-0.00237454,-0.00161530,-0.00592288,0.00089983,-0.006
 41293,-0.23973151,-0.02761317,-0.14155655,-0.00622056,-0.00289570,-0.0
 0737092,-0.00019576,0.00006262,0.00030669,-0.00024924,0.00070391,-0.00
 052518,0.24884089,0.00069468,-0.00354840,0.00246670,0.00054758,-0.0007
 9959,0.00034507,-0.00160073,-0.00503513,0.00026877,-0.02249202,0.00045
 116,-0.01568332,-0.02834568,-0.06315008,-0.01628925,0.02164582,0.00831
 510,0.01493022,0.00000782,0.00009422,-0.00010123,-0.00135934,0.0005197
 0,-0.00095070,0.02967540,0.06130297,-0.00388085,0.00303651,0.00573981,
 0.00060116,-0.00001998,-0.00044412,-0.00172726,-0.00026303,0.00308166,
 -0.00298529,0.00105763,0.00069092,-0.14139206,-0.01576838,-0.13455006,
 -0.01113705,-0.00271972,-0.00279093,0.00027760,-0.00007653,-0.00042894
 ,-0.00028865,0.00044644,0.00005598,0.15598358,0.01565054,0.13353793,-0
 .00349938,-0.02469556,-0.00335788,-0.00262569,-0.00040294,-0.00451100,
 -0.00104730,0.00130737,-0.00018258,0.00229672,0.00245454,-0.00525141,0
 .01018582,0.01313381,0.00148406,-0.09376740,-0.10065021,-0.02336809,-0
 .00026227,-0.00101373,0.00022177,-0.00021835,-0.00038450,0.00025505,-0
 .00125415,0.00003687,0.00306495,0.08901105,-0.00037230,-0.00036917,0.0
 0059404,-0.00017096,0.00080690,0.00037011,0.00054071,0.00069339,0.0001
 1342,0.00157773,-0.00082068,0.00273992,-0.00979353,-0.01604596,-0.0039
 0707,-0.10126138,-0.30156511,-0.03326026,0.00015105,0.00000736,0.00002
 842,-0.00009431,-0.00043561,-0.00007324,0.00043199,0.00080296,-0.00061
 611,0.10860794,0.31742096,-0.00695044,-0.01678535,0.00363251,-0.004605
 04,0.00036866,0.00039434,0.00002166,0.00068565,-0.00106615,-0.00518024
 ,0.00285755,0.00483258,0.00504179,0.01300052,0.00701254,-0.02328620,-0
 .03318663,-0.05156114,0.00003382,-0.00083977,-0.00036504,0.00028348,-0
 .00028952,-0.00014241,0.00299305,-0.00094771,-0.00331010,0.02903073,0.
 03409190,0.04155548,-0.00908146,-0.01549867,-0.00452017,-0.00164989,0.
 02060217,-0.00395412,-0.00887693,-0.02754010,0.00184296,0.01939563,-0.
 00065528,0.01314146,-0.00021926,0.00454540,-0.00322679,0.00162995,-0.0
 0453358,0.00122359,0.00041142,0.00040895,0.00021147,-0.02387000,0.0613
 2636,-0.02725129,-0.00011746,0.00011106,0.00023889,0.00009389,0.000412
 82,0.00028822,0.44409146,-0.00927405,-0.00030508,-0.00641063,-0.002469
 46,0.00191677,-0.00113514,-0.01974278,-0.01370139,-0.01276335,0.021116
 02,-0.08058534,0.02347275,0.00439583,0.01835119,0.00046640,0.00884476,
 -0.00593215,0.00769035,-0.00017097,0.00061426,-0.00014748,0.02505160,0
 .03243739,0.00977297,-0.00081912,-0.00060735,-0.00071673,0.00011349,0.
 00007737,0.00000796,0.05100402,0.68759348,-0.00405802,0.00118270,-0.00
 237510,-0.00131946,-0.00041357,-0.00111958,-0.00686359,-0.00705986,-0.
 01022211,0.02279783,-0.00449976,0.02218408,-0.00409844,0.01123742,-0.0
 0069796,0.00511164,-0.00114562,0.00462742,-0.00025764,0.00035000,-0.00
 028045,-0.02475892,0.01272477,-0.01243822,-0.00011904,-0.00045052,-0.0
 0054305,0.00002975,0.00031484,-0.00043821,0.31904270,-0.13984597,0.346
 43421,0.01171459,0.01107779,0.00648214,0.00173736,-0.02157190,0.001176
 11,0.02459019,0.02528141,0.00921764,-0.01397831,0.01754505,-0.00887780
 ,-0.00100440,-0.00585122,0.00024185,-0.00460066,0.00384261,-0.00401201
 ,-0.00040972,-0.00055762,0.00004432,-0.16251821,0.06180877,-0.07752996
 ,0.00025032,0.00019075,0.00032138,-0.00024126,-0.00018654,-0.00022387,
 -0.21095051,-0.02471228,-0.13808236,0.50827494,-0.00428200,-0.00650639
 ,-0.00190253,-0.00509624,0.00776984,-0.00381314,0.01043739,-0.04981456
 ,0.01574225,0.00289954,-0.00205150,0.00159325,0.00035223,-0.00277052,0
 .00069995,-0.00059118,-0.00144313,-0.00028223,0.00009276,0.00040167,-0
 .00008540,0.10516464,-0.28342407,0.10326193,-0.00014747,-0.00003537,0.
 00000473,0.00014355,0.00019553,0.00012275,-0.05203727,-0.12050659,-0.0
 0938173,0.04544817,0.75921422,0.00932023,0.00825247,0.00554999,-0.0007
 7134,-0.01488734,0.00573429,0.01297231,0.02674677,0.01198685,-0.009804
 51,0.01734387,-0.01556566,-0.00086926,-0.00697965,-0.00006118,-0.00465
 846,0.00355366,-0.00355806,-0.00010161,-0.00049591,-0.00003289,-0.0823
 3463,0.07480616,-0.12950873,0.00028020,0.00024590,0.00017954,-0.000243
 78,-0.00016108,-0.00008307,-0.09325936,0.00793848,-0.13598540,0.238946
 22,-0.06098159,0.30072199,-0.00045992,0.00087574,-0.00055087,-0.000226
 32,-0.00070997,0.00048883,-0.00115826,-0.00033782,-0.00069431,0.002978
 47,-0.00397619,-0.00151297,0.00079406,0.00090849,-0.00042601,0.0006467
 9,-0.00025805,0.00074734,-0.00008260,-0.00003304,-0.00004153,-0.002763
 03,-0.00372948,-0.00487755,-0.00000798,-0.00002932,-0.00008449,-0.0000
 3111,0.00000152,0.00007478,-0.09229500,0.07588272,-0.08530874,-0.00623
 286,0.02045411,-0.01461153,0.09623257,0.00024097,-0.00045180,0.0002202
 6,0.00016348,0.00067385,-0.00022482,0.00048923,-0.00031703,0.00037670,
 -0.00597372,-0.00002551,-0.00251812,0.00087308,-0.00148859,0.00090202,
 -0.00073468,-0.00013496,-0.00059954,0.00000612,-0.00002791,0.00003208,
 -0.00254544,0.00062656,-0.00017852,0.00000437,-0.00000482,0.00003869,0
 .00009647,-0.00009533,0.00007680,0.07755824,-0.20079106,0.11875809,-0.
 00113249,0.00825308,-0.00357561,-0.08548765,0.21859650,0.00006640,-0.0
 0104317,0.00024989,0.00019233,0.00149233,-0.00071994,0.00059889,-0.001
 96161,0.00050954,-0.00453047,0.00075986,0.00168846,0.00011746,-0.00123
 249,0.00084404,-0.00056456,-0.00003708,-0.00066277,0.00006448,-0.00001
 323,0.00006978,-0.00373666,0.00205398,0.00138907,-0.00003050,0.0000598
 8,0.00008328,0.00009533,-0.00006130,-0.00001163,-0.09048974,0.13685920
 ,-0.14028732,0.00160191,0.00702056,-0.00036350,0.08381926,-0.12916969,
 0.14571449,-0.00006978,0.00032005,0.00030915,0.00056098,0.00021196,0.0
 0053884,0.00027051,0.00212005,-0.00534759,-0.00059779,0.00052874,-0.00
 021666,-0.00010063,-0.00000691,0.00024416,-0.00002495,0.00009943,-0.00
 000899,0.00007840,-0.00000122,-0.00011798,0.01177810,0.01300538,0.0022
 1636,0.00005673,0.00002779,-0.00003477,-0.00000051,-0.00001906,-0.0000
 1180,-0.00548089,-0.02433666,-0.00141182,-0.08796084,-0.09787640,-0.01
 805840,-0.00026960,0.00076630,0.00115283,0.08717200,0.00012569,-0.0003
 1821,0.00004462,-0.00075539,-0.00021183,-0.00050329,0.00218823,-0.0016
 8929,0.00291781,0.00055163,-0.00001231,0.00024579,-0.00003883,0.000251
 95,-0.00017873,0.00012458,-0.00005634,0.00011423,-0.00000139,0.0000030
 4,0.00003138,-0.00830895,-0.01830812,-0.00242321,-0.00003951,-0.000024
 87,-0.00000863,-0.00001421,-0.00000395,-0.00000602,0.00118535,0.001677
 24,0.00095322,-0.09746788,-0.31137700,-0.02632378,0.00003101,0.0003468
 9,-0.00040275,0.10531361,0.32816633,0.00028526,0.00009833,-0.00043437,
 0.00055958,0.00022268,0.00020294,-0.00534380,0.00296279,0.00409019,-0.
 00021111,0.00054371,-0.00067084,0.00030361,-0.00026625,-0.00034907,-0.
 00004544,0.00013139,-0.00006883,-0.00008359,0.00008389,0.00013261,0.00
 572186,0.01088991,0.00742719,-0.00001509,0.00002891,0.00008726,-0.0000
 1626,0.00000141,0.00000580,-0.00270815,-0.01460179,-0.00040627,-0.0197
 9765,-0.02523470,-0.04550476,0.00186275,-0.00044443,-0.00117967,0.0243
 1595,0.02735766,0.03880705,-0.00434263,-0.00036686,-0.00249234,-0.0020
 6953,-0.00240636,-0.00475395,-0.01973916,0.02329463,-0.02334775,-0.141
 93463,0.06014525,-0.07692977,0.01279461,0.00004902,0.00809110,0.003881
 01,-0.00565053,0.00045997,0.00002762,0.00099100,-0.00068424,0.00377727
 ,0.00114625,0.00663812,0.00003094,-0.00078515,0.00180370,0.00059197,-0
 .00052497,0.00018299,-0.13223510,-0.08403446,-0.04944766,-0.01517127,-
 0.03519212,-0.01563142,0.00699548,0.01447881,0.00433967,-0.00253880,0.
 00009124,-0.00600498,0.58616645,0.01755906,0.00575533,0.01131073,-0.00
 061904,-0.01088034,0.00081913,0.03440871,0.03472411,0.02135678,0.03534
 782,-0.21225895,0.05256447,0.01762447,-0.07474135,0.02429303,-0.021871
 33,0.00804286,-0.01635422,-0.00033936,0.00002739,-0.00030297,0.0038026
 8,-0.04393021,0.00943027,0.00213928,0.00295273,0.00073306,0.00067443,-
 0.00118020,0.00080369,-0.07867749,-0.31219918,0.01953192,-0.04081942,-
 0.00242669,-0.04079345,-0.00359555,-0.02745665,-0.01608513,0.00011084,
 0.00162942,-0.00034438,0.06324167,0.72933110,-0.00507968,-0.00152409,-
 0.00440896,-0.00479121,0.00063345,0.00208526,-0.02224790,0.01337562,-0
 .01424172,-0.07524337,0.06625692,-0.11784144,0.00518133,0.01088053,0.0
 0591627,0.00214697,-0.00507770,0.00695405,-0.00033136,0.00075953,0.000
 17499,0.00721625,0.00618139,-0.00241480,0.00172456,-0.00110231,-0.0011
 7137,0.00014660,-0.00022027,0.00037412,-0.06728784,-0.03966820,-0.0890
 0624,-0.00845601,-0.02250073,0.00241823,0.00798201,0.01914895,0.006418
 85,-0.00499487,0.00066088,0.00187436,0.34280972,-0.00922809,0.36685326
 ,-0.11340996,0.07274311,-0.05578297,0.01500929,-0.00141841,0.00244419,
 0.00357503,-0.00291985,-0.00306312,-0.00086367,0.00776760,-0.00095558,
 -0.00232607,-0.01159943,-0.00234860,-0.02746638,0.04466015,-0.03024784
 ,-0.00213353,0.00215752,0.00063206,-0.00114226,-0.00106945,-0.00050219
 ,-0.00060472,0.00132942,-0.00067430,0.00093498,0.00074745,0.00226394,-
 0.00279129,0.00297786,0.00140812,-0.00000716,-0.00075979,0.00006455,0.
 00058233,-0.00026198,-0.00039137,-0.00003795,-0.00001432,-0.00004970,0
 .00153367,-0.00290261,0.00151475,0.34653000,0.04415614,-0.26871152,0.0
 6287085,0.01648333,-0.06017207,0.02180124,-0.01131956,0.00564095,-0.00
 785908,0.00276511,-0.00675761,0.00276675,-0.00375221,0.00593553,-0.003
 02194,0.01967967,-0.00332878,0.01544421,0.00149665,0.00149747,0.000454
 33,0.00224210,-0.00466942,0.00234895,-0.00005597,0.00022316,-0.0001516
 7,0.00032840,0.00035420,-0.00017118,0.00742537,-0.00365534,-0.00201251
 ,-0.00316157,0.00211121,-0.00192127,-0.00087594,0.00048507,0.00073985,
 0.00011150,-0.00013658,0.00012748,-0.00114742,0.00231753,-0.00059556,-
 0.06932222,0.40508664,-0.05193254,0.08331809,-0.09890229,-0.00057811,0
 .00940604,0.01059622,-0.00188510,-0.00162903,0.00731517,-0.00011671,0.
 00612805,-0.00175511,-0.00347582,-0.00873156,0.00196252,-0.02654874,0.
 03347108,-0.01780285,0.00062148,0.00084578,-0.00339856,-0.00108754,0.0
 0014659,-0.00084362,-0.00048578,0.00091815,-0.00038491,0.00235749,0.00
 010571,-0.00079905,-0.00333153,0.00262599,0.00141932,0.00099310,-0.001
 00156,-0.00007613,0.00052269,-0.00024461,-0.00037040,-0.00006638,0.000
 00914,-0.00001919,0.00144119,-0.00222740,0.00082399,0.20609043,-0.0970
 7599,0.23610728,-0.00096256,-0.00149185,-0.00028539,-0.00033600,0.0036
 8098,0.00070836,-0.00566684,-0.01095017,-0.00708007,0.00454841,0.00119
 836,-0.00065809,0.00020249,0.00030516,0.00059014,0.00049561,-0.0002903
 7,0.00045182,0.00032398,-0.00046779,-0.00021564,-0.14878078,-0.0026243
 5,-0.04396617,0.00006998,0.00011665,0.00005154,0.00007261,0.00001170,-
 0.00004411,0.00495850,0.00006298,-0.00271047,-0.01321059,0.00597224,-0
 .01730710,-0.00037611,0.00002393,0.00051121,-0.00171323,-0.00098190,0.
 00232688,-0.00144750,-0.00029822,-0.00100901,-0.00030573,0.00097153,-0
 .00045229,0.43199890,0.00100141,-0.00154909,0.00067934,-0.00047069,0.0
 0031604,-0.00089314,-0.02134123,0.00029127,-0.01348282,-0.00272476,-0.
 00369376,-0.00092401,-0.00088563,-0.00025299,-0.00071570,-0.00075054,0
 .00007296,-0.00037600,-0.00022377,-0.00261100,0.,-0.01662876,-0.083022
 08,-0.00323369,-0.00002864,-0.00031030,-0.00001812,0.00005159,-0.00001
 980,0.00005023,-0.00051144,-0.00518169,0.00253626,0.02401667,0.0092524
 3,0.01323313,0.00140544,0.00052926,0.00065718,0.00100808,-0.00183159,0
 .00058972,0.00119563,-0.00232679,0.00118644,-0.00103537,0.00168038,-0.
 00090932,0.01470442,0.52917483,-0.00071147,-0.00084225,-0.00072639,0.0
 0179662,0.00021963,-0.00165399,-0.00124935,-0.00647455,0.00332291,-0.0
 0144149,0.00251811,0.00369308,0.00077286,0.00024630,-0.00013541,0.0002
 9892,-0.00019755,0.00021110,-0.00077978,0.00070652,0.00068769,-0.05609
 744,0.00603343,-0.11627660,0.00008075,0.00013316,0.00004954,-0.0001012
 6,0.00002640,0.00005989,-0.00434258,0.00095392,0.00593650,-0.01794480,
 0.00161845,-0.00254976,0.00071119,-0.00003651,-0.00022598,0.00227892,-
 0.00128765,-0.00292083,0.00000807,0.00027630,-0.00000540,-0.00057301,0
 .00097905,-0.00041326,0.00243291,-0.05535450,0.54608289,-0.00014845,-0
 .00017871,-0.00001087,0.00022767,-0.00051736,0.00000485,-0.00016364,0.
 00021151,-0.00001410,0.00020344,0.00036023,0.00085386,0.00022664,0.000
 09374,-0.00000265,0.00010044,-0.00008791,0.00002147,0.00064473,-0.0003
 5079,-0.00006922,-0.00074035,0.01356701,-0.02767594,0.00000379,0.00001
 561,-0.00001195,0.00000327,0.00000755,0.00002469,-0.00075964,0.0005637
 1,0.00068521,-0.00311458,-0.00153227,-0.00093650,-0.00015822,-0.000082
 26,-0.00016655,0.00046123,0.00002890,-0.00049738,-0.00021904,0.0005584
 0,-0.00012350,-0.00003274,0.00004366,-0.00003357,-0.04567247,-0.013888
 16,0.01696303,0.05721020,-0.00019249,-0.00011918,-0.00015783,-0.000380
 62,-0.00124847,-0.00067419,-0.00040044,-0.00034642,-0.00051023,0.00069
 610,0.00011100,0.00051849,0.00013727,-0.00008958,0.00007437,0.00002052
 ,-0.00001324,-0.00003423,-0.00070889,-0.00240397,-0.00151885,0.0043447
 4,0.00466158,-0.00004561,-0.00001618,-0.00000677,0.00000975,-0.0000040
 7,0.00001198,0.00001621,0.00064422,0.00011043,0.00020888,-0.00207916,0
 .00040232,-0.00081306,-0.00007001,0.00000119,0.00000558,-0.00025233,-0
 .00003655,-0.00038578,-0.00036427,0.00019267,-0.00022092,0.00015236,0.
 00002232,0.00012904,-0.01569989,-0.10488473,0.10355057,0.01558328,0.13
 577858,0.00036928,-0.00015463,0.00041677,-0.00031748,-0.00028930,0.000
 15906,-0.00072079,0.00152102,0.00012475,-0.00006515,0.00004379,0.00015
 727,0.00014940,0.00008789,0.00002621,0.00009505,0.00015542,-0.00000224
 ,0.00031919,-0.00131751,-0.00004937,-0.00073191,0.00830994,-0.01582307
 ,-0.00000130,-0.00001874,-0.00001352,0.00004745,0.00000780,0.00002330,
 0.00047182,0.00025890,0.00011295,-0.00212018,-0.00118861,-0.00115288,-
 0.00021957,-0.00004529,-0.00004839,0.00019852,-0.00005224,-0.00024704,
 -0.00002381,0.00020614,0.00008413,0.00001686,-0.00004336,0.00003908,0.
 01973693,0.11094358,-0.24165491,-0.01920551,-0.11544232,0.25635548,-0.
 02483544,0.02097544,-0.01781419,0.00307219,-0.00827207,0.00445367,-0.0
 0431028,0.00100239,-0.00346018,0.00198316,-0.00171177,0.00142207,0.000
 05193,0.00150360,-0.00099253,0.00629390,-0.00138767,0.00188790,0.00006
 819,-0.00070509,0.00041001,0.00096536,-0.00099596,0.00095898,0.0000191
 3,-0.00006852,0.00021045,-0.00035655,-0.00003131,0.00012326,0.00271555
 ,-0.00107503,-0.00078673,-0.00113235,0.00058003,-0.00072178,-0.0003475
 4,0.00013153,0.00024462,0.00008993,-0.00003179,0.00004296,-0.00076562,
 0.00058412,-0.00033562,-0.16428538,-0.01012976,-0.07353815,0.00043877,
 0.00068958,0.00040577,0.00005985,-0.00008567,-0.00006034,0.49304686,0.
 03371499,-0.00387185,0.02407876,0.00307620,-0.00276429,0.00255890,0.00
 048037,0.00046580,0.00021787,0.00012860,0.00021799,0.00008300,0.000999
 15,0.00019838,0.00084280,-0.00015551,-0.00430727,0.00112888,0.00149061
 ,-0.00262591,0.00147336,0.00012551,-0.00002757,0.00004924,0.00015762,-
 0.00030319,0.00011335,0.00025898,0.00013970,0.00008091,0.00002534,-0.0
 0003230,-0.00001905,-0.00003183,0.00006101,-0.00001666,-0.00000037,-0.
 00000987,-0.00001009,0.00000188,0.00001501,0.00001380,0.00002289,-0.00
 020560,0.00005597,-0.03262434,-0.08623658,-0.01958619,-0.00001460,-0.0
 0001974,0.00006049,-0.00001235,-0.00001539,-0.00001998,-0.01281032,0.6
 3095729,-0.01953748,0.01478261,-0.02005763,0.00321982,-0.00577752,0.00
 112716,-0.00326733,0.00074837,-0.00200030,0.00116681,-0.00117452,0.001
 20381,-0.00088667,0.00102677,0.00030525,0.00166997,0.00015970,0.004926
 84,-0.00011549,-0.00014394,-0.00036489,0.00063154,-0.00090775,0.000545
 28,0.00021862,-0.00003459,-0.00015978,0.00010429,-0.00008948,-0.000414
 44,0.00213296,-0.00083335,-0.00073812,-0.00087043,0.00042889,-0.000560
 33,-0.00026883,0.00010624,0.00022157,0.00003063,-0.00002307,0.00005620
 ,-0.00047690,0.00046667,-0.00033227,-0.07039456,-0.00316191,-0.1105011
 6,0.00022670,0.00028926,0.00054491,0.00000398,-0.00010630,-0.00005145,
 -0.05948012,-0.01695731,0.53604354,-0.00333979,-0.00238279,-0.00236144
 ,-0.00030668,-0.00065441,-0.00034302,0.00035559,0.00021461,0.00011317,
 0.00004103,0.00018104,0.00004077,-0.00031577,-0.00048750,-0.00015307,-
 0.00041569,0.00141891,-0.00074481,0.00021025,0.00011864,0.00042815,-0.
 00007928,0.00001223,-0.00006676,-0.00006400,0.00010478,-0.00002064,-0.
 00001284,-0.00001876,-0.00000767,-0.00005116,0.00006745,0.00000548,0.0
 0001027,-0.00003240,-0.00000404,0.00002193,-0.00000101,-0.00000168,-0.
 00000833,-0.00000043,-0.00000430,0.00007411,-0.00005692,0.00007961,-0.
 01572646,0.03173908,-0.01547260,-0.00002413,-0.00002220,-0.00004250,-0
 .00000903,0.00000475,0.00001142,-0.05561498,0.04246973,-0.00898867,0.0
 6820737,-0.00107346,0.00132848,-0.00083373,-0.00031852,-0.00042829,-0.
 00009373,-0.00004647,0.00034274,-0.00004131,0.00021517,0.00010822,0.00
 011585,0.00003096,-0.00023658,0.00004052,-0.00017616,0.00017373,-0.000
 11699,0.00037080,0.00012499,0.00015181,-0.00000519,0.00005866,-0.00000
 656,-0.00000594,0.00000560,-0.00000910,0.00001441,-0.00001661,0.000022
 56,0.00002853,0.00005311,0.00004345,-0.00001615,-0.00005109,-0.0000270
 7,-0.00000620,0.00000104,0.00000070,0.00000412,-0.00000172,0.00000200,
 0.00001575,-0.00006338,0.00000448,-0.00057186,0.00596592,-0.00119770,0
 .00001001,0.00006963,-0.00001613,0.00000128,0.00001822,0.00002587,0.05
 475071,-0.30849414,0.07173518,-0.05695774,0.32337964,-0.00270642,-0.00
 176713,-0.00114721,-0.00041646,-0.00038102,0.00021772,0.00007512,0.000
 12677,0.00017934,0.00005710,0.00012408,0.00001558,-0.00019924,-0.00032
 543,-0.00011505,-0.00050672,0.00103983,-0.00025646,0.00044286,-0.00004
 760,-0.00017933,-0.00005213,0.00002035,-0.00002915,-0.00001001,0.00006
 344,-0.00006475,-0.00002325,-0.00001091,-0.00000240,-0.00002655,0.0000
 3788,-0.00000238,0.00001108,-0.00001409,-0.00000573,0.00001280,-0.0000
 0093,0.00000068,-0.00000525,0.00000340,-0.00000182,0.00006557,-0.00004
 060,0.00002342,-0.01134221,0.02218004,-0.01091097,-0.00000535,0.000010
 76,-0.00005592,0.00000555,0.00002473,-0.00000052,-0.01043298,0.0628080
 5,-0.06581554,0.02294270,-0.07565939,0.07220946,0.00305176,-0.00503430
 ,0.00092428,0.00089431,0.00113809,0.00066956,-0.00038475,0.00026028,0.
 00002851,0.00019823,0.00061301,0.00004045,-0.00007045,-0.00072661,0.00
 026249,-0.00148968,0.00056167,-0.00008950,0.00005212,0.00015583,-0.000
 54459,-0.00003331,-0.00025406,-0.00001765,0.00002385,-0.00000727,-0.00
 004807,0.00016314,0.00000295,-0.00008203,0.00002972,0.00012353,0.00002
 897,-0.00010529,0.00009705,-0.00008833,0.00001512,-0.00000859,-0.00001
 130,-0.00000575,0.00000457,0.00000258,0.00006577,-0.00021070,0.0000586
 7,-0.00428313,-0.01591978,-0.03505229,-0.00002164,-0.00009541,0.000044
 26,0.00002495,-0.00002960,-0.00001449,-0.06255224,0.03608025,0.0520551
 8,-0.00041830,0.00181325,0.00508159,0.06748447,-0.00004349,0.00060952,
 0.00141052,-0.00084655,0.00046164,-0.00037421,0.00080949,-0.00049138,0
 .00017126,-0.00043435,-0.00020590,-0.00027687,0.00005606,0.00042737,-0
 .00003415,0.00025856,-0.00010694,-0.00021073,0.00001132,-0.00065580,0.
 00157136,-0.00006082,0.00023012,-0.00003969,-0.00001889,0.00001110,0.0
 0000037,0.00002344,-0.00000793,0.00002998,-0.00020522,0.00004034,0.000
 01336,0.00009753,-0.00009865,0.00011721,0.00002202,-0.00001052,-0.0000
 2134,0.00000083,0.00000617,-0.00001216,0.00001145,0.00012822,-0.000000
 10,-0.00470519,0.00174096,-0.00143583,-0.00005673,-0.00010417,0.000004
 69,0.00000217,-0.00002524,-0.00003425,0.03324387,-0.13217066,-0.117115
 11,0.00683835,-0.01346380,-0.02406670,-0.03271263,0.13640077,0.0024960
 1,-0.00560479,0.00195146,0.00010336,0.00044727,-0.00013079,0.00022872,
 0.00041837,0.00028584,0.00018453,0.00058670,0.00001723,0.00002735,-0.0
 0081016,0.00026849,-0.00140410,0.00067849,-0.00068477,0.00038736,0.000
 99720,-0.00074627,-0.00010461,-0.00002725,-0.00009178,0.00001166,0.000
 00133,-0.00004507,0.00017090,0.00001484,-0.00000125,-0.00015665,0.0001
 2015,0.00003013,0.00000237,-0.00000611,-0.00000922,0.00002605,-0.00001
 140,-0.00002446,-0.00000081,0.00000149,0.00000102,0.00018563,-0.000175
 05,0.00013471,-0.01134865,-0.00675249,-0.02160580,-0.00001902,0.000021
 04,-0.00013871,-0.00000786,0.00005886,0.00003294,0.04674486,-0.1142931
 2,-0.21615976,-0.00082089,0.00455306,0.00907784,-0.04144542,0.12950268
 ,0.23928185,0.00233125,-0.00657334,0.00356459,0.00018072,0.00092470,0.
 00009347,0.00050940,0.00031812,0.00009210,0.00004456,0.00070264,-0.000
 01016,0.00015701,-0.00092987,0.00007598,-0.00107957,0.00074223,-0.0015
 1555,-0.00043891,0.00124759,0.00031202,-0.00013727,-0.00004746,-0.0000
 7342,-0.00005485,0.00002379,0.00002400,0.00008387,0.00002313,0.0001955
 2,-0.00021363,0.00020929,0.00007132,0.00001743,-0.00001120,-0.00000749
 ,0.00003817,-0.00001489,-0.00003238,-0.00000356,-0.00000005,-0.0000016
 7,0.00015856,-0.00024165,0.00017974,-0.03472472,-0.00749866,-0.0001582
 2,-0.00007404,-0.00003012,-0.00008469,-0.00002353,0.00000812,0.0000271
 2,-0.19284780,-0.07352654,0.10382824,0.00743630,0.00201762,-0.00295160
 ,-0.00273318,-0.00251283,0.00473831,0.22156619,0.00098882,0.00083539,-
 0.00075874,-0.00027339,0.00016750,-0.00061916,0.00024385,-0.00040117,0
 .00066708,-0.00034210,-0.00021547,-0.00022555,0.00001339,0.00038957,0.
 00000529,-0.00006455,-0.00007614,0.00030899,0.00151578,-0.00129952,-0.
 00030109,0.00001948,0.00021642,-0.00009696,-0.00000477,0.00001037,-0.0
 0001274,0.00002621,-0.00000489,-0.00001694,-0.00009976,0.00000200,-0.0
 0003851,0.00011302,-0.00010923,0.00007403,0.00001134,-0.00000276,0.000
 00044,-0.00000483,0.00000530,0.00000310,-0.00000214,0.00012975,-0.0000
 5947,-0.00233966,0.00080616,-0.00237219,-0.00004082,-0.00006333,-0.000
 02511,0.00002558,-0.00002123,-0.00000626,-0.07694896,-0.09096293,0.056
 38071,-0.02235778,-0.00864242,0.01582198,0.01393878,0.00709035,-0.0094
 6174,0.08566137,0.09180876,0.00048381,-0.00278135,0.00255041,0.0010799
 0,0.00091056,0.00042096,-0.00027018,0.00009636,-0.00057107,0.00017743,
 0.00043347,0.00005462,0.00004848,-0.00045637,-0.00004436,-0.00008527,0
 .00014782,-0.00097965,-0.00054640,0.00012507,0.00027975,0.00000723,-0.
 00023716,0.00011338,-0.00002868,-0.00000318,0.00003501,-0.00002810,0.0
 0001458,0.00009978,0.00004972,0.00011824,0.00010012,-0.00012925,0.0001
 1674,-0.00009108,0.00000708,-0.00000764,-0.00001624,0.00000601,0.00000
 311,-0.00000426,-0.00002071,-0.00020738,0.00004176,-0.02614093,-0.0088
 6422,0.01029621,0.00001608,-0.00002584,0.00001339,0.00003120,-0.000031
 33,-0.00002887,0.10982950,0.05734248,-0.12796827,0.00542257,0.00129601
 ,-0.00327260,0.01837763,0.01097041,-0.01160080,-0.10846185,-0.05957611
 ,0.13082188,0.00046113,-0.00088513,0.00068360,-0.00133548,-0.00016323,
 0.00044227,-0.00082032,-0.00024275,0.00011911,0.00043971,0.00012072,-0
 .00025437,-0.00006496,-0.00018209,0.00016252,-0.00030760,0.00016921,-0
 .00034028,0.00025384,-0.00130221,0.00074192,-0.03161458,0.00757643,0.0
 0339783,0.00001068,0.00004890,0.00000576,0.00004939,0.00001304,-0.0000
 1699,-0.00118773,-0.00037517,-0.00114433,0.00216645,-0.00268769,0.0017
 2017,-0.00000865,-0.00000780,0.00001791,-0.00024122,0.00018125,0.00029
 142,0.00062021,0.00050157,0.00035641,-0.00101972,0.00085647,-0.0007564
 6,-0.11620503,0.01780120,0.03724363,-0.00650088,0.00284162,0.00606901,
 0.00074964,0.00007780,0.00029342,-0.00007976,-0.00001376,-0.00002880,0
 .00008201,0.00004649,-0.00011796,-0.00005033,0.00013417,0.00023246,0.4
 9068072,-0.00003576,0.00076153,-0.00013538,-0.00064311,-0.00048075,-0.
 00028455,-0.00234633,-0.00084474,-0.00207464,0.00117582,0.00003577,0.0
 0090023,0.00019715,-0.00006868,0.00014911,0.00021734,0.00009726,0.0001
 3723,-0.00208700,-0.00144472,0.00092853,0.00974938,0.00285683,0.008726
 70,-0.00002241,-0.00002457,0.00003000,0.00004531,0.00000906,0.00004697
 ,0.00211413,-0.00019078,0.00004761,-0.00257454,0.00170427,-0.00331202,
 -0.00023878,-0.00002225,0.00007072,-0.00006816,-0.00019775,0.00010500,
 -0.00108614,0.00019243,-0.00081300,0.00081866,-0.00094245,0.00065599,0
 .00742144,-0.07657608,-0.01701552,-0.00977654,0.00502877,0.00638297,-0
 .00075743,-0.00010788,-0.00023944,0.00009031,0.00001256,0.00001017,0.0
 0000988,0.00001362,0.00007340,0.00017300,-0.00014514,-0.00005450,0.031
 38767,0.50419286,-0.00045721,-0.00088283,-0.00053982,0.00101500,0.0003
 3278,-0.00010097,-0.00119050,-0.00023786,-0.00135388,0.00022863,-0.000
 47555,-0.00062747,0.00000154,0.00073110,0.00002498,0.00050381,-0.00031
 042,0.00047579,0.00167133,0.00118820,0.00042109,-0.00925873,0.00468548
 ,0.01216193,-0.00004473,-0.00000563,0.00001329,0.00000278,-0.00001841,
 0.00002038,0.00210667,0.00040320,-0.00068222,-0.00291180,0.00080236,-0
 .00365611,-0.00040920,0.00000514,0.00011736,-0.00048294,0.00017495,0.0
 0055800,-0.00073595,0.00012627,-0.00048516,-0.00023487,0.00003191,-0.0
 0009240,0.02414448,-0.00969390,-0.09179282,0.02433634,-0.00719947,-0.0
 1431339,0.00024221,0.00005658,0.00008341,-0.00001557,-0.00001773,-0.00
 000803,0.00005212,0.00001735,-0.00006317,0.00002503,0.00009742,0.00013
 132,0.04101629,0.07776013,0.51922592,-0.00014393,0.00027513,-0.0001087
 3,0.00002271,-0.00008876,0.00000218,-0.00022463,-0.00027399,-0.0002072
 0,0.00028397,0.00007906,0.00017405,-0.00001792,-0.00011353,-0.00000480
 ,-0.00001616,-0.00000933,-0.00003115,-0.00024179,0.00005722,-0.0000236
 5,0.00129163,0.00055501,0.00171607,-0.00001521,-0.00001227,0.00000761,
 -0.00000958,0.00000024,0.00000516,0.00048523,0.00004024,-0.00018806,-0
 .00036098,0.00033027,-0.00054776,-0.00004486,-0.00004772,-0.00000153,-
 0.00001652,-0.00002823,0.00011378,-0.00025181,0.00002735,-0.00014404,0
 .00024233,-0.00024225,0.00019367,-0.01771586,-0.01247513,0.01115798,-0
 .00176002,0.00096109,0.00066186,-0.00020509,-0.00000837,-0.00007326,0.
 00001754,-0.00000040,0.00000556,-0.00001341,-0.00000003,0.00001462,0.0
 0001423,-0.00001833,-0.00004118,-0.10680299,-0.03860686,0.02084816,0.4
 2790645,0.00017235,-0.00044353,0.00023279,-0.00007346,0.00020252,0.000
 07668,0.00046334,0.00012867,0.00047644,-0.00043224,0.00013865,-0.00023
 357,-0.00007931,-0.00016448,-0.00004538,-0.00010381,0.00008052,-0.0001
 0625,0.00034855,-0.00008556,-0.00002026,-0.00153678,-0.00053666,-0.002
 55163,0.00001594,0.00001620,-0.00000427,0.00000316,0.00000408,-0.00000
 012,-0.00076304,0.00015897,0.00021809,0.00077722,-0.00030359,0.0009509
 4,0.00012141,-0.00000303,-0.00004054,0.00013420,0.00004792,-0.00001529
 ,0.00036235,-0.00026605,0.00026261,-0.00033939,0.00040502,-0.00027348,
 0.00476850,0.01461780,-0.00147597,0.00240515,-0.00110891,-0.00202067,0
 .00027411,0.00002629,0.00009483,-0.00002160,0.00000575,-0.00000689,-0.
 00000503,-0.00000786,-0.00002415,-0.00003328,0.00002251,0.00003113,-0.
 03603517,-0.11805170,0.01709515,-0.02840246,0.55535558,-0.00003053,0.0
 0073747,0.00001513,-0.00037178,-0.00036907,0.00021587,-0.00029058,-0.0
 0023681,0.00021447,0.00025969,-0.00010120,0.00030439,-0.00005776,-0.00
 013301,-0.00004518,-0.00006711,0.00001089,-0.00009262,-0.00021223,0.00
 007481,-0.00039418,0.00094846,-0.00058020,-0.00059302,-0.00001367,-0.0
 0001283,-0.00000268,-0.00001071,-0.00000464,-0.00001581,-0.00008842,-0
 .00018501,-0.00017335,0.00021716,0.00021908,-0.00000261,-0.00004996,-0
 .00001018,0.00001868,0.00008415,0.00003921,0.00010390,-0.00008784,0.00
 021898,-0.00015734,0.00024992,-0.00029473,0.00018024,0.01277720,0.0050
 3279,-0.00674227,0.00064962,-0.00028022,-0.00031561,-0.00015166,0.0000
 0135,-0.00008836,0.00001136,-0.00000292,0.00000910,-0.00001794,-0.0000
 0721,0.00003484,0.00000914,-0.00000707,-0.00005544,0.01957971,0.023202
 22,-0.09009894,0.02854874,0.03772075,0.58240291,0.00007687,-0.00024550
 ,0.00016945,-0.00079751,-0.00083786,0.00072075,-0.00168642,0.00036898,
 0.00051739,0.00006175,0.00005511,-0.00000936,-0.00001944,-0.00017472,0
 .00005773,-0.00009144,0.00007689,-0.00010134,-0.00026922,-0.00021347,0
 .00018312,-0.00135980,0.00209664,0.00082087,0.00001423,0.00000289,0.00
 000137,0.00003014,0.00000308,-0.00001195,-0.00001167,0.00003758,-0.000
 04494,-0.00003689,-0.00027937,0.00033598,-0.00001489,0.00000227,-0.000
 04708,0.00002907,-0.00000742,0.00009459,0.00007654,-0.00002868,0.00008
 683,-0.00018924,0.00029640,-0.00014093,0.00666166,0.01430379,0.0166717
 6,-0.00118300,0.00002698,0.00075154,0.00018934,0.00001202,0.00004559,-
 0.00001753,0.00000528,-0.00000364,-0.00003124,-0.00001170,0.00001055,-
 0.00001208,-0.00000801,-0.00003487,-0.07831754,-0.05301390,-0.06254001
 ,-0.00604260,-0.01476560,-0.01157422,0.09868644,-0.00005571,0.00046033
 ,0.00007417,-0.00101148,-0.00075632,0.00058175,-0.00060655,0.00038214,
 0.00021313,0.00042799,0.00024427,0.00043177,0.00003214,-0.00028043,0.0
 0004655,-0.00016800,0.00002539,-0.00017274,-0.00043901,-0.00024826,0.0
 0028380,0.00006919,-0.00045683,-0.00095203,0.00001939,0.00000189,-0.00
 001345,0.00001467,0.00000792,-0.00001447,0.00014296,-0.00016468,-0.000
 15726,0.00004455,-0.00004753,0.00044112,0.00003496,-0.00001640,0.00001
 263,-0.00004575,-0.00000323,-0.00013065,-0.00007279,0.00015831,-0.0000
 2097,0.00023592,-0.00023356,0.00015136,-0.00393436,-0.00793197,-0.0083
 1348,0.00061686,-0.00021447,-0.00035433,-0.00019803,-0.00004327,-0.000
 04755,0.00001563,-0.00000250,0.00000047,0.00001579,0.00001577,0.000009
 98,0.00003016,-0.00000663,-0.00002950,-0.05439826,-0.14298496,-0.11666
 456,-0.00836292,-0.01520851,-0.01199171,0.05489445,0.16007345,-0.00009
 785,0.00093068,-0.00000847,-0.00032921,0.00013997,0.00024382,-0.000037
 66,-0.00050281,0.00064544,0.00030444,0.00011725,0.00033460,-0.00008444
 ,-0.00023009,-0.00006219,-0.00007888,0.00000406,-0.00012436,0.00009739
 ,0.00020212,-0.00085210,-0.00064817,-0.00056553,0.00043993,0.00000325,
 0.00002254,-0.00000830,-0.00002083,0.00000262,-0.00001917,0.00008646,-
 0.00020788,-0.00035136,0.00026163,0.00009425,0.00037440,0.00001646,-0.
 00001470,-0.00000403,-0.00009016,0.00005740,-0.00001742,-0.00004290,0.
 00021757,-0.00009255,0.00030913,-0.00045539,0.00024699,-0.00396946,-0.
 00895766,-0.00915723,0.00064397,0.00009266,-0.00034492,-0.00014666,0.0
 0001391,-0.00016665,-0.00000374,-0.00002111,0.00001886,-0.00001510,0.0
 0001352,0.00002479,-0.00001564,0.00003828,-0.00002908,-0.06170653,-0.1
 1004476,-0.17266999,0.00615020,0.01054296,0.00848385,0.07001328,0.1154
 3985,0.19819730,-0.00012294,0.00004964,-0.00011976,-0.00018803,-0.0000
 5328,0.00002675,-0.00003168,-0.00001193,0.00000013,0.00007557,-0.00001
 306,0.00001478,0.00004273,0.00005089,0.00005421,0.00008533,-0.00000147
 ,0.00004030,-0.00003881,-0.00003621,-0.00030100,-0.00009702,-0.0000661
 3,-0.00012240,0.00001150,0.00000672,0.00000598,0.00000493,0.00000396,0
 .00000349,-0.00013117,-0.00001421,0.00007462,0.00029469,-0.00007590,0.
 00021138,0.00003795,0.00001245,0.00001842,-0.00000880,-0.00000101,-0.0
 0005418,0.00010032,-0.00002950,-0.00002103,0.00016167,-0.00002788,0.00
 010304,-0.00060838,-0.00057620,-0.00036592,-0.00114973,0.00016405,0.00
 031571,-0.00017554,-0.00005944,-0.00002751,0.00004614,0.00004475,0.000
 01974,0.00000186,-0.00004060,0.00006200,0.00001677,-0.00006275,-0.0000
 2507,-0.01494129,-0.00859934,-0.01853328,0.00031211,-0.00066719,0.0019
 1961,-0.00119679,0.00222698,-0.00145402,0.50126113,-0.00010016,-0.0000
 4000,-0.00013203,-0.00006419,-0.00010030,-0.00004513,-0.00009999,-0.00
 002474,-0.00010712,-0.00003380,-0.00006607,0.00000004,0.00006972,0.000
 09231,0.00003709,0.00011595,0.00000749,0.00008806,-0.00030491,-0.00018
 645,-0.00014699,-0.00010319,0.00007770,-0.00054054,0.00001056,0.000003
 62,0.00000518,0.00001195,0.00000150,0.00001028,-0.00024795,0.00007321,
 0.00017713,0.00017000,-0.00001957,0.00002253,0.00004571,0.00001009,0.0
 0000270,0.00005911,-0.00003870,0.00005393,0.00006229,-0.00009875,-0.00
 003793,0.00018752,-0.00002346,0.00016739,0.00068699,0.00133184,0.00202
 795,0.00011228,0.00036113,0.00022387,-0.00009709,-0.00003475,-0.000088
 35,0.00001035,0.00001337,0.00001514,-0.00010645,-0.00001997,0.00008229
 ,0.00005097,-0.00001920,-0.00015328,0.00867378,0.01570290,0.01389170,-
 0.00118695,-0.00005956,0.00190661,0.00357837,-0.00226869,0.00473565,-0
 .11117957,0.54288099,0.00034592,-0.00055155,0.00035006,0.00063110,0.00
 012668,-0.00019119,0.00000852,0.00062191,-0.00000807,0.00010377,0.0001
 6141,0.00011237,0.00004935,-0.00025480,0.00005917,-0.00022183,0.000182
 38,-0.00012643,-0.00141447,-0.00046000,0.00017725,0.00001438,-0.000322
 84,-0.00057476,0.00001716,-0.00001420,0.00000507,0.00004141,0.00000679
 ,0.00003285,0.00008514,0.00001176,-0.00004296,-0.00015028,0.00001486,-
 0.00002146,-0.00001224,-0.00000371,-0.00000843,0.00005544,-0.00005157,
 0.00005284,0.00011159,-0.00018660,0.00019056,-0.00006374,0.00043165,-0
 .00020422,0.00219535,0.00114405,0.00249329,0.00038737,0.00037904,0.000
 53580,-0.00016332,-0.00004109,0.00027422,0.00009782,0.00010964,-0.0000
 1249,-0.00001887,-0.00006990,0.00004025,0.00005234,-0.00025813,-0.0001
 2621,-0.02335896,-0.00747810,-0.02725058,0.00099599,-0.00148073,0.0017
 7517,-0.00225066,0.00273112,-0.00140390,0.00096442,-0.01759480,0.56039
 403,-0.00003931,-0.00023281,0.00009548,0.00015901,-0.00032438,-0.00035
 994,-0.00031875,0.00024444,-0.00031205,0.00026600,-0.00006535,0.000241
 99,0.00011696,-0.00000136,0.00007489,0.00001772,0.00006939,0.00004599,
 -0.00075386,0.00013166,0.00029037,-0.00022219,0.00050957,0.00033117,0.
 00001159,-0.00000875,-0.00000426,0.00003324,0.00000105,0.00001235,0.00
 012889,-0.00003899,-0.00006375,-0.00014678,-0.00011242,-0.00018722,-0.
 00004052,0.00001871,0.00001584,0.00001307,0.00000886,0.00002404,0.0000
 1857,0.00008886,-0.00001751,0.00007031,0.00013060,0.00000300,-0.002198
 36,0.00231384,-0.00202656,0.00021410,0.00022001,-0.00035119,-0.0002219
 2,0.00005972,0.00000496,0.00017034,0.00014298,-0.00001937,-0.00001759,
 -0.00007135,0.00008410,0.00009276,-0.00046052,0.00014478,-0.02129677,0
 .01802809,0.00736548,-0.00002089,-0.00166664,0.00131224,-0.00078351,0.
 00132455,0.00112720,0.01372618,-0.01078032,-0.00757859,0.50771311,-0.0
 0079863,0.00130482,-0.00062875,-0.00033484,-0.00081473,-0.00000121,-0.
 00067385,-0.00009349,-0.00049063,0.00034131,-0.00017344,0.00030038,0.0
 0003123,0.00023329,-0.00002685,0.00027303,-0.00023882,0.00015795,0.000
 59408,0.00079796,0.00058736,0.00073588,0.00043589,0.00013476,-0.000021
 32,-0.00001232,0.00000603,-0.00005803,-0.00000044,-0.00000194,0.000216
 28,-0.00002984,0.00011732,-0.00032342,0.00006943,-0.00023983,-0.000025
 81,0.00001062,0.00003212,0.00009263,-0.00001885,0.00005552,-0.00034140
 ,0.00012472,-0.00036123,0.00087399,-0.00115935,0.00059638,-0.00112565,
 -0.00081094,0.00186883,0.00055851,-0.00003402,-0.00043431,-0.00092776,
 -0.00009758,-0.00009017,0.00005257,-0.00005935,-0.00002446,0.00025377,
 0.00010132,-0.00014233,-0.00028388,-0.00017259,0.00038119,0.02673697,-
 0.02330803,-0.00645246,-0.00091043,0.00196400,-0.00056141,-0.00128065,
 0.00185531,-0.00161368,0.00973080,-0.02286446,-0.02459158,-0.00637507,
 0.54940779,-0.00045759,0.00077178,-0.00031357,-0.00002278,-0.00050785,
 0.00018886,-0.00050818,0.00021147,-0.00042177,0.00024978,0.00000635,0.
 00013776,-0.00003865,-0.00002653,-0.00002938,0.00005225,-0.00010811,-0
 .00001053,0.00038914,0.00025348,0.00011531,0.00042104,0.00006638,0.001
 43129,-0.00002451,-0.00002599,0.00000400,-0.00005149,-0.00000823,0.000
 00047,0.00066043,-0.00005808,-0.00016604,-0.00064989,0.00024779,-0.000
 49152,-0.00009774,0.00000213,0.00001398,-0.00001711,0.00001803,0.00006
 852,-0.00027954,0.00006169,-0.00011361,0.00045740,-0.00068797,0.000324
 32,-0.00285018,0.00268478,-0.00335254,0.00021339,-0.00013358,-0.000043
 37,-0.00080180,-0.00022965,-0.00006782,0.00010013,0.00000915,-0.000071
 60,0.00037967,0.00014662,-0.00026769,0.00011142,0.00015472,0.00051353,
 -0.01175752,0.01178224,0.01255943,0.00081660,0.00132147,-0.00118591,-0
 .00186526,0.00217700,0.00051067,0.01355504,-0.02192153,-0.02107304,0.1
 1058153,0.00312751,0.53692237,0.00013592,-0.00039074,0.00013200,0.0000
 5593,0.00023036,0.00001346,0.00026597,-0.00014565,0.00013738,-0.000102
 40,-0.00001153,-0.00008068,-0.00003253,-0.00001777,-0.00000808,-0.0000
 7178,0.00001651,-0.00004272,0.00000974,-0.00003500,-0.00002277,-0.0001
 5010,0.00019617,-0.00000214,0.00000967,0.00001390,-0.00000009,0.000008
 86,0.00000191,-0.00000185,-0.00020304,0.00000886,-0.00013995,0.0000766
 5,-0.00009504,-0.00000435,-0.00000210,0.00000531,0.00000177,-0.0001187
 4,0.00002285,0.00000882,0.00006272,0.00005251,0.00009822,-0.00035270,0
 .00033823,-0.00024537,-0.00077851,-0.00238245,0.00038131,-0.00011304,0
 .00021218,-0.00001152,0.00030806,0.00005020,0.00007138,-0.00002473,0.0
 0000380,0.00000662,-0.00003575,-0.00001986,0.00001630,-0.00000852,-0.0
 0001130,0.00000616,-0.03009950,-0.00328736,0.00646729,-0.16584134,0.02
 944995,-0.01536669,0.00021095,-0.00020970,-0.00007859,0.00400142,0.002
 21076,0.02515251,0.00122550,-0.02172395,-0.00474173,0.53293445,-0.0001
 0547,0.00026195,-0.00008059,-0.00009024,-0.00001318,-0.00001667,-0.000
 21150,-0.00017219,-0.00010342,0.00021976,-0.00001803,0.00016442,-0.000
 00392,0.00000071,-0.00000150,0.00002440,-0.00002479,0.00000917,-0.0001
 1632,0.00001928,-0.00004150,0.00084614,0.00021589,0.00085824,-0.000008
 40,-0.00000309,0.00000251,0.00000037,-0.00000244,0.00000360,0.00005886
 ,0.00010045,0.00007884,-0.00011944,0.00004881,-0.00031540,-0.00001874,
 -0.00002329,-0.00001152,-0.00009005,-0.00001162,0.00002387,-0.00012506
 ,0.00000736,-0.00015040,0.00015309,-0.00022664,0.00010695,-0.00180973,
 -0.00445955,0.00042639,-0.00057361,0.00039337,0.00047519,-0.00012980,-
 0.00001102,-0.00003050,0.00000432,-0.00000792,0.00001053,0.00002171,0.
 00000479,0.00000419,0.00001200,0.00001306,0.00000827,-0.02215483,0.007
 13081,-0.00394528,0.02640979,-0.08637488,0.00513116,-0.00068021,-0.001
 11683,0.00067450,0.00290907,-0.00063450,0.01941246,-0.00806225,-0.0267
 0307,0.00410952,0.06349588,0.51754380,0.00002403,-0.00000776,0.0000095
 8,0.00001112,-0.00005671,-0.00000481,0.00023330,0.00021597,0.00012244,
 -0.00017559,0.00005649,-0.00013479,0.00000889,-0.00001965,0.00001750,-
 0.00003879,0.00000943,-0.00002487,0.00011348,0.00002931,0.00005993,-0.
 00073895,-0.00013629,-0.00085320,0.00001238,-0.00000030,-0.00000235,-0
 .00000554,0.00000590,-0.00000345,-0.00010967,-0.00009319,-0.00001140,0
 .00016102,-0.00014757,0.00037434,0.00002478,0.00001269,0.00000289,0.00
 003608,-0.00000843,-0.00010477,0.00015427,0.00001049,0.00017012,0.0000
 6163,0.00005303,0.00000015,0.00231092,0.00216337,-0.00131468,0.0005912
 1,-0.00023058,-0.00041823,-0.00012229,-0.00004613,0.00007054,0.0000152
 3,0.00000935,-0.00001313,0.00002760,0.00000423,-0.00002406,-0.00001687
 ,-0.00001164,-0.00002265,0.01531153,-0.00576729,0.00218211,-0.01710203
 ,0.00759605,-0.07845163,0.00038440,0.00075308,-0.00040273,0.00692393,0
 .00777316,-0.02319979,-0.00321349,0.01923968,0.00437473,-0.05975695,-0
 .05523887,0.50976953,0.00004351,-0.00000212,0.00006543,-0.00009797,0.0
 0009951,0.00007796,0.00016197,-0.00009790,0.00019982,-0.00002282,0.000
 01497,-0.00001899,-0.00002021,-0.00001679,-0.00001664,-0.00002336,0.00
 002938,-0.00003167,0.00009825,-0.00001380,-0.00007346,0.00004136,0.000
 15334,-0.00014569,0.00000718,0.00000709,-0.00000325,-0.00000368,-0.000
 00086,-0.00000585,-0.00018863,0.00003536,-0.00006362,0.00013733,-0.000
 18008,0.00009429,-0.00003263,-0.00000272,-0.00004296,-0.00019800,0.000
 07476,-0.00007289,0.00010337,0.00006140,0.00007620,-0.00007650,0.00007
 192,-0.00006806,0.00058502,-0.00128902,-0.00021360,0.00025715,0.000213
 85,-0.00014396,0.00007223,0.00001055,0.00002518,-0.00001070,-0.0000030
 1,-0.00000079,0.00000492,-0.00000328,-0.00000786,-0.00001692,0.0000110
 2,0.00001202,0.00127531,-0.01812262,-0.01050326,-0.04831763,0.03125998
 ,0.01247065,-0.00239061,-0.00260949,0.00189402,0.00055275,-0.00003911,
 -0.00047727,-0.00069267,-0.00002012,0.00049084,-0.00510884,0.03046335,
 0.01146701,0.06039350,-0.00000231,0.00004235,0.00002023,-0.00008030,0.
 00008189,0.00006876,0.00007972,-0.00012911,0.00009450,0.00001551,-0.00
 001109,-0.00000680,-0.00000941,0.00000739,-0.00000892,-0.00000425,-0.0
 0000553,-0.00001453,0.00006598,0.00000676,-0.00006248,-0.00006553,0.00
 002008,0.00005650,0.00000089,0.00000408,-0.00000152,-0.00000410,-0.000
 00069,-0.00000468,-0.00014806,0.00009033,0.00008965,-0.00001973,-0.000
 11754,0.00003951,0.00001690,-0.00000273,-0.00001619,-0.00006427,0.0000
 4618,-0.00004418,0.00002892,-0.00000185,-0.00001366,-0.00003857,-0.000
 00445,-0.00002176,0.00086320,-0.00212523,-0.00141658,-0.00004301,-0.00
 001452,-0.00001729,0.00005495,0.00001674,-0.00000638,-0.00000837,-0.00
 000820,0.00000053,0.00000209,0.00000301,-0.00000562,-0.00001069,0.0000
 1213,0.00001400,0.00000456,-0.01703986,-0.00794516,0.02912463,-0.27113
 142,-0.09386782,-0.00140297,-0.00173082,0.00166053,-0.00006023,-0.0004
 8591,-0.00052267,-0.00024566,0.00062998,0.00021891,0.00230209,-0.00836
 148,-0.00338256,-0.03450945,0.29425391,-0.00000767,-0.00001861,-0.0000
 1281,0.00001497,0.00002352,-0.00003688,-0.00008985,-0.00001398,-0.0000
 8217,0.00003303,-0.00002704,0.00003379,-0.00000103,0.00001706,-0.00000
 717,0.00000352,-0.00001039,0.00000849,-0.00004828,0.00001138,0.0000197
 2,-0.00003069,-0.00016708,0.00013135,-0.00000021,-0.00000465,-0.000000
 32,0.00000159,0.00000134,-0.00000036,0.00003109,-0.00002101,-0.0000137
 7,-0.00012391,-0.00007604,-0.00010936,-0.00002301,-0.00000397,0.000000
 03,-0.00002092,-0.00001547,0.00009528,-0.00003583,0.00002547,-0.000013
 68,0.00000624,0.00000522,0.00000435,0.00043487,-0.00039354,0.00062743,
 -0.00024639,-0.00007523,0.00010895,-0.00001754,0.00000006,0.00000170,0
 .00000223,0.00000031,-0.00000079,-0.00000059,-0.00000046,0.00000081,0.
 00000232,-0.00000678,-0.00000705,-0.00425925,0.01187433,0.00708303,0.0
 1289350,-0.09707795,-0.09061360,0.00146701,0.00124654,-0.00022684,-0.0
 0001990,0.00009543,0.00043550,0.00005120,-0.00058820,0.00000165,-0.001
 13522,0.00596007,0.00163291,-0.01598196,0.10474493,0.09641839,0.000001
 87,-0.00007865,0.00001554,0.00001593,0.00009048,0.00000489,-0.00000852
 ,-0.00011935,-0.00002628,-0.00000086,-0.00004610,-0.00000411,-0.000008
 19,0.00000422,-0.00001081,-0.00000833,0.00000132,0.00000018,0.00005756
 ,0.00001611,0.00002432,0.00004600,-0.00000219,0.00037242,-0.00000065,-
 0.00000040,0.00000006,-0.00000169,0.00000056,-0.00000019,0.00003078,0.
 00008879,0.00000745,-0.00017173,0.00006621,-0.00022506,-0.00001547,0.0
 0001738,-0.00002672,-0.00003512,0.00003784,0.00006370,-0.00003164,-0.0
 0004267,-0.00004483,-0.00004777,0.00003798,-0.00003336,-0.00129788,-0.
 00030107,0.00048972,-0.00013757,0.00000809,0.00012897,0.00004127,0.000
 00545,0.00001083,-0.00000551,-0.00000309,-0.00000170,0.00000021,0.0000
 0055,-0.00000383,-0.00000465,0.00000325,0.00000908,0.00372825,-0.00152
 713,0.01946121,-0.05481745,0.00323485,-0.04724547,0.00138611,0.0002313
 8,0.00024736,-0.00089054,-0.00049631,0.00009927,-0.00009592,0.00005833
 ,0.00014761,-0.00465771,-0.00040150,-0.03199223,0.00068797,-0.00060803
 ,0.00462736,0.06148101,-0.00004913,-0.00002673,-0.00002209,0.00000552,
 0.00001928,-0.00000503,-0.00004287,-0.00007309,-0.00004925,0.00001320,
 -0.00004150,0.00000522,0.00000623,0.00003007,-0.00000194,0.00002468,-0
 .00002480,0.00001745,0.00008473,0.00002428,0.00005346,-0.00004131,0.00
 016460,0.00022251,-0.00000423,0.00000469,0.00000174,-0.00000557,0.0000
 0107,0.00000308,0.00000758,0.00001351,0.00004241,-0.00007183,0.0000878
 5,-0.00003417,0.00001200,0.00000291,0.00000241,0.00002918,0.00000266,-
 0.00005418,-0.00001696,0.00001050,-0.00003541,-0.00001665,-0.00004038,
 -0.00000952,-0.00072333,-0.00114667,0.00009774,-0.00013480,0.00005624,
 0.00017761,0.00002080,0.00000665,0.00001591,-0.00000430,-0.00000661,0.
 00000002,0.00001458,0.00000441,-0.00001193,0.00000004,0.00000816,0.000
 02583,0.00413404,-0.00300804,0.02037248,0.00274119,-0.04640669,0.00934
 871,0.00055168,0.00056989,0.00025149,-0.00050740,-0.00048460,-0.000723
 54,-0.00047740,0.00048734,0.00050617,0.00102598,-0.00089632,0.00891506
 ,-0.00665995,0.00314235,-0.02839901,0.00005295,0.05155052,0.00003466,0
 .00002594,0.00001299,-0.00001654,-0.00004588,-0.00000796,0.00011458,0.
 00016085,0.00005192,-0.00003463,0.00013310,-0.00005583,0.00000974,-0.0
 0007411,0.00002465,-0.00003909,0.00001349,-0.00002549,-0.00007315,-0.0
 0004087,-0.00001937,-0.00020908,-0.00001565,-0.00042433,0.00000845,-0.
 00000270,-0.00000441,0.00000429,0.00000128,-0.00000338,0.00006634,-0.0
 0003093,0.00003583,0.00008051,-0.00001344,0.00022006,0.00001728,0.0000
 1078,-0.00001452,0.00008741,-0.00005419,-0.00014059,0.00006376,-0.0000
 6269,0.00010180,0.00006387,0.00000168,0.00004276,0.00039616,0.00056453
 ,-0.00066742,0.00012833,-0.00000681,-0.00015178,-0.00006196,-0.0000177
 1,-0.00003104,0.00000651,0.00000608,0.00000157,-0.00001457,-0.00000245
 ,0.00001345,0.00000445,-0.00001266,-0.00002565,-0.00292944,-0.00061401
 ,-0.01031975,-0.04817053,0.01272524,-0.29942285,0.00011613,-0.00004210
 ,0.00135056,0.00023891,-0.00018446,0.00074814,0.00025932,-0.00030022,-
 0.00026711,-0.00108248,-0.00017802,-0.00390894,-0.00249917,0.00025015,
 -0.01200075,0.05308066,-0.01304663,0.32423978,-0.00011793,0.00033312,-
 0.00012909,-0.00007623,-0.00011374,0.00003305,-0.00007951,0.00004252,-
 0.00006725,0.00009702,-0.00003915,0.00006785,0.00000088,0.00002939,-0.
 00000311,0.00005551,-0.00003794,0.00003981,0.00001706,0.00005902,-0.00
 009423,0.00024065,-0.00003441,0.00016735,-0.00000170,-0.00000394,-0.00
 000050,-0.00000578,-0.00000124,-0.00000512,0.00008562,0.00002318,0.000
 01308,-0.00014846,0.00003022,-0.00007857,-0.00000825,-0.00000530,-0.00
 000726,0.00001736,-0.00001275,0.00001844,-0.00008833,0.00000862,-0.000
 06502,0.00023773,-0.00023496,0.00022692,0.00055855,0.00001772,-0.00013
 003,0.00013916,0.00004595,0.00000524,-0.00013493,-0.00004807,-0.000171
 54,0.00000075,-0.00000809,0.00000977,-0.00004610,0.00001111,0.00003083
 ,0.00000710,0.00001337,-0.00002228,-0.00070095,-0.00348464,-0.00255086
 ,-0.00012071,-0.00004165,0.00003596,-0.00068371,0.00064215,-0.00101092
 ,-0.08400766,0.06431818,-0.06793101,0.00000878,0.00054629,0.00135115,-
 0.00257956,-0.00245295,0.00110020,-0.00003313,0.00005240,-0.00000746,0
 .00011606,0.00007901,0.00001674,0.09933127,0.00004537,-0.00001854,0.00
 003494,0.00000610,0.00002603,-0.00001302,0.00003266,0.00001022,0.00003
 320,0.00001486,0.00002358,0.00000097,0.00000184,-0.00002891,0.00000738
 ,-0.00002423,0.00001407,-0.00002200,-0.00002801,-0.00000072,0.00000339
 ,0.00001635,0.00001035,0.00005426,0.00000028,-0.00000029,0.00000187,-0
 .00000110,0.00000114,0.00000192,-0.00000237,-0.00001980,-0.00001723,0.
 00003854,-0.00002297,0.00003782,-0.00000352,0.00000184,0.00000126,-0.0
 0003154,0.00001226,-0.00001942,0.00002602,0.00001806,0.00002408,0.0000
 0193,0.00004053,-0.00002776,-0.00018858,-0.00053628,-0.00022815,-0.000
 04942,-0.00003946,0.00008709,-0.00002106,-0.00000014,0.00004958,0.0000
 0595,0.00000983,-0.00000216,0.00000313,-0.00000629,0.00001079,0.000012
 55,-0.00001342,-0.00002864,-0.00172561,-0.00187505,-0.00367794,-0.0002
 2030,-0.00012018,-0.00040875,-0.00071386,0.00069460,-0.00073307,0.0696
 3636,-0.15648558,0.11713631,-0.00125442,0.00158533,-0.00043820,-0.0016
 4154,-0.00155453,-0.00003153,0.00000903,0.00013488,-0.00010367,0.00007
 235,0.00008555,0.00004212,-0.06608678,0.16401804,-0.00009304,0.0002395
 4,-0.00008818,-0.00004684,-0.00006852,0.00000934,-0.00003209,0.0000209
 2,-0.00002486,0.00007072,-0.00001736,0.00003727,0.00000019,0.00002657,
 -0.00000124,0.00003731,-0.00002166,0.00002717,0.00003486,0.00004299,-0
 .00002059,0.00007066,-0.00001764,0.00016333,0.00000144,-0.00000234,-0.
 00000110,-0.00000289,0.00000017,-0.00000536,0.00009108,-0.00000865,-0.
 00003639,-0.00002530,-0.00000401,-0.00000258,-0.00000613,0.00000082,0.
 00000640,-0.00000284,0.00000625,-0.00001491,-0.00003755,0.00001332,-0.
 00003346,0.00017075,-0.00017846,0.00013250,0.00003704,-0.00044033,-0.0
 0024789,-0.00009289,-0.00004615,0.00012872,-0.00012845,-0.00002125,-0.
 00006186,-0.00000369,-0.00001457,0.00000219,-0.00000523,0.00000910,0.0
 0000295,-0.00000886,0.00001634,-0.00001966,-0.00087882,-0.00375264,-0.
 00257377,0.00013362,-0.00042142,0.00050749,-0.00086693,0.00076256,-0.0
 0081657,-0.06630549,0.11037094,-0.16828633,-0.00055098,0.00220995,0.00
 001604,0.00178070,0.00133346,-0.00023506,0.00008829,0.00007797,-0.0000
 1270,0.00000369,0.00003396,0.00001177,0.07836276,-0.12065686,0.1856550
 7,-0.00000966,-0.00008529,-0.00001188,0.00001235,0.00004056,-0.0000077
 5,0.00001263,-0.00003344,0.00002391,-0.00003862,0.00000009,-0.00001640
 ,0.00001023,0.00000349,0.00000005,0.00001245,0.00000958,0.00000417,0.0
 0001835,-0.00001020,0.00003783,0.00008014,-0.00003333,-0.00002223,-0.0
 0000042,-0.00000029,0.00000203,-0.00000168,-0.00000192,0.00000586,-0.0
 0009055,0.00003607,0.00005245,0.00002156,0.00005872,-0.00001063,0.0000
 1546,-0.00000098,-0.00000308,-0.00000546,-0.00002153,-0.00000544,0.000
 01549,-0.00003426,-0.00001251,-0.00002116,0.00002867,-0.00002248,-0.00
 040733,0.00028153,-0.00059977,-0.00036409,-0.00038216,-0.00011779,0.00
 001299,0.00000993,0.00002715,-0.00000109,0.00000156,0.00000127,-0.0000
 0641,-0.00000777,0.00000385,0.00000489,-0.00000078,-0.00002166,0.00117
 037,0.00021853,0.00045238,-0.00000375,0.00038832,0.00004636,0.00012390
 ,-0.00018110,0.00022874,-0.15105513,0.10759591,0.07642782,-0.00194438,
 -0.00167260,-0.00285997,-0.00166029,-0.00084915,-0.00023485,-0.0000335
 5,-0.00007710,0.00006052,0.00013633,-0.00002362,-0.00000659,-0.0076006
 9,0.00798529,0.00589740,0.16433947,0.00001572,-0.00011138,0.00002032,-
 0.00009518,0.00005559,0.00002819,-0.00001173,-0.00004383,-0.00000152,0
 .00000153,-0.00001931,-0.00002612,-0.00000530,0.00001808,0.00000026,0.
 00000214,-0.00000201,-0.00000175,0.00012781,-0.00002453,-0.00008016,-0
 .00025371,-0.00024808,0.00016098,0.00000123,0.00000006,-0.00000171,0.0
 0000080,-0.00000154,-0.00000269,-0.00000739,-0.00001261,-0.00002128,0.
 00015696,-0.00003341,0.00008489,0.00000820,0.00000354,0.00000137,0.000
 00647,0.00001892,0.00001249,0.00001440,-0.00000428,0.00000185,-0.00009
 544,0.00007219,-0.00002712,0.00009543,0.00089106,-0.00057066,-0.000747
 56,-0.00016642,0.00006284,0.00012681,-0.00000423,-0.00007513,-0.000010
 26,0.00000237,0.00000967,-0.00002999,-0.00000969,0.00001815,0.00000064
 ,0.00001772,0.00001997,0.00055338,-0.00020909,0.00084846,0.00024721,0.
 00035212,-0.00008668,0.00000733,-0.00000537,0.00011170,0.10232799,-0.1
 5017765,-0.07721913,-0.00345820,-0.00112819,-0.00210027,-0.00129266,-0
 .00060553,0.00009338,0.00008058,-0.00007312,0.00000561,0.00003126,-0.0
 0000682,-0.00004601,0.01155922,-0.01213659,-0.00863343,-0.10753893,0.1
 6908467,0.00004519,-0.00021421,0.00005745,-0.00004322,0.00011085,0.000
 00974,0.00011429,-0.00013046,0.00009073,-0.00008432,0.00002388,-0.0000
 7812,0.00000527,0.00001574,0.00000501,-0.00000298,0.00002778,-0.000011
 44,0.00013446,-0.00001740,0.00000084,-0.00013845,0.00002417,0.00007009
 ,0.00000490,0.00000627,-0.00000016,0.00000046,-0.00000138,-0.00000102,
 -0.00018066,0.00004127,0.00002964,0.00023615,-0.00005924,0.00012748,0.
 00002423,0.00000431,0.00000129,-0.00006540,0.00002542,-0.00006732,0.00
 010302,-0.00001784,0.00003825,-0.00015420,0.00016297,-0.00011318,-0.00
 116385,-0.00071722,-0.00071129,-0.00046447,-0.00010818,0.00008911,0.00
 014429,0.00001289,0.00002789,-0.00001560,-0.00000361,0.00000034,-0.000
 01570,-0.00000401,-0.00000019,-0.00000900,0.00001232,0.00000093,0.0017
 4550,-0.00087001,0.00012217,-0.00007490,-0.00004042,-0.00010585,0.0000
 5275,0.00000244,0.00021787,0.07143066,-0.07205215,-0.10416156,-0.00394
 788,-0.00153167,-0.00230328,0.00110898,0.00047562,-0.00015843,0.000042
 53,0.00028707,-0.00027635,-0.00004906,0.00009136,0.00005105,-0.0124861
 9,0.01384919,0.01210840,-0.07952131,0.08748565,0.11371149,-0.00007643,
 0.00010627,-0.00008746,-0.00007550,-0.00007239,0.00006453,-0.00000161,
 0.00004284,0.00003263,-0.00003974,-0.00001693,-0.00002754,-0.00000510,
 0.00003353,-0.00000777,0.00003106,-0.00002310,0.00002223,0.00012133,0.
 00003853,-0.00004122,-0.00000596,0.00004657,-0.00005102,-0.00000190,0.
 00000422,-0.00000180,-0.00000792,-0.00000237,0.00000091,-0.00010257,0.
 00000471,0.00005715,0.00002569,0.00001998,0.00008070,0.00001851,0.0000
 0097,-0.00001368,0.00006049,-0.00002663,-0.00002823,0.00000086,0.00000
 696,-0.00000852,0.00007505,-0.00009127,0.00006899,-0.00014501,-0.00014
 107,-0.00012319,0.00011677,0.00002444,-0.00004996,-0.00004219,-0.00002
 103,-0.00006747,-0.00000762,-0.00000737,0.00000168,-0.00000248,0.00001
 509,-0.00000379,-0.00001500,0.00002617,0.00001755,0.00123810,-0.001820
 39,0.00172711,-0.01118346,0.00072307,-0.03576109,0.00067815,0.00001033
 ,0.00013303,-0.12516764,-0.02913924,0.03737273,-0.00013915,0.00088138,
 0.00090643,-0.08033131,-0.00336828,-0.01819146,0.00182423,-0.00084922,
 -0.00050546,-0.00665737,0.00098724,-0.00147895,0.00715911,0.00504811,-
 0.00456763,-0.01482957,-0.01157316,0.01022483,0.54719434,-0.00009582,0
 .00003283,-0.00006742,-0.00011283,-0.00003228,0.00007420,-0.00002906,-
 0.00008862,-0.00000271,-0.00003621,-0.00003734,-0.00003879,-0.00001046
 ,0.00003752,-0.00000999,0.00002802,-0.00003168,0.00001177,0.00023264,0
 .00008161,-0.00005113,-0.00011177,-0.00008293,0.00007887,-0.00000159,0
 .00000195,0.00000005,-0.00000936,-0.00000237,-0.00000363,-0.00013234,0
 .00002801,0.00000953,0.00013827,0.00001329,0.00005942,0.00001422,0.000
 00780,0.00000344,-0.00003136,0.00002935,0.00000919,-0.00000424,-0.0000
 1117,-0.00001630,0.00000505,-0.00002473,0.00002238,-0.00014415,0.00038
 524,-0.00027846,-0.00018064,-0.00011153,-0.00013680,0.00001661,-0.0000
 0395,-0.00005364,-0.00001333,-0.00001029,0.00000185,0.00000879,0.00001
 319,-0.00000268,-0.00001075,0.00004507,0.00002724,0.00087400,-0.001368
 45,0.00119157,0.00483290,0.00101636,0.01096611,0.00026253,-0.00008813,
 0.00009086,-0.02889683,-0.09829890,0.02478201,-0.00256345,0.00107065,0
 .00164759,-0.00332501,-0.07662744,-0.00934871,0.00051812,0.00039070,0.
 00146810,0.00312507,-0.00013301,0.00047910,-0.01423173,-0.00733969,0.0
 0996869,0.01185178,0.00929393,-0.00929845,-0.04012772,0.58115662,-0.00
 013951,0.00013443,-0.00012303,-0.00011765,-0.00002446,0.00003788,-0.00
 011451,-0.00014466,-0.00004808,0.00001189,-0.00010158,0.00004624,0.000
 00958,0.00013122,-0.00001192,0.00012119,-0.00005885,0.00007666,0.00017
 333,0.00005235,-0.00008646,-0.00008073,0.00016819,-0.00000734,-0.00000
 342,0.00000553,-0.00000088,-0.00000388,-0.00000142,-0.00000256,-0.0002
 5663,0.00014390,0.00018785,0.00010710,-0.00011648,0.00001186,0.0000371
 9,-0.00000520,-0.00001566,0.00001641,-0.00000336,0.00001754,-0.0000197
 0,-0.00002856,-0.00013374,0.00009815,-0.00015895,0.00010484,-0.0001860
 4,0.00055697,-0.00036803,0.00016327,-0.00020779,-0.00002894,-0.0000259
 1,-0.00000734,-0.00008934,-0.00001086,-0.00001747,0.00000374,0.0000046
 6,0.00000547,-0.00000344,-0.00000220,0.00003480,0.00002880,0.00116467,
 0.00044904,0.00074797,-0.01139287,0.00147806,-0.01075399,0.00019233,0.
 00001566,0.00001762,0.03441928,0.02418468,-0.10208530,0.00089697,0.000
 33131,0.00093035,-0.01750007,-0.00905053,-0.17849841,0.00140229,-0.000
 26508,0.00059706,-0.00002091,-0.00031317,0.00118589,0.01751365,0.00884
 634,-0.00904564,0.00898708,0.00878108,-0.00592368,0.03789929,0.0364207
 8,0.44652666,-0.00010404,0.00025138,-0.00011103,0.00005192,-0.00012318
 ,-0.00003712,0.00005670,0.00010035,-0.00001467,-0.00002437,-0.00003171
 ,-0.00001226,0.00001637,0.00004803,-0.00000111,0.00004306,-0.00003857,
 0.00005108,0.00010215,0.00011044,0.00008768,-0.00007888,-0.00001479,-0
 .00017034,0.00000154,-0.00000293,-0.00000090,-0.00000337,0.00000170,-0
 .00000506,-0.00001408,0.00002559,0.00002600,-0.00000472,0.00006556,0.0
 0004192,0.00000311,0.00000467,0.00001097,0.00004128,-0.00001784,-0.000
 01167,-0.00000063,-0.00006163,-0.00002031,0.00028732,-0.00017157,0.000
 14476,0.00009401,0.00044596,0.00021644,0.00006023,0.00004287,-0.000251
 26,-0.00021960,-0.00005893,0.00001208,-0.00000191,-0.00001252,-0.00000
 452,0.00000832,0.00000577,-0.00000582,-0.00007187,0.00002539,-0.000098
 14,0.00138758,-0.00134478,0.00238325,-0.00654129,0.03403154,0.00927370
 ,-0.00032760,-0.00013756,-0.00024827,-0.00099217,-0.00108912,-0.000981
 50,-0.10609638,-0.02936508,0.02619089,-0.08001182,0.01212676,0.0053178
 2,-0.00615289,0.00171822,-0.00162892,0.00094352,-0.00056767,-0.0002429
 6,0.00022209,0.00023792,0.00015323,-0.00002884,-0.00010885,-0.00024647
 ,0.00132457,-0.00598127,-0.00320537,0.58333945,0.00020929,-0.00026287,
 0.00016000,0.00003722,0.00006982,0.00005136,0.00011273,0.00006213,0.00
 006960,-0.00004106,0.00006108,-0.00006191,-0.00002761,-0.00011248,-0.0
 0000220,-0.00012253,0.00005486,-0.00008805,-0.00014307,-0.00015612,-0.
 00009156,-0.00001006,-0.00017184,0.00003176,-0.00000091,-0.00000402,-0
 .00000108,0.00000465,0.00000039,0.00000014,0.00019619,-0.00009890,-0.0
 0016400,-0.00002757,0.00008525,0.00003176,-0.00002218,0.00000285,0.000
 00884,-0.00000092,0.00000191,-0.00000650,0.00000492,0.00001691,0.00009
 920,-0.00027089,0.00022429,-0.00015549,0.00013415,-0.00024364,0.000384
 34,-0.00026296,0.00005542,0.00016688,0.00029836,0.00004649,-0.00002092
 ,-0.00003095,-0.00000359,0.00001744,-0.00006739,-0.00002256,0.00003461
 ,-0.00001971,0.00000596,0.00001374,-0.00082239,0.00079064,0.00063016,0
 .01124904,-0.01259186,-0.00347221,-0.00000847,-0.00012022,-0.00026879,
 -0.00012205,0.00085935,0.00116200,-0.02722829,-0.10539738,0.02865123,0
 .01066021,-0.16725958,-0.02105017,0.00064332,0.00104312,0.00065832,-0.
 00109840,0.00035136,-0.00028345,-0.00012143,-0.00042638,0.00004587,-0.
 00025668,-0.00016654,0.00010906,-0.00081693,-0.00616254,-0.01049624,-0
 .03517164,0.46320644,0.00013202,-0.00029485,0.00012289,0.00006266,0.00
 022471,-0.00003475,0.00005190,-0.00009430,0.00002318,-0.00002771,-0.00
 000552,-0.00001975,-0.00000550,0.00002118,-0.00000574,0.00000785,0.000
 02483,-0.00000284,-0.00001828,-0.00015437,-0.00009364,-0.00004316,0.00
 001756,0.00012890,-0.00000888,0.00000525,0.00000567,0.00000766,-0.0000
 0013,0.00000697,-0.00004579,-0.00003046,0.00006217,0.00002188,-0.00001
 012,-0.00004839,0.00000249,-0.00000493,-0.00000408,0.00001819,-0.00001
 125,0.00002389,0.00003502,0.00005089,-0.00001281,-0.00028322,0.0001924
 3,-0.00016998,-0.00017709,-0.00011515,-0.00028341,-0.00015014,0.000020
 80,0.00015793,0.00040387,0.00007451,-0.00000381,-0.00004948,-0.0000144
 0,0.00003370,-0.00008468,-0.00003899,0.00004989,-0.00001637,0.00004363
 ,-0.00004481,-0.00054515,0.00106619,-0.00049215,0.00063379,0.00431102,
 0.00289143,-0.00024932,-0.00047722,0.00019349,0.00144602,0.00166004,0.
 00178251,0.02448384,0.03107784,-0.10371343,0.00270738,-0.01986904,-0.0
 8314825,-0.00175221,0.00011187,-0.00038459,-0.00026595,0.00065576,-0.0
 0029921,-0.00012864,-0.00002402,-0.00012622,-0.00019321,0.00000804,0.0
 0051274,0.00097951,-0.03696460,-0.01440535,0.02318219,0.01384387,0.486
 65910,-0.00025111,0.00070069,-0.00026597,-0.00011923,-0.00022632,0.000
 04598,-0.00006571,-0.00000418,-0.00007438,0.00010182,-0.00008055,0.000
 05203,0.00000922,0.00006365,-0.00000115,0.00010408,-0.00007345,0.00007
 672,0.00003284,0.00011627,-0.00012659,0.00022078,0.00001047,0.00036470
 ,-0.00000035,-0.00000572,0.00000116,-0.00001184,0.00000135,-0.00001026
 ,0.00011922,0.00004616,0.00002359,-0.00016012,0.00005736,-0.00013034,-
 0.00000953,-0.00000540,-0.00000585,0.00000612,0.00000108,0.00001843,-0
 .00009921,0.00000104,-0.00007645,0.00063537,-0.00045528,0.00039538,-0.
 00013568,0.00062760,-0.00089090,0.00002310,0.00000426,-0.00000976,-0.0
 0052256,-0.00011270,-0.00003732,-0.00000055,-0.00002954,0.00000539,0.0
 0001821,0.00001853,0.00000227,-0.00011902,0.00005712,-0.00023192,-0.00
 188377,0.00215066,0.00315117,-0.00022994,0.00006410,-0.00003008,0.0002
 7509,-0.00002435,0.00054356,0.00034699,-0.00139744,-0.00107230,-0.1193
 0271,0.07473811,-0.09057071,-0.00099276,-0.00045254,0.00145618,0.00011
 444,0.00005011,-0.00006845,0.00000764,0.00008866,-0.00004182,0.0004604
 9,0.00018477,0.00055101,0.00003801,-0.00036667,0.00011176,0.00040998,0
 .00003666,-0.00021214,0.00890610,-0.01148382,0.01393073,0.13795407,0.0
 0003791,-0.00006619,0.00002257,0.00003675,0.00009509,0.00003069,0.0000
 8562,-0.00003724,0.00008094,-0.00006671,0.00002459,-0.00003457,-0.0000
 0030,-0.00002186,0.00000484,-0.00002311,-0.00000010,-0.00001518,-0.000
 02813,-0.00003794,-0.00005781,-0.00002371,-0.00006742,-0.00033425,0.00
 000175,0.00000150,0.00000146,0.00000150,-0.00000036,-0.00000142,-0.000
 12316,-0.00000741,0.00004292,0.00012128,-0.00002453,0.00010775,0.00001
 464,0.00000269,-0.00000615,-0.00000107,0.00000067,-0.00001424,0.000057
 64,-0.00001317,0.00004024,-0.00001528,0.00009810,-0.00004876,0.0005119
 0,-0.00031977,0.00105289,-0.00003295,0.00003482,0.00001728,-0.00000094
 ,-0.00001655,0.00006238,-0.00000642,0.00000246,0.00000585,0.00002298,-
 0.00000475,-0.00000544,0.00003811,0.00007529,-0.00007552,0.00172949,-0
 .00160282,-0.00340639,-0.00005971,0.00069136,-0.00011583,0.00011811,0.
 00028675,0.00015358,0.00055171,-0.00003443,0.00198665,0.07251776,-0.12
 439884,0.08896574,-0.00095219,-0.00032738,0.00123270,0.00001993,-0.000
 00612,-0.00002955,-0.00008261,-0.00003594,0.00003192,-0.00015040,0.000
 11736,-0.00077456,-0.00016143,0.00045784,-0.00011032,0.00013897,-0.000
 15781,0.00003595,0.00814034,-0.00753891,0.01114521,-0.08597217,0.13556
 423,-0.00009777,0.00024681,-0.00010410,-0.00002972,-0.00003150,0.00003
 836,0.00003834,-0.00001991,0.00003833,-0.00001819,-0.00001736,-0.00001
 199,0.00000177,0.00002048,-0.00000348,0.00003383,-0.00002577,0.0000299
 5,0.00001553,0.00001293,-0.00004261,0.00001651,-0.00008170,-0.00018889
 ,0.00000224,-0.00000035,0.00000098,-0.00000356,0.00000190,-0.00000548,
 -0.00002789,0.00001730,0.00001799,0.00004731,-0.00000145,0.00006187,0.
 00001211,-0.00000059,-0.00000066,0.00000824,-0.00000137,-0.00001448,0.
 00001072,-0.00001276,0.00000320,0.00023745,-0.00016566,0.00011595,0.00
 072487,-0.00039946,0.00067380,-0.00007487,0.00002219,0.00002981,-0.000
 17899,-0.00004473,0.00000969,-0.00002865,-0.00002620,0.00001435,0.0000
 3101,0.00000509,-0.00002140,-0.00012637,0.00006569,-0.00006596,0.00176
 929,-0.00281424,-0.00155955,0.00017223,-0.00003499,0.00011660,0.000245
 02,0.00021617,0.00020665,0.00111136,-0.00091356,0.00179224,-0.09703879
 ,0.09495271,-0.16248501,0.00114493,0.00009389,-0.00127027,-0.00001617,
 0.00001007,-0.00001341,-0.00003759,-0.00008744,0.00007683,-0.00008679,
 0.00045610,0.00004589,0.00020824,0.00003308,0.00033514,-0.00027250,0.0
 0013882,-0.00038249,-0.00888466,0.00802973,-0.01032494,0.09521899,-0.0
 9863696,0.17227844,0.00022805,-0.00040006,0.00015709,0.00015745,0.0001
 0583,-0.00022476,0.00010720,0.00007089,0.00007610,-0.00005250,0.000055
 53,-0.00002876,-0.00008891,-0.00006991,0.00001107,-0.00011019,0.000029
 20,-0.00005238,0.00010047,0.00000239,0.00017672,-0.00009975,-0.0000045
 3,-0.00011865,0.00001577,-0.00000158,-0.00001226,0.00000869,-0.0000013
 0,0.00000477,-0.00012477,0.00005143,0.00003615,0.00010146,-0.00005162,
 0.00008443,0.00001966,-0.00001031,-0.00001080,-0.00000388,0.00000269,-
 0.00001080,0.00001286,-0.00004694,0.00001427,-0.00031047,0.00026705,-0
 .00021459,0.00052061,-0.00000618,0.00020249,-0.00000276,-0.00004480,0.
 00005636,0.00022652,0.00009735,0.00013138,0.00001337,0.00000406,-0.000
 02133,-0.00010354,-0.00003173,0.00005439,0.00002052,-0.00021638,0.0000
 5681,0.00113316,0.00045870,0.00150998,-0.00015227,0.00001545,-0.000379
 61,0.00010403,-0.00032625,-0.00014320,-0.00218857,0.00308251,0.0015637
 8,-0.13266917,-0.09069834,-0.08320550,-0.00228048,-0.00016712,0.001588
 68,0.00007611,-0.00000906,0.00006521,0.00006229,-0.00005489,-0.0000185
 4,0.00001509,-0.00023991,0.00014465,0.00066494,0.00057396,0.00087901,-
 0.00007936,0.00042284,0.00027667,-0.01036043,-0.01118218,-0.00796659,-
 0.00942369,-0.01095154,-0.00903181,0.14174638,0.00000869,0.00009735,-0
 .00001490,0.00004458,0.00013995,0.00006161,0.00021649,-0.00009588,0.00
 016053,-0.00008746,-0.00001465,-0.00007707,-0.00001573,0.00000387,-0.0
 0001786,0.00000819,-0.00000790,0.00001973,0.00005984,-0.00008576,-0.00
 020398,0.00008467,-0.00009294,0.00000673,0.00000004,0.00000057,-0.0000
 0240,-0.00000058,-0.00000107,-0.00000875,-0.00000018,-0.00000710,-0.00
 001925,0.00002351,0.00000279,0.00001262,0.00000420,-0.00000269,-0.0000
 1016,-0.00001267,-0.00000312,-0.00000722,0.00002031,0.00000216,0.00003
 799,0.00006300,-0.00000693,-0.00002221,0.00013376,0.00005328,0.0000035
 9,-0.00011650,0.00006086,0.00000341,-0.00002135,-0.00004946,0.00006849
 ,-0.00002788,-0.00002769,0.00002406,-0.00002758,-0.00000906,0.00003032
 ,-0.00012892,0.00005749,0.00004643,-0.00217088,-0.00022571,-0.00151734
 ,0.00010825,-0.00001914,0.00016954,0.00076980,-0.00015466,0.00074399,0
 .00355003,-0.00216421,-0.00034365,-0.08610956,-0.14091853,-0.07989771,
 -0.00195706,-0.00043269,0.00164618,0.00011549,0.00004913,0.00001384,0.
 00000288,-0.00009078,0.00009687,-0.00005570,0.00035858,-0.00013993,-0.
 00073863,-0.00048023,-0.00091993,0.00044318,0.00053249,0.00023251,-0.0
 1147097,-0.01095558,-0.00732237,0.00883053,0.01237481,0.00923184,0.095
 53767,0.15695026,0.00033891,-0.00070065,0.00025489,0.00007753,0.000471
 65,0.00007429,0.00027916,-0.00023750,0.00023821,-0.00019214,0.00002029
 ,-0.00014261,-0.00003987,-0.00000633,-0.00003011,-0.00006876,0.0000590
 3,-0.00005214,0.00010600,-0.00026786,-0.00024961,-0.00010886,-0.000002
 36,-0.00012038,-0.00000438,0.00001982,-0.00000468,0.00001034,-0.000001
 27,0.00000128,-0.00022606,0.00004971,0.00004385,0.00018840,-0.00004656
 ,0.00010718,0.00002968,-0.00000685,-0.00001532,-0.00002345,0.00000516,
 -0.00001381,0.00006215,-0.00001572,0.00002662,-0.00076013,0.00049204,-
 0.00042281,0.00011795,0.00009527,0.00002590,-0.00008921,-0.00000091,0.
 00001252,0.00102138,0.00017542,-0.00004711,-0.00013295,-0.00004461,0.0
 0007155,-0.00019592,-0.00005871,0.00010902,0.00010712,0.00024882,-0.00
 014271,-0.00091886,0.00142993,-0.00027619,0.00001849,-0.00012914,0.000
 22713,0.00015207,-0.00002154,0.00069121,0.00375447,-0.00260492,-0.0006
 4601,-0.07898790,-0.08251112,-0.11703957,0.00154647,0.00113512,-0.0016
 1700,-0.00004722,0.00001177,-0.00004112,0.00000345,-0.00002993,0.00001
 897,0.00018640,0.00003442,0.00043015,-0.00059971,-0.00105272,-0.000682
 91,0.00001958,0.00005477,-0.00008135,0.01028373,0.01205205,0.00778754,
 -0.01076781,-0.01191123,-0.01035972,0.07970305,0.09428341,0.13713613,-
 0.00006663,0.00018220,-0.00005669,-0.00004722,-0.00005560,0.00001212,-
 0.00010427,-0.00005925,-0.00006211,0.00009513,-0.00003040,0.00007189,-
 0.00000376,0.00000298,-0.00000950,0.00002441,-0.00001936,0.00000993,-0
 .00000450,0.00004570,-0.00002330,0.00042601,0.00006318,0.00044399,-0.0
 0000577,-0.00000265,0.00000087,-0.00000347,0.00000108,-0.00000167,0.00
 012613,0.00001479,0.00002674,-0.00015784,0.00007199,-0.00017856,-0.000
 01532,-0.00000944,-0.00000304,0.00002283,-0.00002481,0.00003498,-0.000
 08810,0.00002236,-0.00009048,0.00009522,-0.00014921,0.00007909,-0.0006
 1428,-0.00155153,0.00019191,-0.00032107,0.00015772,0.00020045,-0.00006
 381,0.00000112,-0.00002428,0.00000179,-0.00000529,0.00000019,0.0000114
 4,0.00000700,-0.00000586,0.00000157,0.00001497,0.00000379,-0.00493156,
 0.00330667,-0.00139214,-0.02092397,-0.01719965,0.01455313,-0.00027775,
 -0.00031231,0.00011413,0.00015079,-0.00047069,-0.00175243,0.00059396,0
 .00148617,0.00086057,-0.15638453,-0.09902479,0.08740630,0.00080531,0.0
 0038247,0.00032027,0.00117012,-0.00045037,-0.00046392,0.00019852,0.000
 14969,-0.00013558,0.00018457,0.00011806,-0.00014397,0.00495854,0.00445
 472,-0.00419286,0.00315970,0.00312840,-0.00335234,-0.00001120,-0.00002
 152,-0.00004503,0.00026532,0.00021486,-0.00016801,0.17015166,0.0000426
 1,-0.00014741,0.00003966,0.00001388,0.00007825,0.00001251,0.00005998,-
 0.00002871,0.00004954,-0.00005440,0.00000194,-0.00003197,-0.00001093,0
 .00001279,-0.00000792,-0.00000058,-0.00000222,-0.00000286,0.00006229,-
 0.00002281,-0.00000772,-0.00010521,-0.00000384,-0.00011984,-0.00000280
 ,0.00000330,-0.00000007,-0.00000020,0.00000061,0.00000067,-0.00003082,
 0.00003757,0.00000909,0.00001350,-0.00002028,0.00003096,0.00000587,0.0
 0000009,0.00000123,0.00000480,0.00000732,-0.00000664,0.00001366,-0.000
 02897,-0.00000519,-0.00015315,0.00009854,-0.00008793,0.00022693,0.0005
 0194,-0.00006996,0.00009250,-0.00005932,-0.00008200,0.00016799,0.00003
 265,0.00000928,-0.00001648,-0.00000437,0.00000494,-0.00001446,-0.00000
 449,0.00000037,-0.00000251,0.00001686,0.00001811,0.00259528,-0.0004615
 6,0.00073290,0.00770338,0.00645745,-0.00587087,0.00014372,0.00012916,-
 0.00006181,-0.00038514,0.00070582,-0.00141008,0.00191528,-0.00503804,-
 0.00303047,-0.09934646,-0.13642331,0.07918545,-0.00062583,0.00025409,-
 0.00025969,-0.00074217,0.00042294,-0.00004943,0.00017126,0.00018151,-0
 .00017973,0.00005759,0.00000590,0.00003518,0.00325899,0.00206481,-0.00
 283946,-0.01997036,-0.01928081,0.01623419,-0.00045203,-0.00048418,0.00
 047629,-0.00087805,-0.00082238,0.00076206,0.10503800,0.14835649,0.0000
 0577,0.00004640,0.00000378,-0.00001161,-0.00002961,-0.00000362,-0.0000
 2972,0.00000410,-0.00003372,0.00003230,0.00000142,0.00001973,0.0000059
 0,-0.00001093,0.00000346,-0.00000305,0.00001282,-0.00000252,-0.0000443
 1,-0.00000446,-0.00002166,0.00009608,-0.00001917,0.00010371,-0.0000009
 7,-0.00000180,0.00000073,0.00000123,-0.00000192,0.00000079,0.00002110,
 -0.00003389,-0.00001558,-0.00000393,0.00002318,-0.00003311,-0.00000539
 ,0.00000416,-0.00000135,-0.00000927,0.00000005,0.00000540,-0.00000442,
 0.00002724,-0.00000087,0.00003615,-0.00003186,0.00002923,-0.00024286,-
 0.00046194,0.00006605,-0.00017991,0.00005472,0.00009111,-0.00002174,-0
 .00000765,-0.00002938,0.00000146,0.00000008,0.00000321,-0.00001321,-0.
 00000007,0.00001022,0.00000562,-0.00000298,-0.00000961,-0.00213849,0.0
 0078693,0.00032722,-0.00552918,-0.00462791,0.00340971,0.00001879,-0.00
 010240,0.00002177,-0.00306651,-0.00130709,-0.00555921,0.00035568,-0.00
 194562,-0.00016438,0.08827039,0.07938609,-0.11435511,0.00059454,-0.000
 08015,-0.00006090,0.00036738,-0.00037701,0.00044814,0.00106132,0.00067
 279,-0.00063338,0.00051981,0.00031542,-0.00039825,0.02095625,0.0178254
 4,-0.01826015,-0.00630349,-0.00505762,0.00491221,-0.00011833,-0.000172
 25,0.00013007,-0.00022165,-0.00020313,0.00022638,-0.09360500,-0.084378
 54,0.12918395,-0.00006612,0.00013192,-0.00006558,-0.00003338,-0.000046
 70,0.00001971,-0.00003588,-0.00001827,-0.00002201,0.00002395,-0.000022
 41,0.00001418,-0.00000308,0.00002877,-0.00000864,0.00003262,-0.0000255
 1,0.00002108,0.00007208,0.00004844,-0.00000226,0.00015828,0.00000868,0
 .00005874,-0.00000469,0.00000147,-0.00000159,-0.00000362,0.00000014,-0
 .00000216,0.00006847,0.00000819,0.00001301,-0.00009569,0.00002550,-0.0
 0005851,-0.00000216,-0.00000585,-0.00000173,0.00001882,-0.00000566,0.0
 0001001,-0.00004842,-0.00000284,-0.00003462,0.00005502,-0.00010949,0.0
 0004964,0.00009596,0.00003753,0.00007268,0.00009244,0.00000123,0.00000
 138,-0.00001517,0.00001901,-0.00001755,-0.00000599,-0.00001529,0.00000
 165,0.00001213,0.00001021,-0.00000862,-0.00000375,0.00003962,0.0000099
 5,0.00067830,-0.00019258,0.00038915,0.00113305,0.00018251,-0.00143325,
 -0.00003436,0.00000293,-0.00003043,-0.01770639,0.00915780,-0.00348840,
 -0.00061834,0.00065227,-0.00003412,-0.00489160,0.00210837,-0.00152649,
 0.00018099,-0.00005044,0.00003983,-0.00046676,0.00003684,-0.00000493,0
 .00150079,-0.00018966,-0.00015148,-0.00191577,-0.00204104,0.00122560,-
 0.25941772,0.09018741,-0.05007206,0.00018394,0.00039929,0.00077202,-0.
 00010448,-0.00031297,0.00006324,0.00014242,-0.00010526,-0.00002899,0.0
 0024749,-0.00002615,-0.00053154,0.28113651,0.00000450,0.00000951,0.000
 00024,0.00000259,-0.00002513,0.00000671,0.00000190,-0.00000126,0.00000
 954,-0.00000621,-0.00000013,-0.00000589,0.00000307,0.00000008,-0.00000
 110,0.00000303,0.00000678,-0.00000089,0.00001884,0.00000305,0.00000435
 ,-0.00000480,0.00002534,-0.00003440,-0.00000131,0.00000098,0.00000015,
 -0.00000175,-0.00000008,0.00000078,-0.00003571,-0.00003141,0.00000575,
 0.00002156,-0.00001643,0.00001224,-0.00000214,0.00000383,0.00000137,-0
 .00001639,-0.00000049,-0.00000605,0.00001991,0.00003765,0.00001256,-0.
 00000374,0.00000720,-0.00000927,-0.00006993,-0.00012720,0.00005508,0.0
 0007158,0.00001531,-0.00001678,0.00000858,0.00000646,0.00001296,0.0000
 0043,-0.00000218,0.00000011,0.00000207,-0.00000128,-0.00000205,-0.0000
 0026,0.00001583,-0.00000147,0.00038919,-0.00025187,0.00037094,-0.00018
 579,0.00014514,0.00005471,0.00005494,0.00004077,-0.00010614,-0.0156997
 1,0.00614926,-0.00327917,-0.00006624,0.00035520,-0.00000106,-0.0020283
 9,-0.00018894,-0.00113167,-0.00035066,0.00043939,-0.00003467,0.0000512
 9,0.00033251,0.00008863,0.00007767,0.00123905,-0.00055561,-0.00189907,
 -0.00026869,0.00094587,0.09204087,-0.08790353,0.02076057,-0.00122291,0
 .00032874,-0.00065491,0.00004084,-0.00022573,0.00012063,0.00012495,-0.
 00001114,-0.00001505,0.00013015,-0.00011849,0.00026892,-0.09767107,0.0
 9232300,-0.00001073,0.00004737,-0.00000998,0.00000039,-0.00001336,-0.0
 0000762,-0.00001534,0.00002320,-0.00001332,0.00002508,0.00001611,0.000
 01189,0.00000663,-0.00001162,0.00000649,-0.00000024,0.00000125,0.00000
 062,-0.00003679,-0.00000694,-0.00000348,0.00003724,-0.00003071,0.00007
 141,0.00000075,-0.00000132,0.00000023,-0.00000009,-0.00000031,0.000000
 57,0.00007594,-0.00001790,-0.00003007,0.00000725,0.00002202,0.00001440
 ,0.00000095,-0.00000119,0.00000443,0.00001318,-0.00000426,-0.00001800,
 -0.00001652,-0.00000722,-0.00000358,0.00005197,-0.00004582,0.00003542,
 -0.00002949,-0.00014736,-0.00010127,-0.00014070,-0.00000701,0.00006362
 ,-0.00004646,-0.00000738,-0.00001355,0.00000442,0.00000207,0.00000197,
 0.00000091,-0.00000050,0.00000274,0.00000094,-0.00000622,-0.00000406,0
 .00040683,0.00065649,-0.00060385,-0.00052478,-0.00092271,-0.00692014,0
 .00002199,-0.00005348,0.00007204,0.01615049,-0.00634118,0.00103754,-0.
 00011158,-0.00015850,0.00040167,-0.03034595,0.01205327,-0.00717524,0.0
 0045322,-0.00009997,-0.00000297,-0.00221844,0.00034626,-0.00046933,0.0
 0005159,-0.00018390,0.00131125,0.00250443,0.00135307,-0.00122498,-0.05
 016986,0.01926518,-0.05689628,-0.00104043,0.00161589,0.00172131,-0.000
 06202,-0.00007657,-0.00000584,0.00005524,0.00003368,0.00000176,0.00052
 348,0.00042159,0.00085284,0.05398623,-0.02461469,0.06570798,-0.0000113
 1,0.00000280,-0.00000041,-0.00003556,0.00000056,0.00002614,0.00002714,
 -0.00005662,0.00003010,-0.00001940,-0.00000412,-0.00001801,-0.00000352
 ,0.00000886,-0.00000528,0.00000758,-0.00000430,-0.00000609,0.00010476,
 0.00003371,-0.00001351,0.00000789,0.00005872,0.00004210,-0.00000183,0.
 00000275,0.00000089,-0.00000456,0.00000044,-0.00000164,-0.00006521,0.0
 0001331,0.00001988,0.00003180,-0.00000249,0.00000397,0.00000536,0.0000
 0172,-0.00000065,-0.00005136,0.00000178,-0.00002777,0.00001251,0.00001
 887,-0.00000304,-0.00003391,0.00000573,-0.00002286,-0.00019009,-0.0003
 9207,-0.00017912,0.00002350,-0.00000051,-0.00001947,0.00003502,0.00000
 418,0.00000724,-0.00000724,-0.00000584,0.00000104,0.00000727,0.0000031
 2,-0.00000778,-0.00000567,0.00002345,0.00001421,0.00038758,-0.00054415
 ,0.00049958,0.00042635,-0.00106008,0.00007290,-0.00002945,0.00006953,-
 0.00007894,-0.00080547,-0.02146684,-0.00649290,-0.00055248,0.00075361,
 0.00050047,-0.00121910,-0.00466507,-0.00146310,-0.00009345,0.00025562,
 -0.00018396,0.00010747,0.00015897,0.00011625,-0.00082181,-0.00107331,0
 .00091142,0.00102935,-0.00017226,-0.00065667,-0.04700379,0.00311154,-0
 .00036622,0.00004495,0.00036985,0.00000455,-0.00002069,-0.00009137,0.0
 0002588,0.00009441,-0.00002070,-0.00007885,0.00016835,0.00034535,0.000
 33822,0.00047250,0.02771816,0.00846244,0.05093789,-0.00001405,-0.00003
 067,-0.00000720,-0.00003734,0.00004402,0.00002321,0.00004112,-0.000078
 18,0.00003445,-0.00001363,-0.00001694,-0.00001755,-0.00000608,0.000028
 64,-0.00000666,0.00001346,-0.00001413,0.00000807,0.00011119,0.00003599
 ,-0.00001500,0.00005077,0.00006383,0.00006611,-0.00000116,0.00000344,-
 0.00000121,-0.00000027,0.00000005,-0.00000399,-0.00000035,0.00003806,0
 .00000738,-0.00003119,-0.00000922,-0.00003286,0.00000297,-0.00000553,-
 0.00000408,-0.00000614,0.00000109,-0.00000418,-0.00001120,-0.00001292,
 -0.00002354,-0.00006683,0.00001689,-0.00003135,-0.00011601,-0.00026592
 ,-0.00016540,0.00004669,0.00000451,-0.00002458,0.00007749,0.00001767,-
 0.00000071,-0.00000803,-0.00000666,-0.00000029,0.00000652,0.00000416,-
 0.00000756,-0.00000808,0.00001909,0.00002438,0.00051475,-0.00042060,0.
 00041039,-0.00003962,0.00036784,0.00038450,-0.00001226,0.00008746,-0.0
 0008150,0.00152824,-0.01183074,-0.00377893,0.00005442,0.00072501,0.000
 45623,0.00078413,-0.00143051,0.00007499,-0.00050993,0.00035975,-0.0002
 2493,-0.00009261,0.00028215,0.00002838,-0.00138619,-0.00052484,0.00057
 341,-0.00011500,0.00148256,-0.00003649,0.00093730,-0.29436393,-0.06884
 395,0.00012839,0.00122977,-0.00074794,0.00003656,0.00008512,-0.0000183
 9,-0.00002959,-0.00001413,-0.00002449,0.00018071,0.00063216,-0.0005695
 6,0.00058834,-0.01156536,-0.00311146,0.00005863,0.31613894,0.00002811,
 -0.00004163,0.00002126,0.00001336,0.00000846,-0.00000582,0.00002252,0.
 00001572,0.00001919,-0.00000274,0.00000680,-0.00000412,0.00000009,-0.0
 0001308,0.00000332,-0.00001107,0.00001395,-0.00000528,-0.00005320,-0.0
 0002610,-0.00000066,-0.00003683,-0.00002905,-0.00002189,0.00000190,-0.
 00000032,0.00000014,0.00000255,-0.00000011,0.00000056,0.00002015,-0.00
 000575,-0.00002653,0.00001107,-0.00000086,0.00000685,-0.00000268,0.000
 00122,0.00000450,-0.00002589,-0.00000157,-0.00000514,0.00001740,-0.000
 00701,0.00001288,-0.00001331,0.00003704,-0.00000957,-0.00004760,-0.000
 01878,0.00002975,-0.00000743,0.00001988,0.00000093,0.00000941,0.000000
 02,-0.00000441,0.00000216,0.00000348,0.00000001,-0.00001374,-0.0000036
 0,0.00000866,0.00000302,-0.00000961,-0.00001353,-0.00019260,0.00006296
 ,0.00000172,0.00149887,-0.00088946,0.00125360,0.00010616,0.00006320,-0
 .00002115,0.00040323,0.01548676,0.00336051,0.00054444,0.00029567,-0.00
 071165,0.00075847,-0.03267884,-0.00935002,-0.00054811,0.00060110,0.000
 18672,0.00031970,0.00021240,0.00019706,0.00083705,0.00085528,-0.001183
 12,-0.00012322,0.00009655,0.00155499,-0.00175090,-0.06701753,-0.063738
 53,-0.00222351,0.00090042,-0.00694317,-0.00004986,-0.00007745,0.000082
 87,-0.00005925,0.00000342,0.00006324,0.00060785,0.00025975,0.00128396,
 0.00049359,0.00749162,0.00210428,-0.00212547,0.07473022,0.07231420,-0.
 00005038,0.00009109,-0.00005084,-0.00004943,-0.00000153,0.00001322,0.0
 0001130,-0.00004685,0.00001225,0.00000670,-0.00001532,-0.00000268,-0.0
 0000810,0.00002672,-0.00000990,0.00003097,-0.00001916,0.00002001,0.000
 08658,0.00004387,-0.00000223,0.00010057,0.00002935,0.00007910,-0.00000
 175,0.00000344,-0.00000157,-0.00000296,0.00000050,-0.00000332,0.000034
 46,0.00004004,0.00002294,-0.00006221,0.00001240,-0.00004788,0.00000498
 ,-0.00000853,-0.00000359,0.00001047,0.00000069,0.00000486,-0.00003588,
 -0.00002841,-0.00003982,0.00002315,-0.00008308,0.00003085,-0.00002911,
 -0.00004948,-0.00003736,0.00002244,0.00000133,-0.00002593,0.00003356,0
 .00002570,-0.00002420,-0.00002231,-0.00001968,0.00000949,-0.00000140,0
 .00000370,-0.00000411,-0.00001100,0.00004238,-0.00000027,0.00082695,-0
 .00063715,0.00004734,0.00153105,0.00067635,0.00022412,0.00008288,0.000
 03503,-0.00001227,-0.00042142,-0.00039925,-0.00050895,-0.01511959,0.00
 440133,-0.00337241,-0.00453198,0.00152727,-0.00109885,-0.00028355,0.00
 005692,-0.00005178,0.00003106,-0.00003446,-0.00000775,-0.00003659,0.00
 005798,0.00010054,0.00010754,0.00008322,0.00003105,0.00015811,-0.00054
 224,-0.00034110,-0.27823550,0.06006474,-0.04310821,0.00135947,0.000052
 49,0.00037529,-0.00102916,-0.00095572,0.00109908,0.00053663,0.00052276
 ,-0.00002277,0.00049499,0.00007671,0.00068490,0.00042109,-0.00010150,0
 .00010163,0.30101338,0.00003641,-0.00005655,0.00002684,-0.00001240,0.0
 0005362,-0.00000274,0.00005731,-0.00005245,0.00005411,-0.00004125,-0.0
 0000765,-0.00003021,-0.00000325,0.00001062,-0.00000549,0.00000047,0.00
 000862,0.00000227,0.00006647,-0.00000017,-0.00000510,-0.00006185,0.000
 03210,-0.00008032,0.00000249,0.00000360,-0.00000043,0.00000108,0.00000
 083,-0.00000076,-0.00011127,0.00000716,0.00002303,0.00004521,-0.000041
 93,0.00001857,0.00000838,0.00000076,-0.00000668,-0.00003394,0.00000845
 ,-0.00000348,0.00003588,0.00002033,0.00001826,-0.00006012,0.00006380,-
 0.00004984,-0.00012946,-0.00003003,-0.00001363,0.00009276,0.00001911,-
 0.00006396,0.00007843,0.00001146,0.00002086,-0.00001534,-0.00000538,0.
 00000468,-0.00000868,-0.00000574,0.00000091,-0.00000769,0.00002711,-0.
 00001928,-0.00045616,-0.00082480,0.00045594,-0.00035986,-0.00639206,-0
 .00281922,0.00006451,0.00006034,-0.00000233,-0.00002822,0.00004026,-0.
 00019154,-0.01720050,0.00283041,-0.00163170,0.03241546,-0.01101007,0.0
 0480028,0.00197630,-0.00050241,0.00046384,-0.00023184,0.00016662,0.000
 16038,-0.00003200,0.00001505,-0.00000338,-0.00003873,-0.00003525,0.000
 07536,0.00083764,0.00116899,0.00166723,0.05955224,-0.06089175,0.010457
 69,-0.00019037,0.00153111,-0.00010164,-0.00148456,-0.00139722,0.000502
 03,-0.00035132,0.00106901,0.00070093,-0.00058263,0.00022749,-0.0006856
 7,-0.00028957,0.00017099,0.00030914,-0.06444601,0.07142479,0.00001409,
 -0.00000592,0.00001088,-0.00000663,-0.00000181,0.00000322,0.00003556,0
 .00003412,0.00001664,-0.00000139,0.00003314,-0.00001064,0.00000169,-0.
 00002814,0.00001231,-0.00002483,0.00001596,-0.00001334,-0.00007293,-0.
 00002892,-0.00002251,-0.00005250,-0.00003231,-0.00003496,0.00000582,-0
 .00000124,-0.00000290,0.00000410,0.00000074,-0.00000083,0.00000972,0.0
 0001560,-0.00001496,0.00001422,-0.00000285,0.00002176,0.00000240,-0.00
 000044,-0.00000247,-0.00000871,-0.00000044,-0.00000908,0.00001892,-0.0
 0004236,0.00003048,0.00002351,0.00001553,0.00001326,0.00008628,-0.0000
 2345,0.00000692,-0.00003249,-0.00001546,0.00005353,-0.00004511,-0.0000
 1074,-0.00000932,0.00000986,0.00000706,-0.00000299,0.00000077,0.000000
 81,0.00000245,0.00000190,-0.00002341,0.00000191,-0.00054970,0.00037895
 ,-0.00046861,0.00025747,-0.00133276,-0.00015234,0.00011006,0.00005824,
 -0.00002079,0.00032971,0.00026977,0.00038154,0.01839390,-0.00385181,0.
 00154290,0.00622400,-0.00182452,0.00034654,0.00035280,-0.00009267,0.00
 024564,0.00000979,-0.00015037,0.00005750,0.00001872,0.00004820,-0.0000
 8301,-0.00008309,-0.00003250,-0.00004685,0.00142857,-0.00042324,0.0006
 4084,-0.04516400,0.01127171,-0.05396926,0.00037738,-0.00055773,0.00072
 875,0.00117830,0.00082153,-0.00054661,-0.00028878,0.00030546,0.0002487
 7,-0.00030076,-0.00012015,-0.00011689,-0.00010665,0.00010408,0.0000646
 2,0.04763112,-0.01185466,0.06671463,-0.00085977,0.00131477,-0.00085589
 ,-0.00103462,-0.00099466,0.00029593,-0.00031354,0.00016492,-0.00006252
 ,-0.00001770,0.00028158,-0.00031198,-0.00018581,-0.00006780,-0.0001051
 2,-0.00005501,-0.00041760,-0.00001978,0.00034018,0.00068195,0.00015380
 ,-0.00175162,0.00109710,0.00245641,-0.00004755,-0.00001326,-0.00000141
 ,-0.00012291,0.00000748,-0.00005597,0.00151591,-0.00036498,-0.00064817
 ,-0.00165426,0.00049461,-0.00110400,-0.00024030,-0.00003800,-0.0000009
 0,-0.00015384,0.00005339,0.00015987,-0.00042026,0.00028003,0.00006127,
 0.00023005,-0.00082169,0.00027192,-0.02247742,0.01876081,-0.01352361,0
 .00109612,0.00110573,-0.00259363,-0.00024819,0.00009222,-0.00006953,-0
 .00008036,-0.00014345,-0.00001425,0.00014735,0.00016109,-0.00016231,-0
 .00018361,0.00025502,0.00011047,-0.09655172,0.05018704,-0.05503017,0.0
 0901590,-0.00559641,0.00695476,-0.00988264,0.00966525,-0.01414002,-0.1
 1884972,-0.02113513,-0.02655279,-0.12538836,0.03056534,0.02768821,0.00
 155432,0.00302345,-0.00200396,-0.00047339,-0.00054635,0.00071236,-0.00
 065288,-0.00163983,0.00122541,-0.01288801,-0.01047748,-0.01485652,0.01
 328250,0.01062347,0.01138270,-0.02056814,-0.02389044,-0.01520321,-0.02
 074512,0.01076038,0.01981183,-0.01653089,0.01578569,0.01213055,0.01179
 064,-0.00701379,-0.00748554,0.00047719,0.00024461,-0.00041021,-0.00175
 527,-0.00157417,0.00087560,-0.00412480,-0.00235220,0.00135628,-0.00204
 043,-0.00179533,0.00298521,0.42386940,0.00025437,-0.00105007,0.0003635
 8,-0.00034881,0.00081700,0.00033414,0.00113595,-0.00037767,0.00100066,
 -0.00072010,0.00044818,-0.00061350,-0.00019292,-0.00023364,-0.00011045
 ,-0.00037300,0.00001677,-0.00030775,0.00050371,-0.00060047,-0.00026095
 ,-0.00006388,-0.00213972,-0.00206510,-0.00000118,0.00002157,-0.0000092
 6,-0.00003478,-0.00001594,-0.00003918,-0.00031554,-0.00037688,-0.00028
 892,0.00088973,0.00006200,0.00107938,0.00004819,0.00000594,-0.00001553
 ,-0.00010903,-0.00000784,-0.00022314,0.00050705,0.00012000,0.00063068,
 -0.00137616,0.00097713,-0.00092478,0.02010548,-0.01577006,0.01036418,-
 0.00126412,-0.00030573,0.00167602,0.00122747,0.00013938,0.00024351,-0.
 00015822,-0.00007650,-0.00001971,0.00008502,0.00008724,-0.00020701,-0.
 00020922,0.00029733,0.00030386,0.01885966,-0.12039576,0.03169616,0.009
 87406,-0.01995539,0.02525549,-0.00786183,0.01054134,-0.01149329,-0.024
 27415,-0.11975830,-0.02887347,0.06526359,-0.11282498,-0.05545221,0.002
 77382,0.00119032,-0.00249562,-0.00097928,-0.00137426,0.00114960,-0.002
 09760,-0.00405568,0.00181656,0.01025328,0.01222090,0.01019007,-0.01525
 969,-0.01543411,-0.01844993,-0.01909311,-0.01737676,-0.01084251,-0.003
 07094,0.01010859,0.00293352,0.01429633,-0.01433510,-0.01241507,0.01580
 865,-0.01457802,-0.01393888,0.00040552,0.00042318,-0.00026521,-0.00209
 845,-0.00122536,0.00036298,-0.00329172,-0.00136202,0.00169780,-0.00089
 436,-0.00034043,0.00082983,-0.07862880,0.42818480,-0.00025325,0.000456
 16,-0.00048841,-0.00108870,0.00013281,0.00018937,-0.00011335,-0.000428
 92,0.00012271,0.00023809,-0.00013678,0.00025171,0.00009175,0.00017756,
 0.00007898,0.00024495,-0.00015549,0.00013779,0.00041223,0.00007499,-0.
 00094151,0.00142809,-0.00002339,-0.00082524,0.00002363,0.00001987,0.00
 000258,0.00001113,0.00001865,-0.00000304,-0.00087202,-0.00002348,0.000
 48244,0.00100138,-0.00014451,0.00076540,0.00016563,-0.00000006,-0.0000
 2215,0.00003752,-0.00005445,-0.00014894,-0.00001796,0.00007706,-0.0002
 9796,0.00047399,-0.00034639,0.00054522,0.00388333,-0.00689654,0.011190
 02,0.00019077,-0.00092356,0.00081827,-0.00015266,0.00004964,-0.0005209
 5,0.00000586,0.00003835,0.00005534,-0.00021998,-0.00008971,0.00023822,
 0.00008605,-0.00007423,-0.00028283,-0.01950198,0.02842701,-0.12845839,
 -0.00436852,0.01935058,-0.01642958,-0.01756066,0.01606869,-0.02388153,
 -0.06378989,-0.05830128,-0.11869265,0.03039623,-0.02581756,-0.12116148
 ,-0.00279099,-0.00195668,-0.00010172,0.00108386,0.00163151,-0.00145426
 ,0.00180256,0.00296419,-0.00072119,-0.01590449,-0.01622265,-0.01758045
 ,-0.01018930,-0.01022924,-0.01386022,0.00072187,0.00047263,0.00907815,
 0.02104820,-0.01222802,-0.01460202,-0.01293187,0.01076444,0.01160233,0
 .01442378,-0.01604136,-0.01608493,-0.00020788,-0.00037468,0.00059481,0
 .00054612,0.00032966,-0.00023738,0.00061194,0.00064382,-0.00017210,0.0
 0249359,0.00112918,-0.00254438,0.06545199,0.06730693,0.44551779,0.0000
 6645,-0.00030326,0.00007189,0.00005396,0.00005072,0.00000331,-0.000048
 91,-0.00008073,-0.00000310,-0.00004565,-0.00005340,-0.00001094,-0.0000
 1669,0.00003387,-0.00002603,-0.00000821,-0.00002787,-0.00000822,0.0001
 4353,0.00003434,0.00008725,-0.00007179,0.00007864,-0.00003610,-0.00001
 386,0.00000588,0.00000885,-0.00000513,-0.00000343,0.00000989,-0.000120
 62,-0.00000008,0.00002078,0.00006473,-0.00001239,-0.00000354,-0.000011
 53,0.00000836,0.00001061,-0.00000824,0.00001176,0.00002544,-0.00001656
 ,0.00007421,-0.00004796,-0.00026079,0.00019199,-0.00016730,-0.00024130
 ,0.00011241,-0.00008853,0.00014138,-0.00004350,-0.00010832,0.00020208,
 0.00003241,0.00007934,-0.00000830,0.00000662,-0.00000704,-0.00000197,-
 0.00000678,-0.00000741,0.00001790,0.00000149,0.00002991,0.00115646,-0.
 00030411,0.00117690,0.00089120,-0.00011760,0.00127902,-0.00090030,-0.0
 0049067,0.00025479,-0.00025621,-0.00000948,-0.00061326,0.00362310,0.00
 367378,0.01907743,0.00137484,-0.00013332,0.00446949,-0.00029529,0.0000
 1407,-0.00035061,0.00019452,0.00091164,-0.00033257,-0.00009142,-0.0000
 5509,-0.00006705,0.00006564,0.00015547,0.00009597,-0.00036291,0.000914
 27,-0.00004834,-0.08527535,-0.00484348,-0.02426208,-0.00110318,-0.0014
 4336,0.00210325,0.00102107,0.00010144,0.00192488,-0.00029593,-0.000280
 97,-0.00041135,0.00045521,-0.00009829,0.00025462,0.00045755,-0.0000598
 0,0.00040407,-0.00775012,-0.00686601,-0.03194341,-0.00336380,-0.000614
 32,0.00253463,0.55455434,-0.00007450,0.00011179,-0.00006271,-0.0000492
 3,0.00000094,0.00002280,-0.00000265,-0.00005127,-0.00000025,0.00001426
 ,0.00000858,0.00000575,-0.00000495,0.00002079,-0.00001008,0.00004410,-
 0.00001700,0.00002595,0.00009069,0.00003699,-0.00001298,0.00007049,0.0
 0004693,0.00008112,-0.00000252,0.00000536,-0.00000136,-0.00000798,0.00
 000274,0.00000117,0.00000414,0.00003187,0.00003859,-0.00005835,0.00000
 178,-0.00004848,0.00000753,-0.00000186,-0.00000751,0.00000493,-0.00000
 380,-0.00000197,-0.00002160,-0.00001655,-0.00001173,-0.00000438,-0.000
 11149,0.00001166,-0.00002791,-0.00011048,-0.00006912,0.00003302,-0.000
 00477,-0.00001040,0.00003558,0.00001926,-0.00000641,-0.00001757,-0.000
 01551,0.00002039,0.00002856,0.00000348,-0.00001754,0.00001772,0.000074
 98,0.00004301,0.00013119,-0.00036029,0.00040885,-0.00039555,0.00015167
 ,-0.00016974,0.00027371,0.00004251,0.00003624,-0.00071317,-0.00072805,
 -0.00011967,0.00474823,0.00046867,0.01822434,-0.00624962,-0.00460378,-
 0.03326503,-0.00042997,0.00028180,-0.00027748,0.00056542,-0.00046237,-
 0.00082426,0.00011622,0.00007744,-0.00012807,0.00007073,0.00014849,0.0
 0002994,0.00091293,-0.00686603,-0.00079398,-0.00392160,-0.08370438,-0.
 02312269,-0.00179643,-0.00162447,0.00237126,-0.00064698,0.00127594,0.0
 0183997,-0.00061100,0.00059925,0.00049081,-0.00016693,0.00013999,0.000
 21179,-0.00020662,-0.00008803,-0.00220046,0.00134564,0.00175661,0.0077
 5806,-0.00193713,-0.00037922,0.00195301,-0.02350277,0.56290403,0.00004
 022,-0.00007900,0.00003353,0.00000590,0.00001526,0.00000958,-0.0000396
 3,-0.00000168,0.00001710,-0.00003691,-0.00001777,-0.00003041,-0.000020
 67,0.00000521,-0.00001828,-0.00002052,-0.00001048,-0.00001628,0.000076
 11,0.00001655,0.00001150,0.00005424,-0.00003799,0.00003931,-0.00000459
 ,-0.00000018,0.00000332,-0.00000311,-0.00000073,0.00000239,0.00003879,
 -0.00002849,-0.00001381,-0.00002259,0.00004002,-0.00001847,-0.00001207
 ,0.00000374,0.00000395,0.00001402,-0.00000003,0.00000624,-0.00001689,0
 .00001992,0.00001964,-0.00009594,0.00007622,-0.00008031,-0.00012715,0.
 00002134,-0.00003001,0.00002288,0.00000414,-0.00002795,0.00010900,0.00
 000561,0.00003655,-0.00001847,-0.00000525,0.00000507,-0.00000387,-0.00
 000480,-0.00000546,-0.00000226,0.00002665,0.00000823,0.00104828,-0.000
 05040,0.00042597,0.00070665,0.00043613,0.00090603,-0.00028660,-0.00053
 293,-0.00015324,0.00053059,0.00018247,-0.00041022,0.00233112,0.0020608
 9,-0.02352859,-0.00009068,-0.00781808,-0.00875138,-0.00068841,0.000245
 15,-0.00008664,0.00023684,-0.00009219,-0.00048828,-0.00004241,0.000000
 82,0.00003831,-0.00002476,-0.00002139,0.00004769,0.00022739,0.00024021
 ,0.00082744,-0.02619881,-0.02086672,-0.17799960,0.00038771,0.00017782,
 -0.00104135,-0.00195228,-0.00217776,0.00027213,0.00028140,0.00091776,0
 .00023078,-0.00008139,0.00002253,0.00001439,-0.00006312,0.00034605,0.0
 0029158,-0.00285694,-0.00236903,-0.01024960,-0.00179380,0.00043106,-0.
 00071556,0.01107827,0.00493426,0.46657034,-0.00003653,0.00015648,-0.00
 004496,-0.00002749,-0.00001455,0.00000313,0.00005574,0.00002001,0.0000
 1899,0.00006424,-0.00000762,-0.00004714,-0.00000851,-0.00001230,0.0000
 1364,0.00000311,0.00000726,0.00001256,-0.00002616,-0.00000533,-0.00004
 900,0.00011170,-0.00004299,0.00003214,0.00000628,0.00000057,-0.0000060
 6,0.00000014,0.00000154,-0.00000583,0.00005558,0.00004796,0.00001767,-
 0.00005667,0.00001674,-0.00001677,0.00000550,-0.00000499,-0.00000700,0
 .00003061,-0.00001449,-0.00001286,-0.00005589,-0.00005585,0.00000366,0
 .00009715,-0.00011800,0.00009412,0.00017041,-0.00002883,0.00004882,-0.
 00006539,0.00002240,0.00003619,-0.00007382,-0.00000548,-0.00004081,0.0
 0000135,-0.00000793,0.00000313,0.,0.00000915,0.00000411,-0.00000501,0.
 00001054,-0.00001843,-0.00055267,0.00052737,-0.00011491,-0.00058730,0.
 00060983,-0.00000546,0.00013711,0.00038584,0.00038066,-0.00013095,-0.0
 0010687,0.00002785,0.00012649,-0.00089476,0.00042423,-0.00040537,0.000
 65338,-0.00008753,0.00026412,-0.00007257,0.00038506,0.00011543,-0.0000
 6315,0.00076552,0.00003915,0.00000691,0.00002188,0.00003261,0.00001530
 ,-0.00003716,0.00014221,-0.00021782,-0.00007113,-0.00770333,0.00115101
 ,-0.00227398,0.00019775,0.00017199,0.00017278,0.00047487,0.00052816,-0
 .00035045,0.00003549,0.00005352,0.00003081,0.00010231,-0.00000572,0.00
 014992,0.00002949,-0.00005177,-0.00012512,0.00093564,-0.00057553,-0.00
 141290,0.00089564,-0.00002384,-0.00022353,-0.27667808,0.04188931,-0.04
 789833,0.30667881,-0.00003567,0.00002534,-0.00001615,0.00003365,-0.000
 04571,-0.00000705,-0.00007822,0.00004256,-0.00006232,0.00003709,-0.000
 01158,0.00003490,-0.00000522,0.00001398,-0.00000692,0.00000488,-0.0000
 2400,0.00000320,0.,0.00002226,0.00002524,0.00005595,0.00002953,0.00003
 773,-0.00000411,-0.00000173,0.00000401,-0.00000739,-0.00000135,0.00000
 710,0.00007039,-0.00000015,-0.00000465,-0.00004988,0.00000451,0.000001
 66,-0.00000676,-0.00000050,0.00000450,0.00000311,0.00000123,0.00000036
 ,-0.00002751,0.00001330,-0.00003377,0.00001088,-0.00005935,0.00001502,
 0.00001567,-0.00001756,0.00002844,-0.00002609,0.00000614,0.00002649,-0
 .00002499,-0.00001803,0.00002592,0.00000417,0.00000283,-0.00000062,0.0
 0001259,0.00000264,-0.00000752,0.00001382,0.00000409,0.00001254,0.0002
 0186,0.00001627,-0.00017796,0.00025820,-0.00048955,-0.00082561,-0.0000
 6642,0.00013806,-0.00004285,0.00015176,0.00002409,-0.00004005,0.000631
 21,0.00047994,0.00048257,-0.00071673,0.00023289,0.00050512,-0.00009543
 ,0.00001408,0.00013501,0.00049716,-0.00142424,-0.00058066,-0.00000611,
 -0.00000501,0.00002425,-0.00001917,-0.00001820,-0.00000441,0.00011287,
 0.00000808,-0.00007006,-0.00686722,0.00109713,-0.00116700,-0.00008648,
 -0.00010399,-0.00009481,-0.00007776,-0.00037443,0.00014042,-0.00001717
 ,-0.00001805,-0.00005493,0.00005888,-0.00003921,0.00008298,0.00002489,
 -0.00002384,0.00002926,-0.00071216,0.00044756,-0.00108723,-0.00014894,
 -0.00018430,-0.00006379,0.04334016,-0.05469718,0.00847724,-0.04650597,
 0.05817357,-0.00002257,0.00009693,-0.00002385,-0.00003165,-0.00002096,
 0.00002349,0.00001234,0.00000123,0.00000358,0.00001660,-0.00003007,0.0
 0001853,-0.00000216,0.00001801,-0.00001024,0.00002174,-0.00001755,0.00
 001331,0.00000159,0.00001657,-0.00003498,0.00008898,-0.00001259,0.0000
 5057,-0.00000411,-0.00000160,0.00000041,-0.00000321,0.00000049,0.00000
 091,0.00009680,-0.00001866,-0.00003354,-0.00006339,0.00002059,-0.00003
 264,-0.00000962,-0.00000071,0.00000924,-0.00000327,-0.00000115,0.00000
 859,-0.00003702,0.00003206,-0.00003368,0.00005160,-0.00006376,0.000029
 21,0.00030259,-0.00007828,0.00002473,-0.00006224,0.00000982,0.00003399
 ,-0.00002245,0.00001030,-0.00002240,-0.00000437,-0.00000542,0.00000354
 ,0.00000376,0.00000006,-0.00000125,-0.00000117,0.00001074,0.00000123,-
 0.00035445,-0.00035353,-0.00092702,0.00018514,-0.00067173,-0.00012842,
 0.00084874,0.00015401,-0.00040477,-0.00005813,-0.00009804,-0.00002900,
 -0.00137277,-0.00095407,0.00144288,-0.00002375,0.00113582,0.00127210,0
 .00015901,0.00003183,0.00017077,0.00028897,-0.00064590,0.00012307,0.00
 002069,0.00002101,0.00004230,0.00002695,0.00001728,-0.00000777,-0.0000
 2862,0.00000026,-0.00003349,-0.03171422,0.00717050,-0.00887187,0.00009
 963,0.00006647,0.00045448,0.00063481,0.00049089,0.00035774,0.00000870,
 -0.00011839,-0.00009608,0.00021867,-0.00001946,0.00018167,0.00013689,-
 0.00009753,-0.00001486,-0.00122821,-0.00163602,-0.00619877,0.00044185,
 -0.00005005,0.00008410,-0.04735318,0.00847315,-0.05616670,0.05083567,-
 0.01037974,0.06545721,-0.00005450,0.00010959,-0.00003482,0.00000354,-0
 .00006694,-0.00000760,-0.00006527,0.00004283,-0.00005668,0.00005264,-0
 .00000014,0.00004270,0.00000322,0.00000671,-0.00000125,0.00001325,-0.0
 0001500,0.00000865,-0.00000590,0.00002259,0.00001373,0.00007433,0.0000
 1209,0.00003205,-0.00000178,-0.00000172,0.00000209,-0.00000768,-0.0000
 0114,0.00000396,0.00005578,-0.00000748,-0.00000847,-0.00003302,0.00000
 398,-0.00000856,-0.00000434,-0.00000075,0.00000261,0.00001191,-0.00000
 414,0.00000132,-0.00002819,0.00001213,-0.00002135,0.00006635,-0.000108
 79,0.00004787,0.00009090,-0.00002336,0.00002181,-0.00003442,0.00000556
 ,0.00002635,-0.00007390,-0.00001756,0.00000278,0.00000505,-0.00000148,
 0.00000277,0.00001878,0.00000460,-0.00000952,0.00001439,0.00001649,0.0
 0001309,-0.00005770,0.00019635,-0.00024653,-0.00009698,0.00023580,-0.0
 0023242,0.00015328,0.00017105,-0.00007560,0.00008389,-0.00006767,-0.00
 001306,0.00012269,0.00084251,0.00045367,-0.00019245,0.00036955,-0.0014
 2750,0.00012097,-0.00005398,0.00023672,0.00011961,-0.00031233,0.000353
 85,0.00001940,0.00001237,0.00001801,-0.00000522,-0.00001362,-0.0000262
 4,0.00022712,-0.00039106,-0.00001002,0.00066524,-0.00822795,-0.0026256
 2,-0.00002825,-0.00001153,-0.00008709,-0.00042704,-0.00007264,0.000190
 99,0.00000961,0.00018439,0.00017819,-0.00001429,0.00000136,0.00004658,
 0.00000184,-0.00005282,-0.00013512,0.00037034,-0.00035387,0.00044904,-
 0.00009969,-0.00022735,-0.00004677,-0.05429644,0.04091187,0.00655330,-
 0.00601164,0.03034940,0.00508964,0.05692584,0.00008141,-0.00014853,0.0
 0006418,0.00000484,0.00006254,-0.00000150,0.00007579,-0.00001683,0.000
 04956,-0.00004750,0.00001092,-0.00003812,-0.00000111,-0.00003084,0.000
 00726,-0.00004131,0.00002470,-0.00002697,0.00000319,-0.00002953,-0.000
 00890,-0.00007580,-0.00001736,-0.00006234,0.00000158,0.00000066,-0.000
 00160,0.00000752,0.00000014,-0.00000247,-0.00004398,-0.00001752,-0.000
 01177,0.00002991,-0.00000600,0.00001998,0.00000226,0.00000023,-0.00000
 209,-0.00001611,0.00000480,-0.00000428,0.00003457,0.00001259,0.0000342
 6,-0.00009809,0.00013928,-0.00005762,-0.00002675,0.00000860,-0.0000202
 2,0.00002419,-0.00000412,-0.00002337,0.00007412,0.00000338,0.00000322,
 0.00000335,0.00000888,-0.00000925,-0.00002092,-0.00000048,0.00000942,-
 0.00000654,-0.00002691,-0.00001821,-0.00009768,-0.00018657,0.00015408,
 -0.00014423,0.00015024,0.00014206,-0.00002534,-0.00002868,0.00003963,-
 0.00025993,0.00001505,0.00009379,-0.00093828,0.00043637,0.00025580,-0.
 00081057,0.00138538,-0.00133598,-0.00000622,0.00000799,-0.00005476,-0.
 00012907,0.00012654,-0.00007044,0.00001863,0.00003833,-0.00003876,0.00
 006429,0.00004142,0.00003318,0.00011376,-0.00061765,0.00005818,0.00162
 760,-0.00735789,-0.00145484,0.00022721,0.00007947,-0.00017977,0.000558
 08,0.00048446,-0.00027209,0.00004483,0.00014652,0.00013758,-0.00001729
 ,0.00001155,-0.00002236,0.00000683,-0.00000602,-0.00021072,-0.00048477
 ,0.00050951,-0.00010598,0.00043980,0.00030321,0.00010216,0.03976576,-0
 .28973437,-0.03863158,0.00198257,-0.00567699,-0.00063552,-0.04177693,0
 .31632111,0.00004099,-0.00008804,0.00003943,0.00001402,0.00004761,-0.0
 0000169,0.00004724,-0.00001770,0.00003204,-0.00002871,0.00000907,-0.00
 002121,-0.00000047,-0.00000544,0.,-0.00001210,0.00000680,-0.00000667,0
 .00000932,-0.00001649,-0.00001902,-0.00004929,-0.00000102,-0.00002466,
 -0.00000009,0.00000264,-0.00000034,0.00000166,-0.00000016,-0.00000011,
 -0.00002499,0.00000327,0.00001012,0.00000555,-0.00000338,0.00000758,0.
 00000302,-0.00000119,-0.00000375,-0.00000879,0.00000112,-0.00000566,0.
 00001743,0.00000233,0.00002039,-0.00007755,0.00007650,-0.00005270,-0.0
 0002580,0.00001084,-0.00004385,0.00001866,-0.00000442,-0.00001653,0.00
 008118,0.00001539,0.00000878,-0.00000069,0.00000526,-0.00000155,-0.000
 01579,-0.00000652,0.00000690,0.00000053,-0.00001485,-0.00000498,-0.000
 03566,-0.00010451,0.00022344,-0.00049480,0.00039268,-0.00020755,0.0000
 7388,0.00000162,-0.00001262,-0.00039607,-0.00018776,0.00008944,-0.0008
 1527,-0.00153915,0.00114584,-0.00142866,0.00136594,-0.00613531,0.00007
 111,-0.00002026,0.00008341,0.00013592,0.00001920,0.00017073,0.00004452
 ,0.00006078,-0.00004636,0.00005844,0.00006236,0.00000777,0.00030164,-0
 .00203427,-0.00014532,0.00616265,-0.03291799,-0.00889216,-0.00007552,0
 .00003800,-0.00006355,0.00054995,0.00057019,0.00030322,-0.00016018,-0.
 00000626,0.00011931,-0.00005355,0.00005256,0.00003222,-0.00007704,-0.0
 0007351,-0.00073801,-0.00012630,0.00043400,0.00151936,0.00015423,0.000
 36572,0.00035246,0.00600917,-0.03812407,-0.05103075,-0.00094637,0.0065
 2331,0.00043582,-0.00792852,0.04100191,0.06223872,-0.00000515,0.000053
 16,-0.00000325,-0.00000697,-0.00000078,-0.00000224,0.00003178,0.000015
 58,0.00001513,0.00000641,0.00000859,-0.00001341,0.00000357,-0.00000398
 ,0.00000375,-0.00000713,0.00000638,-0.00000265,-0.00004271,-0.00001236
 ,-0.00002207,-0.00001130,-0.00001612,-0.00002089,0.00000479,-0.0000007
 4,-0.00000082,0.00000067,0.00000094,-0.00000295,-0.00003669,0.00000930
 ,0.00001478,0.00002442,-0.00001566,0.00002140,0.00000836,-0.00000056,-
 0.00000455,-0.00000689,-0.00000189,-0.00000795,0.00001810,-0.00001910,
 0.00001873,0.00005867,-0.00002183,0.00002814,0.00009806,-0.00002687,0.
 00007960,-0.00003795,0.00001108,0.00001970,-0.00005654,-0.00001877,-0.
 00000727,0.00000104,0.00000097,0.00000074,0.00000040,-0.00000226,0.000
 00166,-0.00000711,0.00000037,-0.00001291,-0.00059872,-0.00009033,-0.00
 019566,-0.00035713,-0.00035795,-0.00007484,0.00026876,0.00021512,0.000
 04534,-0.00004062,-0.00007423,0.00005994,-0.00010625,-0.00092776,-0.00
 198928,-0.00023448,0.00007096,-0.00048643,0.00009831,0.00000832,0.0000
 2614,-0.00003567,-0.00006814,-0.00000628,0.00003967,0.00004612,-0.0000
 0711,-0.00000095,-0.00003107,-0.00004312,0.00029590,-0.00010906,-0.000
 00153,0.00400242,0.00424502,-0.00036440,0.00019348,0.00043058,-0.00009
 227,0.00014976,0.00007537,0.00009938,0.00049112,-0.00000837,-0.0001197
 8,-0.00004181,0.00004268,-0.00005561,-0.00001278,-0.00002347,-0.000090
 19,0.00082388,0.00043769,-0.00140491,0.00061255,0.00016276,-0.00044437
 ,-0.12095752,-0.03897654,0.04472822,-0.01868341,-0.01856812,0.02180074
 ,0.00291864,0.00239484,-0.00334859,0.53653513,0.00000700,-0.00001138,0
 .00000743,0.00001005,-0.00001511,-0.00000510,-0.00001839,0.00002434,-0
 .00000919,0.00000268,0.00000974,-0.00000685,0.00000316,-0.00000512,0.0
 0000514,-0.00000818,0.00000590,-0.00000230,-0.00002741,-0.00000690,0.0
 0000360,-0.00002745,-0.00000238,-0.00000656,0.00000248,-0.00000068,-0.
 00000032,0.00000280,-0.00000050,-0.00000201,-0.00002205,-0.00000912,0.
 00001004,0.00001648,0.00000952,0.00001775,0.00000153,0.00000204,-0.000
 00210,0.00000791,-0.00000329,-0.00000801,0.00000660,0.00000127,0.00001
 012,0.00001250,0.00000897,0.00000531,-0.00005931,-0.00001980,0.0000116
 7,-0.00002406,0.00001003,0.00001078,-0.00001550,-0.00000453,0.00000413
 ,0.00000341,0.00000342,-0.00000483,-0.00000782,-0.00000151,0.00000432,
 -0.00000124,-0.00001754,-0.00001798,0.00000909,0.00019256,0.00004698,0
 .00000229,-0.00039065,-0.00012282,-0.00018309,-0.00010952,0.00005044,0
 .00005416,0.00014731,0.00028276,-0.00172279,0.00037237,-0.00228673,0.0
 0076096,0.00156939,-0.00060110,0.00008004,-0.00007959,0.00003115,0.000
 52818,0.00006734,-0.00015251,-0.00003565,-0.00001942,0.00004676,0.0000
 0881,-0.00002184,0.00001642,-0.00004266,-0.00039083,0.00003874,0.00527
 587,0.00537572,-0.00163031,0.00034298,0.00031814,-0.00056130,0.0003115
 1,0.00011293,-0.00002096,-0.00049197,-0.00015764,-0.00030157,0.0000586
 2,0.00000873,0.00010519,0.00000275,-0.00006341,-0.00012693,-0.00018525
 ,-0.00023176,-0.00011089,0.00072499,-0.00007587,-0.00013670,-0.0389622
 6,-0.11557311,0.04035095,0.00286948,0.00275830,-0.00376878,-0.02021458
 ,-0.01718106,0.02259371,-0.02492092,0.54419412,0.00001689,0.00003543,0
 .00000797,-0.00000661,-0.00001154,0.00000249,0.00004799,0.00002211,0.0
 0000886,-0.00000444,0.00001199,-0.00000514,0.00000545,-0.00002159,0.00
 000844,-0.00000627,0.00001430,-0.00000327,-0.00006437,-0.00002914,-0.0
 0002823,-0.00003915,-0.00006253,-0.00003789,0.00000219,-0.00000115,-0.
 00000034,0.00000402,0.00000013,-0.00000102,0.00003898,-0.00002082,-0.0
 0002622,-0.00000594,0.00001369,0.00002063,0.00000015,0.00000130,0.0000
 0042,-0.00000153,0.00000099,-0.00001044,0.00001398,0.00001160,0.000025
 74,0.00003688,-0.00000554,0.00003067,0.00011156,-0.00001627,0.00002931
 ,-0.00005511,0.00000956,0.00003119,-0.00003488,-0.00000702,-0.00002193
 ,0.00000413,0.00000339,-0.00000129,-0.00001139,-0.00000072,0.00001020,
 -0.00001336,-0.00002424,-0.00001869,-0.00046130,0.00009801,-0.00040335
 ,-0.00034275,0.00017320,-0.00020014,0.00019178,0.00013715,0.00001697,0
 .00009431,0.00021599,0.00008074,-0.00259700,-0.00193838,-0.00393840,-0
 .00047740,-0.00060099,0.00035425,0.00001765,-0.00000571,0.00014139,0.0
 0007598,-0.00020650,0.00018734,0.00001076,0.00002423,0.00001563,0.0000
 1618,-0.00003946,-0.00001738,0.00021003,0.00066162,0.00019924,0.019977
 25,0.01746891,-0.02438506,0.00069294,0.00058039,-0.00065955,0.00028159
 ,0.00012604,0.00002352,0.00076383,0.00014687,-0.00106051,-0.00003736,0
 .00001218,-0.00000110,0.00000541,-0.00004620,0.00012132,0.00044005,0.0
 0021472,0.00171678,0.00155382,0.00028301,-0.00091938,0.04351011,0.0412
 4350,-0.12616428,-0.00290557,-0.00310423,0.00383019,-0.00206287,-0.001
 24931,0.00177523,0.03398802,0.02994561,0.54093695,0.00000839,-0.000033
 81,0.00001200,0.00000654,0.00001271,-0.00000024,-0.00000303,-0.0000111
 6,0.00000136,-0.00000400,-0.00000952,0.00000147,-0.00000290,0.00000170
 ,-0.00000591,-0.00000071,-0.00000481,-0.00000350,0.00001339,0.00000544
 ,0.00000299,0.00002163,0.00000876,0.00001877,-0.00000295,0.00000054,0.
 00000175,-0.00000138,-0.00000063,0.00000244,0.00000617,-0.00000240,-0.
 00000149,-0.00000790,0.00000800,-0.00001521,-0.00000545,0.00000168,0.0
 0000270,0.00000113,0.00000080,0.00000670,-0.00000832,0.00001057,-0.000
 00777,-0.00003184,0.00002418,-0.00002579,-0.00000063,0.00001283,-0.000
 00821,0.00000729,-0.00000467,-0.00000387,0.00002887,0.00000248,0.00001
 264,-0.00000083,0.00000078,0.00000046,0.00000036,-0.00000118,-0.000002
 21,0.00000215,0.00000297,0.00000300,0.00014048,-0.00001035,0.00005213,
 0.00005744,0.00005109,-0.00002017,-0.00001030,-0.00000860,-0.00000244,
 -0.00002404,-0.00002687,-0.00004944,0.00067833,0.00002682,0.00085054,-
 0.00006699,-0.00035804,-0.00005721,-0.00001955,0.00000397,-0.00000959,
 0.00003789,0.00000760,-0.00000775,0.00000186,-0.00000106,-0.00000815,0
 .00000835,0.00001368,0.00000398,0.00001301,0.00006129,-0.00001010,-0.0
 0238344,-0.00221893,0.00119084,-0.00016785,-0.00015455,0.00017802,-0.0
 0001797,0.00000709,-0.00005754,-0.00006636,0.00016575,-0.00006623,0.00
 000349,-0.00001170,0.00002460,-0.00000026,0.00001542,0.00002722,0.0002
 8851,-0.00018092,0.00032140,-0.00015897,-0.00002949,0.00007498,0.00301
 891,0.00683082,0.01960216,0.00037179,0.00072817,-0.00049798,0.00070034
 ,0.00029604,-0.00072575,-0.05320466,-0.01279153,-0.04091955,0.05454308
 ,-0.00000212,-0.00000178,-0.00000264,0.00000264,0.00000580,-0.00000391
 ,0.00000710,0.00000082,0.00000232,-0.00000406,0.00001141,-0.00000634,-
 0.00000089,-0.00000305,0.00000109,-0.00000074,0.00000107,-0.00000110,0
 .00000923,0.00000112,0.00000342,-0.00001992,0.00000666,-0.00002144,0.0
 0000105,0.00000093,0.00000025,-0.00000136,0.00000039,0.00000067,0.,-0.
 00000533,-0.00001046,0.00000708,-0.00001162,0.00000830,0.00000206,-0.0
 0000003,-0.00000027,-0.00000326,0.00000122,-0.00000413,0.00000887,0.00
 000276,0.00001410,-0.00000143,-0.00000045,-0.00000273,-0.00000035,0.00
 002868,-0.00002431,0.00001807,-0.00000577,-0.00001146,0.00000502,0.000
 00155,0.00000054,-0.00000121,-0.00000101,0.00000182,0.00000145,-0.0000
 0097,-0.00000082,0.00000277,0.00000492,0.00000128,0.00006223,-0.000088
 32,0.00005295,-0.00005883,0.00014672,-0.00001046,0.00001099,0.00002470
 ,0.00000150,-0.00009192,-0.00006031,-0.00016757,0.00039116,0.00037690,
 0.00082164,-0.00043219,-0.00066606,-0.00003077,-0.00003654,0.00001981,
 -0.00001866,-0.00011585,-0.00001157,-0.00005468,0.00003087,0.00002080,
 -0.00002748,0.00002279,0.00002473,-0.00000599,0.00023377,0.00025462,-0
 .00001653,-0.00286998,-0.00222019,0.00177438,-0.00009037,-0.00012272,0
 .00013886,-0.00005147,0.00002140,-0.00003990,0.00044335,0.00047337,-0.
 00008893,-0.00001849,-0.00000442,-0.00002513,-0.00000177,0.00001501,0.
 00005154,-0.00005036,-0.00007700,-0.00027854,-0.00027273,0.00002728,0.
 00019342,0.00405279,0.00499537,0.01896241,0.00023556,0.00039821,-0.000
 66435,0.00077438,0.00073650,-0.00024354,-0.01279900,-0.07020844,-0.077
 31683,0.01585106,0.07411012,0.00002749,-0.00001282,0.00001698,0.000012
 90,-0.00000164,-0.00000689,0.00003951,0.00004186,0.00001509,-0.0000237
 4,0.00003582,-0.00002340,0.00000391,-0.00003474,0.00001341,-0.00003104
 ,0.00001985,-0.00001782,-0.00004446,-0.00001943,0.00000235,-0.00008179
 ,-0.00003400,-0.00006378,0.00000742,-0.00000128,-0.00000215,0.00000328
 ,0.00000144,-0.00000369,-0.00000798,-0.00003387,-0.00003585,0.00003041
 ,-0.00001054,0.00003760,0.00000306,0.00000068,0.00000022,-0.00000862,0
 .00000021,-0.00001209,0.00004049,-0.00000008,0.00006162,0.00002889,0.0
 0003319,0.00001215,-0.00000025,0.00000473,0.00000756,-0.00001063,0.000
 00128,0.00000007,-0.00004955,-0.00001832,-0.00000665,0.00000569,0.0000
 0434,-0.00000500,-0.00000639,-0.00000070,0.00000631,-0.00000176,-0.000
 01534,-0.00001397,-0.00018287,0.00005745,-0.00008247,-0.00005036,-0.00
 004627,-0.00006535,-0.00001713,0.00001495,0.00001876,0.00002736,0.0000
 1367,0.00011225,-0.00074504,-0.00047676,-0.00075974,-0.00008087,0.0004
 1884,0.00034079,0.00003614,-0.00003183,0.00001369,0.00000156,-0.000004
 79,0.00001207,0.00000337,0.00001790,0.00000291,0.00000870,-0.00002725,
 -0.00002571,0.00004546,-0.00002140,0.00002370,0.00354836,0.00293472,-0
 .00073983,0.00017004,0.00015359,-0.00023794,0.00008130,0.00002238,0.00
 002127,0.00000166,0.00005893,0.00007327,0.00000559,0.00001596,0.000023
 12,0.00000298,-0.00003809,-0.00003966,0.00001905,-0.00000498,0.0003081
 2,0.00051476,0.00004783,-0.00038386,-0.00435967,-0.00637909,-0.0180633
 2,0.00040314,-0.00034940,0.00047533,-0.00058127,0.00033202,0.00067877,
 -0.04004000,-0.07588528,-0.28567825,0.04222467,0.08158901,0.31043608,-
 0.00001926,0.00005325,-0.00002523,-0.00002919,-0.00000518,0.00000147,0
 .00000208,-0.00000873,0.00000133,0.00001733,-0.00000238,0.00000204,0.0
 0000148,0.00000838,0.00000416,0.00001369,-0.00000205,0.00001074,0.0000
 0033,-0.00000219,-0.00001422,0.00001829,0.00000698,0.00000570,0.000002
 27,0.00000070,-0.00000252,0.00000196,0.00000189,-0.00000258,0.00000033
 ,0.00001998,0.00001548,-0.00000317,-0.00000536,0.00000210,0.00000773,-
 0.00000469,-0.00000348,0.00000182,-0.00000234,-0.00000258,-0.00000920,
 -0.00001791,-0.00001249,0.00003175,-0.00004617,0.00003398,0.00006010,-
 0.00001315,-0.00001138,-0.00001560,0.00000272,0.00001371,-0.00001278,0
 .00000818,-0.00002275,-0.00000159,-0.00000388,0.00000146,-0.00000128,0
 .00000275,0.00000188,-0.00000196,0.00000466,-0.00000188,-0.00009132,-0
 .00005640,-0.00014206,-0.00000232,0.00002592,-0.00022294,0.00010972,0.
 00007883,0.00000909,-0.00004884,-0.00003452,-0.00001363,0.00022516,-0.
 00039137,0.00008748,-0.00011789,-0.00003197,0.00029138,0.00003008,-0.0
 0000192,0.00006714,0.00009858,-0.00012047,0.00005277,0.00001433,0.0000
 0104,0.00000234,0.00001448,0.00001681,-0.00000836,0.00003161,0.0001302
 3,0.00002327,0.00061199,0.00040589,-0.00128481,-0.00001119,-0.00001705
 ,0.00010367,0.00013629,0.00018104,-0.00008334,-0.00015158,0.00026247,0
 .00009414,0.00002880,-0.00001492,0.00005401,-0.00000488,0.00000372,0.0
 0002332,0.00039509,-0.00001595,0.00110434,0.00026934,0.00004008,-0.000
 03978,-0.01892189,0.00238273,-0.00348742,-0.00091832,-0.00266427,0.002
 58701,0.00050113,-0.00032086,-0.00017760,-0.29398382,0.03447853,-0.055
 10517,-0.00393241,0.00057287,-0.00106012,0.32115731,0.00000046,0.00000
 607,-0.00000031,-0.00000755,0.00000806,0.00000114,0.00001104,-0.000009
 97,0.00001052,-0.00000167,-0.00000425,0.00000094,-0.00000181,-0.000000
 88,-0.00000230,-0.00000154,0.00000051,-0.00000123,0.00000394,0.0000008
 1,-0.00000650,0.00001879,-0.00000821,0.00000282,-0.00000122,-0.0000003
 1,0.00000031,-0.00000090,-0.00000031,0.00000041,-0.00000385,0.00000233
 ,0.00000592,-0.00000438,0.00000429,-0.00000734,-0.00000116,-0.00000024
 ,-0.00000122,-0.00000253,0.00000100,0.00000407,-0.00000114,0.00000032,
 -0.00000129,-0.00000042,-0.00000083,-0.00000028,0.00002872,-0.00000188
 ,0.00000617,0.00000061,0.00000040,0.00000046,0.00000381,0.00000164,-0.
 00000092,-0.00000186,-0.00000205,0.00000169,0.00000113,-0.00000083,-0.
 00000109,-0.00000094,0.00000451,-0.00000096,-0.00013140,-0.00006977,-0
 .00009757,0.00004912,-0.00004788,0.00020446,0.00007881,0.00002922,-0.0
 0001989,0.00000561,0.00001864,0.00003926,0.00004402,-0.00020931,-0.000
 16902,0.00031128,0.00016526,0.00004206,0.00001534,0.00001072,-0.000025
 91,-0.00023051,0.00000595,-0.00000923,-0.00000568,-0.00000489,0.000006
 93,-0.00000575,-0.00000359,0.00001015,-0.00007194,-0.00000191,0.000024
 53,0.00018382,0.00055251,-0.00084576,0.00002457,0.00003743,0.00004804,
 0.00003844,0.00004407,0.00000959,0.00000410,-0.00022038,0.00011123,-0.
 00001279,0.00002103,-0.00003107,0.00000733,0.00000103,0.00000514,0.000
 40696,0.00009848,0.00014364,0.00007415,0.00005440,-0.00008451,-0.01836
 133,0.00238212,-0.00419847,-0.00231988,-0.00129683,0.00266554,0.000157
 91,0.00042550,-0.00079616,0.03512073,-0.05175447,0.00761827,-0.0102816
 2,0.00058066,-0.00164084,-0.03591588,0.05254325,-0.00001180,0.00000415
 ,-0.00001094,0.00000106,-0.00000569,0.00000073,-0.00001570,-0.00000775
 ,-0.00001067,0.00000747,-0.00000536,0.00000397,0.00000081,0.00000933,0
 .00000158,0.00000824,-0.00000531,0.00000704,0.00001082,0.00000534,0.00
 000716,0.00000928,0.00001773,0.00001056,-0.00000022,0.00000021,-0.0000
 0030,-0.00000038,0.00000025,0.00000005,-0.00000122,-0.00000100,0.00000
 018,-0.00000480,-0.00000133,-0.00000041,0.00000223,-0.00000094,-0.0000
 0034,0.00000441,-0.00000075,0.00000012,-0.00001062,0.00000576,-0.00000
 945,-0.00000101,-0.00001300,0.00000187,-0.00005230,0.00000729,-0.00001
 358,0.00001198,-0.00000070,-0.00000706,0.00000600,0.00000578,-0.000001
 29,-0.00000081,-0.00000153,0.00000064,0.00000208,0.00000136,-0.0000010
 7,0.00000105,0.00000133,0.00000665,0.00015179,0.00002322,0.00006205,0.
 00003793,0.00010300,0.00007430,-0.00009477,-0.00006020,-0.00001629,0.0
 0004787,0.00003301,-0.00000049,-0.00000415,0.00034270,0.00012213,0.000
 05371,-0.00003072,-0.00002043,-0.00005342,0.00000786,-0.00002578,-0.00
 005137,0.00008027,-0.00001665,-0.00001298,-0.00001379,0.00000516,-0.00
 001745,-0.00000336,0.00001269,-0.00005511,-0.00006231,-0.00000558,0.00
 119465,-0.00069789,0.00167022,-0.00005152,-0.00006164,-0.00004351,-0.0
 0015767,-0.00009492,-0.00004353,-0.00004415,-0.00015151,0.00005000,-0.
 00001680,-0.00000217,-0.00002632,-0.00001426,0.00001963,0.00000545,-0.
 00059306,0.00023755,-0.00009915,-0.00021218,-0.00004421,0.00011606,0.0
 2148314,-0.00355138,0.00380384,0.00302705,0.00239779,-0.00244112,-0.00
 075714,-0.00036669,0.00056041,-0.05565647,0.00759693,-0.05875775,-0.02
 942081,0.00520192,-0.00563959,0.05838359,-0.01054086,0.06126072,0.0000
 1875,-0.00005054,0.00001701,0.00000544,0.00002292,-0.00000027,0.000011
 11,-0.00001782,0.00001514,-0.00001128,-0.00000056,-0.00000617,-0.00000
 032,-0.00000712,-0.00000100,-0.00000682,0.00000503,-0.00000575,0.00000
 533,-0.00000326,0.00000031,-0.00001039,0.00000223,0.00000129,-0.000001
 51,0.00000031,0.00000077,0.00000039,-0.00000077,0.00000090,-0.00003151
 ,-0.00000356,0.00000169,0.00001094,0.00000397,-0.00000096,-0.00000014,
 0.00000153,0.00000012,-0.00000645,0.00000352,0.00000600,0.00000727,0.0
 0000827,0.00000020,-0.00003408,0.00004102,-0.00002592,-0.00002121,0.00
 000839,0.00001817,0.00001094,-0.00000140,-0.00000927,0.00003028,0.0000
 0472,0.00000759,-0.00000062,0.00000067,-0.00000053,-0.00000411,-0.0000
 0182,0.00000046,0.,-0.00000364,-0.00000254,-0.00008312,-0.00009753,-0.
 00005051,0.00017573,-0.00017743,0.00049359,-0.00001973,-0.00001266,0.0
 0001811,0.00001945,0.00003147,0.00006270,-0.00014929,-0.00000828,-0.00
 018424,0.00055974,0.00046702,0.00020065,-0.00001443,0.00002756,-0.0000
 9518,-0.00038196,0.00004365,-0.00014972,-0.00002083,-0.00001175,0.0000
 0435,-0.00000168,0.00000329,0.00001214,-0.00014941,-0.00000653,0.00000
 886,0.00016685,0.00064555,-0.00057501,0.00002063,0.00001040,-0.0000258
 5,0.00007201,0.00003530,-0.00001580,0.00001973,-0.00016044,0.00002039,
 -0.00001125,0.00001440,-0.00003826,0.00000889,0.00000021,0.00000785,0.
 00003690,0.00004887,0.00007719,0.00004321,0.00009508,-0.00003053,0.003
 90403,-0.02076210,-0.00214609,0.00087049,0.00026773,-0.00094723,-0.001
 73249,-0.00256222,0.00319403,-0.05825753,0.05410654,0.00307894,0.00018
 851,-0.00583594,0.00003867,-0.00548916,0.03077408,0.00286305,0.0602105
 7,0.00004058,-0.00009022,0.00003600,-0.00000337,0.00004314,0.00000266,
 0.00004024,-0.00002066,0.00003596,-0.00002530,-0.00001157,-0.00001702,
 -0.00000238,-0.00000071,-0.00000058,-0.00001253,0.00000922,-0.00000780
 ,0.00000862,-0.00001309,-0.00000472,-0.00002757,-0.00000344,-0.0000181
 9,0.00000090,0.00000019,-0.00000059,0.00000435,0.00000011,-0.00000122,
 -0.00003349,0.00001388,0.00000693,0.00001737,-0.00001206,-0.00000058,0
 .00000038,0.00000127,0.00000064,-0.00001273,0.00000327,0.00000409,0.00
 001198,-0.00000422,0.00000183,-0.00006932,0.00007964,-0.00004349,-0.00
 001382,0.00000872,-0.00002046,0.00002002,-0.00000083,-0.00001577,0.000
 05843,0.00000994,0.00000577,-0.00000071,0.00000368,-0.00000314,-0.0000
 1168,-0.00000249,0.00000517,-0.00000420,-0.00001277,-0.00000405,-0.000
 01541,-0.00017605,0.00006600,-0.00006298,0.00020470,0.00014659,0.00007
 790,0.00002516,-0.00001473,-0.00018156,-0.00004085,-0.00018213,-0.0000
 4256,-0.00003721,0.00001935,-0.00028635,-0.00078542,-0.00021242,-0.000
 06122,0.00004756,-0.00009272,-0.00035720,0.00009571,0.00011771,0.00004
 176,0.00003416,-0.00004585,0.00003153,0.00003971,0.00001320,0.00028887
 ,0.00046665,-0.00002972,-0.00015393,-0.00026149,-0.00083451,-0.0000027
 8,-0.00000139,0.00002116,0.00016019,0.00014018,-0.00003892,0.00059270,
 0.00065159,-0.00078912,-0.00004728,0.00000456,-0.00004565,-0.00000292,
 0.00002015,0.00009056,-0.00002687,-0.00000195,-0.00000464,0.00000193,0
 .00022644,0.00008195,0.00319954,-0.01659483,-0.00090179,-0.00036170,0.
 00063328,-0.00024108,-0.00248146,-0.00042080,0.00251301,0.05368857,-0.
 29872487,-0.01438892,0.00198885,-0.00881858,-0.00069702,0.00095883,-0.
 00338525,-0.00035657,-0.05695364,0.32660811,-0.00001551,0.00003291,-0.
 00001290,-0.00000658,-0.00001608,0.00000299,-0.00002413,-0.00000803,-0
 .00001639,0.00001733,-0.00002272,0.00001964,-0.00000258,0.00001263,-0.
 00000537,0.00001003,-0.00001130,0.00000638,0.00001288,0.00001486,-0.00
 000025,0.00006988,0.00000190,0.00005506,-0.00000318,-0.00000093,0.0000
 0078,-0.00000178,0.00000008,0.00000096,0.00003582,0.00000574,0.0000128
 6,-0.00003746,0.00001936,-0.00003092,-0.00000632,-0.00000140,0.0000016
 8,0.00000986,-0.00000141,0.00001074,-0.00003094,0.00000614,-0.00002749
 ,0.00000624,-0.00002884,0.00000612,-0.00001234,-0.00003612,0.00002196,
 -0.00001487,0.00000171,0.00001419,-0.00000293,0.00000081,0.00000207,-0
 .00000146,-0.00000255,0.00000130,0.00000582,0.00000116,-0.00000343,0.0
 0000073,0.00000713,0.00000724,0.00005783,0.00017791,0.00003283,-0.0000
 3363,-0.00010681,-0.00012059,-0.00002890,-0.00003981,-0.00001734,0.000
 17073,0.00005962,0.00004898,0.00037348,-0.00010237,0.00007696,0.000302
 59,0.00004705,-0.00090235,-0.00000245,-0.00002991,0.00000729,0.0002558
 3,-0.00000789,0.00014353,-0.00002822,-0.00002818,0.00002897,-0.0000406
 0,-0.00001760,0.00002424,-0.00025307,-0.00013723,0.00005069,-0.0007056
 2,0.00033715,0.00107644,-0.00005859,-0.00004440,0.00006415,-0.00012864
 ,-0.00013767,0.00002412,-0.00014021,-0.00059210,-0.00176706,0.00001656
 ,-0.00001383,0.00001264,0.00000434,0.00001015,0.,0.00007033,0.00000879
 ,-0.00005995,-0.00016961,-0.00013691,-0.00004546,-0.00555455,0.0209789
 9,0.00156812,-0.00036569,-0.00086140,0.00079486,0.00253579,0.00241755,
 -0.00238515,0.00355612,-0.01539489,-0.04734310,0.00730970,-0.02971969,
 -0.00075484,-0.00128719,0.00751580,-0.00057269,-0.00579781,0.01584887,
 0.04990831,-0.00012640,0.00113674,-0.00024410,-0.00029676,-0.00071582,
 -0.00021906,-0.00309412,0.00222869,-0.00449576,-0.00041502,-0.00078716
 ,0.00011731,-0.00032675,-0.00022850,-0.00007832,-0.00008214,-0.0000437
 8,-0.00009533,-0.00040928,-0.00001352,0.00006214,-0.00572273,-0.033974
 38,-0.00822457,-0.00006917,-0.00011854,0.00003572,0.00000238,-0.000005
 39,0.00002880,0.00193619,-0.00183493,0.00021801,-0.00178343,0.00143631
 ,-0.00216538,0.00021295,-0.00002490,0.00005215,-0.00189115,-0.00200665
 ,0.00008688,-0.00081341,-0.00085763,-0.00000371,0.00076757,-0.00103681
 ,0.00067123,-0.06934865,-0.01605634,0.01612987,0.00081270,-0.00539383,
 -0.00181685,-0.00065012,-0.00004169,-0.00032408,0.00004241,-0.00002088
 ,0.00001701,0.00001517,0.00004754,0.00002156,0.00005309,0.00002222,-0.
 00003029,0.00782192,0.02243092,0.00558383,-0.00041667,-0.00180603,0.00
 163538,-0.00278879,0.00187242,0.00176414,0.00036623,-0.00070340,-0.002
 54348,-0.00019217,-0.00002687,-0.00028661,0.00057787,0.00102734,-0.000
 14760,-0.00354777,0.00318651,0.00334731,-0.00010195,0.00091382,0.00048
 914,-0.00041156,0.00056660,0.00036034,-0.00124883,0.00074654,0.0008202
 4,0.00025037,0.00003451,-0.00005691,-0.00024392,0.00002620,0.00000927,
 -0.00019256,0.00002241,-0.00001746,-0.00000716,0.00002578,0.00012793,0
 .00017659,-0.00008403,0.00014467,-0.00014848,0.00007287,0.00005644,0.0
 0036180,0.00002534,0.00001326,-0.00005791,0.00013375,0.00000438,-0.000
 84254,0.00115265,0.00116768,-0.00001194,0.00002944,-0.00004798,-0.0000
 5364,-0.00003958,-0.00007568,-0.00005285,0.00007076,0.00003881,0.00001
 227,0.00001955,0.00000152,-0.00001735,0.00001908,0.00006751,-0.0000121
 5,-0.00000855,-0.00000493,0.00003032,0.00001572,-0.00007450,0.20103652
 ,-0.00035064,0.00099740,-0.00065893,0.00048432,-0.00008760,-0.00000222
 ,-0.00315637,0.00126890,-0.00290552,0.00059430,-0.00201956,0.00098396,
 -0.00065427,0.00009333,-0.00052492,0.00000249,-0.00009508,0.00004482,-
 0.00047733,0.00063589,-0.00005372,-0.00975512,-0.02577706,-0.01078401,
 -0.00009007,-0.00012219,-0.00004010,-0.00007779,0.00001672,-0.00000126
 ,-0.00067699,0.00163169,0.00057518,0.00107960,-0.00170353,0.00306442,-
 0.00005666,-0.00019452,-0.00026714,-0.00003052,0.00160613,-0.00109007,
 0.00002057,0.00097913,-0.00016030,0.00034506,-0.00079762,0.00035811,-0
 .04178335,-0.22680093,-0.00180250,-0.00623717,-0.03705472,-0.00999801,
 -0.00014315,0.00007943,-0.00014608,-0.00001597,-0.00005932,-0.00000432
 ,0.00007149,0.00009854,-0.00006531,-0.00003109,0.00005828,0.00007846,-
 0.00080761,-0.01931668,-0.01045720,-0.00131663,-0.00244447,0.00110104,
 0.00257285,-0.00110479,-0.00053344,-0.00052643,-0.00111616,-0.00030053
 ,0.00039995,0.00053408,0.00103077,0.00000083,0.00057097,0.00004759,0.0
 0039483,0.00121224,-0.00000583,-0.00002641,0.00020420,0.00002995,0.000
 16728,0.00009216,0.00009496,0.00049084,-0.00075999,0.00041443,0.000043
 28,-0.00014604,-0.00016887,-0.00010904,-0.00023327,0.00001435,0.000405
 40,-0.00021921,-0.00002597,-0.00007218,0.00021680,0.00010194,0.0002313
 9,0.00000488,0.00002519,0.00005026,0.00010846,0.00004717,0.00029391,0.
 00028269,-0.00002367,0.00014264,0.00007500,-0.00008447,0.00287643,-0.0
 0125934,-0.00168414,-0.00008321,0.00017783,-0.00007741,0.00014472,-0.0
 0005622,0.00010852,0.00003523,0.00001803,0.00002720,0.00002180,-0.0001
 0096,-0.00000467,0.00000591,0.00001293,-0.00004841,0.00004204,0.000019
 86,-0.00001456,-0.00001285,0.00005898,0.00000968,0.00549052,0.36570666
 ,-0.00001430,0.00016772,0.00004454,-0.00024577,0.00046319,0.00003662,-
 0.00403443,0.00152181,-0.00229210,0.00012599,-0.00111470,0.00034721,-0
 .00025646,-0.00013683,-0.00020968,-0.00004487,0.00000801,-0.00003587,0
 .00027459,-0.00022290,-0.00020228,-0.00698810,-0.02750358,-0.00264580,
 -0.00001876,-0.00011490,-0.00002344,0.00002920,-0.00000131,0.00000968,
 0.00085803,-0.00165899,-0.00008084,-0.00105424,0.00086563,-0.00078515,
 0.00002650,-0.00001774,0.00004499,-0.00061412,-0.00157321,-0.00088326,
 -0.00054083,-0.00008260,-0.00015550,0.00031531,-0.00047488,0.00030428,
 0.00490708,-0.04247523,-0.08739688,0.00464306,0.02172449,0.01172774,-0
 .00020926,-0.00002043,-0.00027810,0.00002179,-0.00000720,0.00002394,-0
 .00001660,0.00000255,0.00004720,0.00001041,0.00002342,-0.00000256,-0.0
 0151313,-0.02197336,-0.00869378,0.00140211,-0.00108626,-0.00008041,0.0
 0347858,-0.00210940,-0.00135396,0.00037537,-0.00138301,-0.00256092,0.0
 0049621,-0.00054800,0.00073083,-0.00091194,-0.00071530,-0.00049948,0.0
 0233285,-0.00187979,-0.00237637,-0.00000933,-0.00014910,-0.00003529,-0
 .00025039,0.00046217,0.00044855,-0.00087283,0.00074831,0.00096512,0.00
 011718,0.00017098,0.00000446,0.00013703,-0.00010453,0.00021695,0.00032
 057,-0.00022759,-0.00003588,0.00002983,0.00024734,0.00023858,0.0000375
 4,0.00001556,0.00008993,-0.00006492,-0.00001798,0.00019815,0.00024530,
 0.00012308,-0.00001813,0.00008724,-0.00014855,-0.00000169,0.00051434,-
 0.00065379,-0.00008680,-0.00021556,0.00006491,-0.00009761,0.00017548,-
 0.00000955,0.00013236,0.00005639,-0.00001720,0.00002073,0.00005706,-0.
 00002716,0.00007854,-0.00000826,0.00000008,-0.00000112,0.00004931,0.00
 000344,-0.00001815,-0.00004974,0.00000619,0.00002498,-0.22135362,0.142
 30102,0.48001459,0.00003450,-0.00024262,-0.00001525,0.00007931,0.00018
 898,-0.00002048,-0.00071725,-0.00027535,-0.00001385,0.00002882,-0.0003
 0638,0.00010772,-0.00009754,-0.00000032,-0.00010927,-0.00001417,0.0000
 2784,0.00000625,0.00002758,0.00008565,0.00004279,0.00034979,-0.0027566
 9,-0.00098254,0.00000127,-0.00001655,-0.00001173,-0.00001404,-0.000000
 24,-0.00000093,-0.00059460,0.00002423,0.00003987,-0.00019513,-0.000264
 49,0.00025020,0.00000178,-0.00000678,-0.00005214,0.00033735,0.00017299
 ,-0.00066937,0.00005612,0.00029546,-0.00000488,-0.00017702,0.00018431,
 -0.00014306,-0.00093153,-0.00580203,-0.00722959,0.00072106,-0.00121649
 ,-0.00028228,0.00013713,0.00001937,0.00008521,-0.00000643,0.00000394,-
 0.00000701,0.00000823,-0.00000701,-0.00001542,-0.00001205,-0.00000370,
 0.00001144,-0.00013957,0.00094838,0.00107666,-0.00030743,0.00026744,0.
 00021839,-0.00012260,0.00020430,0.00003988,-0.00044488,0.00059961,0.00
 082064,-0.00016462,0.00009299,-0.00014223,0.00023404,0.00015778,0.0002
 7613,0.00020032,0.00063675,0.00013053,-0.00006969,0.00014968,0.0000805
 6,0.00012477,-0.00015479,-0.00012908,-0.00015607,0.00013321,-0.0004487
 7,-0.00001795,-0.00007134,0.00003422,-0.00015092,-0.00001944,-0.000053
 83,-0.00004568,0.00005760,0.00000381,0.00001272,-0.00008321,-0.0000971
 5,-0.00003438,0.00000863,-0.00005399,0.00005649,-0.00001440,-0.0001045
 7,-0.00009811,-0.00007673,0.00001844,-0.00001032,0.00005637,0.00000347
 ,0.00005817,-0.00003582,-0.00025107,0.00004980,-0.00001005,0.00001524,
 -0.00003634,-0.00000266,-0.00002239,-0.00000856,-0.00000227,-0.0000060
 3,-0.00001547,-0.00000358,-0.00001369,0.00000387,0.00000165,-0.0000120
 3,-0.00001080,0.00000497,0.00000779,0.00001232,0.00000310,0.00000455,-
 0.11897649,0.05007638,0.21839064,0.12111845,0.00000466,-0.00027496,0.0
 0008774,-0.00005123,0.00028928,0.00004146,-0.00023883,-0.00023297,0.00
 012360,0.00000086,-0.00003510,-0.00001308,0.00000739,-0.00000208,-0.00
 000150,0.00002192,0.00003436,0.00000271,0.00014472,-0.00014219,-0.0000
 9784,-0.00040440,-0.00092232,-0.00046240,0.00001025,0.00000047,-0.0000
 0224,0.00000958,-0.00000314,-0.00000021,-0.00020563,-0.00000759,-0.000
 19110,0.00070544,0.00029497,0.00006520,0.00004228,0.00002491,0.0000323
 9,-0.00018438,0.00024417,0.00033725,0.00012347,-0.00007459,0.00008117,
 -0.00005176,0.00014109,-0.00005309,0.02076184,-0.01600376,-0.03795452,
 0.00098277,0.00094725,0.00087604,0.00003175,-0.00002608,-0.00001925,0.
 00000151,0.00001455,0.00000799,-0.00001478,-0.00000152,0.00001717,-0.0
 0000046,-0.00001136,-0.00001078,-0.00272687,-0.00561426,-0.00167961,-0
 .00128713,-0.00023029,0.00048965,0.00115298,-0.00062346,-0.00051726,0.
 00019259,-0.00037689,-0.00031786,0.00016494,-0.00020311,0.00024557,0.0
 0008433,0.00015692,0.00015116,0.00031721,0.00057059,0.00010098,-0.0000
 0900,0.00003323,0.00005529,-0.00004303,0.00008842,0.00006818,0.0002005
 0,0.00018912,0.00024973,-0.00004274,0.00018798,0.00006080,-0.00017449,
 0.00002075,-0.00006399,0.00008198,-0.00003249,-0.00001219,0.00000077,0
 .00009389,0.00005621,-0.00002090,-0.00001213,0.00003026,-0.00004850,-0
 .00000937,0.00000901,-0.00000305,-0.00003509,0.00002485,-0.00002636,0.
 00005935,0.00001755,0.00016818,-0.00024175,-0.00001833,-0.00003563,0.0
 0000529,-0.00004272,0.00001203,-0.00001634,0.00002362,0.00000124,0.000
 00638,0.00000980,0.00002166,-0.00000816,0.00001797,-0.00000200,0.00000
 616,0.00001507,-0.00000186,0.00000634,-0.00001009,0.00000283,0.0000073
 3,-0.00001179,0.02332553,-0.05518411,-0.06234643,-0.04312503,0.0768276
 3,0.00004194,-0.00042900,0.00008903,0.00010396,0.00038252,-0.00002490,
 0.00013293,-0.00038544,0.00035324,-0.00002771,-0.00011539,0.00005380,0
 .00000151,0.00008628,-0.00004020,0.00001789,0.00004071,0.00002373,0.00
 005091,-0.00005578,0.00006115,0.00005632,0.00012527,-0.00065175,0.0000
 1226,0.00000899,-0.00001019,-0.00000028,-0.00000349,-0.00000305,-0.000
 68316,0.00022694,0.00005568,0.00007771,-0.00061330,0.00014188,0.000044
 26,0.00002173,0.00000627,-0.00014946,0.00014863,-0.00095559,0.00022759
 ,0.00014939,0.00000418,-0.00023686,0.00035531,-0.00023094,0.00274428,0
 .00498277,-0.00615356,-0.00026504,0.00194790,0.00299115,0.00015464,0.0
 0001833,0.00015271,-0.00000926,0.00001519,-0.00000893,-0.00000551,-0.0
 0001939,-0.00001031,-0.00000407,-0.00001577,-0.00001117,0.00010517,0.0
 0062821,0.00112923,0.00001198,0.00039034,0.00035349,-0.00014358,0.0001
 3511,0.00018318,-0.00011321,0.00042652,0.00030047,-0.00004205,-0.00005
 309,-0.00009449,-0.00000370,-0.00025875,0.00004787,0.00000335,-0.00035
 157,-0.00021562,-0.00005002,0.00000885,0.00002888,-0.00004078,-0.00000
 730,-0.00003901,0.00004128,-0.00005111,0.00003934,0.00000252,-0.000106
 01,-0.00007352,0.00008398,0.00001601,0.00001567,-0.00004589,0.00005229
 ,0.00000387,-0.00000933,-0.00001761,-0.00003831,-0.00005668,0.00001258
 ,-0.00003259,0.00001548,0.00000950,-0.00003371,-0.00003474,-0.00004949
 ,0.00002410,-0.00001751,-0.00001594,0.00000055,-0.00020507,-0.00009610
 ,-0.00020571,0.00002579,-0.00002752,0.00001681,-0.00002578,0.00000491,
 -0.00001895,-0.00000768,-0.00000083,-0.00000698,-0.00000984,0.00000469
 ,-0.00000752,0.00000280,-0.00000250,-0.00000075,-0.00001151,0.00000060
 ,0.00000091,0.00000289,-0.00000155,0.00000408,0.20882365,-0.10802889,-
 0.38506168,-0.21055305,0.10050807,0.38799656,-0.00148409,0.00678558,-0
 .00187406,-0.00118790,-0.00605835,-0.00009667,-0.00475453,0.00157906,-
 0.00437703,0.00587434,-0.00727908,0.00588482,0.00067599,0.00391563,0.0
 0026115,0.00368355,-0.00032800,0.00270439,-0.00049257,0.00025525,-0.00
 013732,-0.00290433,-0.00407681,-0.00015573,-0.00018025,-0.00039274,-0.
 00047835,-0.00007385,-0.00009440,-0.00007379,0.02521091,-0.01234270,-0
 .02128650,-0.02128524,0.00417170,-0.00277605,-0.00175895,0.00051666,0.
 00243397,-0.00013352,-0.00056814,0.00043054,-0.00287207,0.01985569,0.0
 0670163,0.00315756,-0.00607634,0.00328447,-0.00039435,0.00001181,-0.00
 082702,-0.00018174,-0.00007777,-0.00038993,-0.00206479,0.00013336,-0.0
 0162951,0.00006385,-0.00007751,0.00004738,0.00015070,0.00016629,0.0001
 1884,0.00019306,0.00011593,0.00012667,-0.00039152,0.00025317,0.0000471
 8,0.00009494,-0.00007381,0.00004445,0.00012409,-0.00020147,-0.00002268
 ,-0.00014762,-0.00000317,-0.00027318,-0.00019556,0.00025597,-0.0000077
 6,-0.00014494,0.00025982,-0.00014716,-0.00008068,0.00005163,0.00004487
 ,-0.00002295,0.00001374,-0.00001135,0.00009930,-0.00007051,0.00000459,
 0.00000082,-0.00003462,-0.00005672,0.00005568,-0.00001641,0.00021506,0
 .00001394,-0.00018989,0.00010872,0.00011247,-0.00003632,0.00002022,0.0
 0003389,0.00000407,0.00011128,0.00014312,0.00001455,-0.00002377,0.0000
 8475,-0.00003956,-0.00001635,-0.00000507,0.00007168,-0.00004888,0.0001
 2184,0.00000844,-0.00001749,0.00023571,-0.00036440,0.00042376,-0.00007
 276,0.00010519,-0.00002985,0.00009086,-0.00000354,0.00000745,0.0000041
 5,-0.00004773,-0.00000281,0.00000017,-0.00000435,-0.00002908,-0.000014
 80,-0.00001518,-0.00009063,0.00007155,0.00000650,0.00000836,-0.0000136
 9,0.00000427,0.00003213,0.00081744,0.00056071,0.00038438,-0.00036632,-
 0.00030683,-0.00043681,0.37192303,-0.00071011,-0.00204202,-0.00043577,
 -0.00071351,0.00250923,-0.00061651,-0.00150017,-0.00575562,0.00091121,
 -0.00013248,0.00122225,-0.00164167,-0.00018656,-0.00042525,0.00094824,
 0.00051854,-0.00092444,0.00047512,0.00028563,0.00005900,0.00003090,0.0
 0018824,0.00906844,-0.00154884,0.00004893,-0.00003144,-0.00030022,0.00
 002276,-0.00004808,-0.00005959,-0.01985655,0.00534256,0.02114190,0.011
 68857,-0.00437424,0.00263010,-0.00058805,0.00140563,0.00083266,-0.0003
 8294,-0.00000504,0.00035569,0.00432205,-0.02257663,-0.01871631,-0.0002
 9340,0.00023981,-0.00023833,0.00053676,-0.00018864,-0.00027191,0.00025
 532,-0.00007735,0.00028845,0.00033260,0.00000431,0.00010959,0.00000422
 ,0.00000871,0.00001259,0.00000864,-0.00000516,0.00000300,-0.00003984,0
 .00001884,0.00000912,0.00004766,0.00046017,0.00025006,0.00002020,-0.00
 007184,0.00001054,-0.00011293,-0.00000649,0.00000347,0.00005393,0.0000
 0751,-0.00005847,0.00007061,0.00013862,0.00008479,-0.00006886,0.000041
 91,-0.00000801,-0.00005979,-0.00002845,-0.00002380,-0.00002089,0.00005
 064,0.00001324,0.00004639,-0.00002134,0.00003248,-0.00001644,0.0000200
 2,-0.00003473,-0.00000920,-0.00001269,0.00004096,0.00002457,-0.0000551
 1,0.00002216,0.00004684,-0.00005786,-0.00000126,-0.00003728,-0.0000399
 3,-0.00004125,0.00002430,-0.00001167,0.00001146,0.00002407,-0.00001804
 ,0.00001995,-0.00002969,0.00000244,-0.00000521,0.00002092,-0.00002449,
 0.00000022,0.00002733,-0.00036997,0.00009113,-0.00001030,0.00000470,-0
 .00005827,0.00001277,0.00001410,0.00000759,0.00002290,-0.00004008,-0.0
 0000265,-0.00001257,0.00000406,0.00000161,-0.00000481,0.00000464,-0.00
 001452,0.00001726,-0.00001366,0.00000717,-0.00000963,-0.00001600,0.000
 00600,0.00026695,-0.00032548,0.00034851,0.00014915,0.00023209,-0.00031
 191,0.07809128,0.63818693,0.00069378,-0.00689281,0.00147389,0.00088011
 ,0.00751007,-0.00079555,0.00495765,-0.00147881,0.00472712,-0.00735361,
 0.00797140,-0.00574182,-0.00046833,-0.00452500,0.00025939,-0.00382699,
 0.00014129,-0.00273559,0.00018560,-0.00001613,0.00011519,0.00131714,0.
 00667142,-0.00160459,0.00004698,-0.00006631,0.00013974,0.00008641,0.00
 005267,0.00010775,-0.03845904,0.02654339,0.02635268,0.01786679,-0.0010
 2141,0.00620875,0.00996971,-0.00101435,-0.01112878,0.00039975,-0.00032
 789,0.00010818,0.00048722,-0.03494486,-0.01030381,-0.00307869,0.005608
 02,-0.00317343,-0.00051727,0.00112480,0.00071784,-0.00050655,0.0002579
 0,0.00009150,0.00205144,0.00003472,0.00179116,-0.00008338,0.00003603,-
 0.00005674,-0.00009050,-0.00016503,-0.00015973,-0.00018649,-0.00009832
 ,-0.00009363,-0.00005094,0.00001018,-0.00010416,0.00004391,-0.00011522
 ,0.00014918,0.00012672,0.00002773,-0.00004827,-0.00005968,0.00009458,0
 .00035592,0.00007595,0.00000435,0.00016347,0.00006743,-0.00016107,0.00
 003877,-0.00004055,-0.00010767,0.00002440,0.00004553,-0.00001489,-0.00
 007979,-0.00005028,0.00003229,0.00000779,0.00004091,-0.00004671,-0.000
 03442,-0.00008372,-0.00004523,-0.00019940,-0.00004974,0.00017391,-0.00
 005938,-0.00004226,0.00001865,-0.00001741,-0.00004813,-0.00004425,-0.0
 0013825,-0.00003793,-0.00000148,0.00000690,-0.00001081,-0.00000456,0.0
 0000584,-0.00003259,-0.00005562,0.00001927,-0.00004701,-0.00003763,0.0
 0000259,0.00019977,0.00008447,-0.00068813,0.00004282,-0.00005962,0.000
 03282,-0.00004574,0.00002860,0.00003552,0.00001668,-0.00000100,-0.0000
 2053,-0.00000918,-0.00000451,0.00002425,0.00001107,-0.00000487,0.00002
 035,-0.00004569,0.00000357,-0.00000306,0.00000619,-0.00001778,0.000008
 09,0.00016112,-0.00155239,-0.00075551,-0.00096663,0.00012188,0.0002094
 5,0.16462893,-0.06287910,0.34487358,0.00188027,-0.00164024,0.00159674,
 0.00097137,0.00056055,0.00053853,0.00228507,0.00214189,0.00189156,-0.0
 0297541,0.00548558,-0.00409024,-0.00087339,-0.00318346,-0.00051097,-0.
 00206218,0.00132302,-0.00165217,0.00014762,-0.00010611,-0.00001786,0.0
 0036016,-0.00368366,0.00166315,0.00006184,0.00017662,0.00026287,-0.000
 04210,0.00005951,0.00001915,-0.00671042,-0.00597097,-0.00445471,-0.003
 68650,0.00350639,0.00152598,-0.00081471,-0.00052380,0.00138920,0.00054
 261,0.00004424,-0.00041419,0.00289821,-0.00298306,0.00375782,-0.001417
 13,0.00249395,-0.00137020,0.00060409,0.00097964,0.00014573,-0.00023012
 ,-0.00015666,-0.00018134,0.00078011,-0.00010739,0.00061293,-0.00004881
 ,0.00005072,-0.00003780,-0.00009826,-0.00007997,-0.00005448,-0.0000891
 6,-0.00007637,-0.00007075,0.00039142,-0.00063330,-0.00035569,-0.000100
 36,0.00021236,-0.00003446,0.00006923,0.00001018,-0.00009954,0.00013219
 ,0.00008459,0.00017723,0.00011118,-0.00021445,-0.00014559,0.00009846,-
 0.00017093,0.00010963,0.00006197,-0.00000918,-0.00003362,0.00000817,-0
 .00002755,0.00001600,-0.00007707,0.00003790,-0.00002618,0.00002784,0.0
 0002851,0.00008595,-0.00000855,0.00004176,-0.00008220,0.00000779,0.000
 08614,-0.00006606,-0.00008395,0.00005906,-0.00000996,0.00001421,-0.000
 00113,-0.00003313,-0.00011470,-0.00000293,0.00001073,-0.00006912,0.000
 03153,-0.00000088,0.00001941,-0.00004330,0.00002690,-0.00008302,0.0000
 1560,0.00001760,-0.00053666,0.00020822,-0.00006095,0.00004386,-0.00007
 039,0.00001963,-0.00004442,-0.00000776,-0.00003510,-0.00001254,0.00004
 074,0.00000707,0.00001057,0.00001479,0.00001016,0.00000638,0.00000717,
 0.00005621,-0.00004521,-0.00000118,-0.00000863,0.00001141,0.00000421,-
 0.00002569,-0.00080995,-0.00060282,-0.00048957,0.00012924,0.00022498,0
 .00034939,-0.26348053,-0.12451071,-0.09343279,0.31199383,0.00066898,-0
 .00007598,0.00053632,0.00028036,-0.00015363,0.00019697,0.00136133,0.00
 141263,0.00042868,-0.00120787,0.00207023,-0.00136377,-0.00011672,-0.00
 102278,-0.00014973,-0.00076359,0.00052296,-0.00064161,0.00000139,-0.00
 005433,0.00002423,-0.00014943,-0.00235280,0.00091103,0.00000832,0.0001
 3481,0.00016098,-0.00001924,0.00003064,0.00001744,0.00165864,-0.003436
 77,-0.00414868,-0.00201414,0.00148412,0.00002622,-0.00014641,-0.000367
 74,0.00014715,0.00033185,0.00005551,-0.00014957,0.00301791,0.00183732,
 0.00191088,-0.00032620,0.00062777,-0.00032498,0.00008264,-0.00001903,0
 .00011801,-0.00000389,0.00002538,-0.00007146,0.00013560,-0.00002466,0.
 00013048,-0.00000778,0.00000542,-0.00000737,-0.00002611,-0.00001570,-0
 .00001908,-0.00001999,-0.00001909,-0.00002105,0.00008354,-0.00017311,-
 0.00008112,-0.00002081,0.00004674,-0.00001904,0.00000282,0.00002615,-0
 .00000289,0.00002192,0.00000270,0.00003247,0.00001640,-0.00008311,-0.0
 0003543,0.00003338,-0.00003805,0.00002037,0.00002680,0.00000281,-0.000
 00196,0.00000712,-0.00001519,0.00000774,-0.00002485,0.00001248,-0.0000
 0919,-0.00000132,0.00000259,0.00002072,-0.00000232,0.00000802,-0.00002
 381,0.00000381,0.00002652,-0.00002044,-0.00002889,0.00002100,-0.000004
 48,0.00000396,0.00000844,-0.00000020,-0.00002806,0.00000014,0.00000087
 ,-0.00002066,0.00001082,-0.00000220,0.00001009,-0.00000314,0.00000711,
 -0.00002233,0.00001035,0.00000569,-0.00006691,0.00013333,-0.00003455,0
 .00000928,-0.00001568,0.00001795,-0.00001402,-0.00000433,-0.00000692,-
 0.00000879,0.00001744,0.00000263,0.00000408,0.00000086,0.00000102,0.00
 000253,0.00000052,0.00001550,-0.00001137,0.00000171,-0.00000309,0.0000
 0378,0.00000575,-0.00000815,-0.00022382,0.00011992,-0.00011367,0.00008
 495,-0.00004505,0.00013955,-0.10303660,-0.12548025,-0.03105364,0.11882
 060,0.10834013,0.00046676,0.00054786,0.00022671,0.00010320,-0.00084675
 ,0.00027354,0.00044228,0.00115322,0.00006219,-0.00008587,0.00095527,-0
 .00040944,-0.00016228,-0.00030119,-0.00001186,-0.00033857,0.00020607,-
 0.00025721,-0.00001447,-0.00003014,-0.00000012,-0.00017288,-0.00138574
 ,0.00027062,0.00006171,0.00010335,0.00004207,-0.00000697,0.00001063,0.
 00000491,0.00583156,-0.00342818,-0.00266180,-0.00065518,-0.00002189,-0
 .00050223,-0.00115766,-0.00018354,0.00119751,-0.00005480,0.00009035,-0
 .00007212,0.00289134,0.00278853,0.00029260,0.00001440,-0.00004513,0.00
 001067,0.00027880,-0.00028664,0.00007743,0.00011859,0.00000935,0.00005
 734,-0.00002342,-0.00001164,-0.00004299,0.00000233,-0.00000346,-0.0000
 0091,-0.00000422,0.00000545,-0.00000006,-0.00000782,0.00000553,-0.0000
 0391,-0.00004273,0.00002541,0.00005326,0.00000156,0.00000142,-0.000024
 39,-0.00002172,0.00001651,0.00001350,0.00000268,-0.00002069,-0.0000214
 2,0.00000972,-0.00004075,-0.00001116,0.00000898,-0.00000920,0.00001509
 ,0.00001808,0.00000729,-0.00000542,-0.00000115,-0.00000469,0.00002415,
 -0.00000078,0.00000202,0.00000076,-0.00001064,0.00001041,0.00000808,0.
 00000181,0.00000132,-0.00001911,0.00000603,0.00001613,-0.00000551,-0.0
 0000563,0.00000398,-0.00000262,0.00000125,0.00001193,0.00000365,-0.000
 01222,-0.00000014,0.00000338,-0.00000585,0.00000515,0.00000538,0.00000
 508,0.00000317,0.00000282,-0.00000500,0.00000535,0.00000382,-0.0000078
 8,0.00007080,0.00002081,-0.00000694,-0.00000371,0.00000465,0.00000223,
 -0.00000394,-0.00000777,-0.00000418,0.00000953,0.00000415,0.00000202,0
 .00000242,0.00000014,-0.00000098,0.00000251,0.00001045,-0.00000124,-0.
 00000128,0.00000073,-0.00000079,0.00000146,-0.00000505,-0.00008208,0.0
 0014969,0.00009399,0.00016479,0.00001407,-0.00000563,-0.07558488,-0.03
 270385,-0.07507571,0.13552456,0.04202735,0.10581297,-0.00004420,-0.000
 47566,0.00005829,0.00005381,0.00020344,0.00014872,-0.00032984,-0.00088
 033,0.00016562,0.00021779,-0.00063584,0.00022169,-0.00000708,0.0002696
 6,-0.00006037,0.00012592,0.00001692,0.00008383,0.00000556,0.00000585,-
 0.00001486,0.00013231,-0.00027813,0.00112090,-0.00000349,0.00008025,0.
 00004377,-0.00000089,0.00000599,-0.00001295,-0.00197806,-0.00316903,0.
 00282631,-0.00045277,0.00027067,0.00255527,-0.00081241,0.00039323,0.00
 092214,0.00009628,0.00013587,-0.00012005,0.00063440,0.00090190,-0.0011
 4206,-0.00014115,0.00032431,-0.00016182,0.00015119,-0.00010937,0.00019
 415,0.00012315,-0.00009900,0.00001050,0.00008607,-0.00001996,0.0000486
 4,0.00000215,0.00001777,0.00000325,-0.00001868,-0.00000790,0.00000910,
 0.00000372,-0.00001933,-0.00000786,0.00011047,-0.00010017,-0.00008583,
 -0.00002692,0.00008139,-0.00003240,-0.00002391,-0.00000648,-0.00001754
 ,0.00006389,0.00001512,0.00002075,0.00003620,-0.00007138,-0.00004958,0
 .00003506,-0.00001773,0.00002343,0.00003424,0.00000498,-0.00001437,-0.
 00000751,0.00000108,0.00000604,-0.00002338,0.00001353,-0.00000722,-0.0
 0001120,0.00000895,0.00003353,0.00000744,0.00001527,0.00000307,0.00000
 575,-0.00000892,-0.00000176,-0.00002190,0.00000443,0.00000033,0.000007
 52,-0.00000783,0.00000516,-0.00002268,-0.00000239,0.00000127,-0.000017
 73,0.00000824,-0.00000428,0.00000666,-0.00000857,0.00000573,-0.0000167
 2,0.00000656,0.00000288,-0.00013110,0.00007576,0.00002005,0.00002383,-
 0.00001160,-0.00000684,-0.00001270,-0.00000565,-0.00001450,-0.00000382
 ,0.00000603,0.00000468,0.00000076,-0.00000099,-0.00000176,0.00000167,0
 .00000210,0.00001175,-0.00000746,-0.00000049,-0.00000179,0.00000318,0.
 00000339,-0.00000667,-0.00019298,0.00018817,-0.00001941,0.00029137,0.0
 0008874,0.00007233,-0.06891214,0.03266353,-0.05768553,-0.02856435,0.01
 874270,-0.05238946,0.09553370,0.00070481,0.00007410,0.00062752,0.00013
 957,0.00006537,-0.00005983,0.00154945,0.00220678,0.00031466,-0.0006728
 1,0.00119960,-0.00055101,-0.00010908,-0.00069032,-0.00026648,-0.000891
 72,0.00053890,-0.00069597,-0.00002545,-0.00004083,0.00003257,0.0003698
 0,-0.00332868,-0.00012300,-0.00005204,-0.00003468,0.00009213,-0.000016
 98,0.00004059,0.00004023,0.00380790,-0.00411187,-0.00118993,-0.0020761
 6,0.00199675,-0.00033186,-0.00022945,0.00007506,0.00007999,0.00017518,
 -0.00007027,-0.00013306,0.00036746,0.00285956,0.00302522,-0.00041918,0
 .00070508,-0.00041406,-0.00032852,0.00033243,0.00017794,-0.00026118,0.
 00005536,-0.00014258,0.00017666,-0.00000048,0.00023030,-0.00001848,0.0
 0000309,-0.00001663,-0.00002494,-0.00003802,-0.00004217,-0.00003290,-0
 .00001834,-0.00002884,0.00003005,-0.00014568,-0.00012754,-0.00001846,0
 .00000359,0.00003382,0.00004899,0.00001895,-0.00002128,-0.00002332,0.0
 0002897,0.00005066,-0.00000461,-0.00000379,-0.00001575,0.00001745,-0.0
 0003678,0.00000312,0.00001008,-0.00000186,0.00001406,0.00001024,-0.000
 01739,-0.00004053,-0.00002443,0.00001216,-0.00000988,0.00002386,-0.000
 01626,0.00001045,-0.00001863,-0.00001039,-0.00002620,-0.00001827,0.000
 02709,-0.00000497,-0.00002055,0.00002435,-0.00000296,0.00000385,0.0000
 0179,-0.00001236,-0.00000904,0.00000336,-0.00000453,-0.00000390,0.0000
 0626,-0.00001048,0.00000690,-0.00000688,0.00000309,-0.00000961,0.00000
 404,-0.00000615,-0.00004555,0.00006226,-0.00008464,0.00001403,-0.00000
 928,0.00002504,-0.00001316,-0.00000027,0.00000584,-0.00000383,0.000009
 34,-0.00000408,-0.00000026,-0.00000200,0.00000067,0.00000331,-0.000004
 65,-0.00000158,-0.00001031,0.00000507,-0.00000181,0.00000463,0.0000046
 2,0.00000208,-0.00009347,-0.00009621,-0.00029399,-0.00020588,-0.000096
 53,0.00014917,0.03292550,-0.17385975,0.12856990,0.01146706,0.02176552,
 -0.00224810,-0.05613855,0.16613218,-0.00208623,0.00050634,-0.00161438,
 -0.00048804,0.00031479,-0.00029069,-0.00191323,-0.00466071,-0.00198490
 ,0.00262060,-0.00285418,0.00186963,0.00068501,0.00189639,0.00020130,0.
 00219490,-0.00100407,0.00164129,0.00007474,-0.00006188,-0.00003772,-0.
 00064649,0.00489915,-0.00014373,-0.00001442,0.00004880,-0.00004705,0.0
 0004193,-0.00005957,-0.00005487,-0.00379441,0.01068878,-0.00685522,0.0
 0320414,-0.00315354,-0.00015174,0.00182099,-0.00085045,-0.00206699,0.0
 0003102,0.00008041,-0.00009164,-0.00216275,-0.00047872,-0.00008262,0.0
 0138584,-0.00213682,0.00130630,0.00011170,-0.00109639,-0.00051946,0.00
 050620,-0.00001085,0.00020101,-0.00072957,-0.00001582,-0.00065871,0.00
 005461,-0.00002768,0.00004244,0.00006391,0.00008515,0.00008075,0.00007
 677,0.00006358,0.00004271,-0.00007032,0.00028765,0.00019254,0.00000431
 ,-0.00006200,-0.00003869,-0.00009910,0.00003789,0.00012923,0.00002200,
 -0.00011459,-0.00018812,-0.00003059,0.00001335,-0.00000164,-0.00004799
 ,0.00008997,-0.00004045,0.00000683,0.00002623,-0.00001754,-0.00001101,
 0.00001399,0.00004792,0.00004939,-0.00002717,0.00002600,-0.00004550,0.
 00003387,-0.00002366,0.00003274,0.00001489,0.00007687,0.00003740,-0.00
 006045,0.00000611,0.00004031,-0.00004170,0.00001217,-0.00000262,0.0000
 2493,0.00004988,0.00003618,-0.00000002,-0.00000234,0.00001269,-0.00001
 787,0.00001752,-0.00000542,0.00004133,-0.00000655,0.00003100,-0.000001
 57,0.00000755,0.00013047,-0.00005689,0.00024106,-0.00005445,0.00003075
 ,-0.00003502,0.00003213,-0.00000516,0.00000773,-0.00000120,-0.00001326
 ,0.00000071,0.00000126,-0.00000690,-0.00000340,-0.00000982,0.00000572,
 -0.00000837,0.00003141,-0.00000605,0.00000267,-0.00001107,0.00000279,-
 0.00000513,0.00015480,0.00070388,0.00069108,0.00060045,-0.00004572,-0.
 00029539,-0.07088781,0.15370036,-0.22497032,-0.03766691,0.00133326,-0.
 03175709,0.10945953,-0.16368744,0.26694810,0.00030251,-0.00019707,0.00
 016609,0.00022488,-0.00014337,0.00015611,0.00066110,0.00127432,0.00028
 659,-0.00056912,0.00024228,-0.00060205,-0.00009091,-0.00022608,-0.0002
 1030,-0.00038601,0.00008541,-0.00027509,0.00002880,-0.00003355,-0.0000
 0481,0.00017387,-0.00137879,0.00021262,0.00001431,0.00001707,0.0000673
 6,-0.00000270,0.00001887,0.00000961,0.00189218,0.00078270,-0.00165381,
 -0.00104434,0.00111134,0.00005243,-0.00009603,0.00004651,0.00061808,-0
 .00029237,-0.00008474,-0.00007634,0.00005584,0.00095462,0.00174554,-0.
 00019556,0.00041177,-0.00017639,-0.00010636,0.00028409,0.00010036,-0.0
 0002551,-0.00000735,0.00003041,0.00013012,-0.00000504,0.00009992,-0.00
 001066,0.00000364,-0.00001159,-0.00001039,-0.00001305,-0.00000424,-0.0
 0000495,-0.00002022,-0.00000352,-0.00002866,-0.00007868,-0.00001433,0.
 00001679,0.00002815,-0.00000139,0.00002227,-0.00000190,-0.00001733,-0.
 00000407,0.00001258,0.00007216,0.00000527,-0.00004080,0.00001044,0.000
 01390,-0.00004219,0.00002252,-0.00000422,-0.00000773,-0.00000771,0.000
 00092,-0.00000037,0.00000911,-0.00001098,0.00000499,-0.00000412,0.0000
 0320,-0.00000006,-0.00000087,0.00000691,0.00000643,-0.00004178,-0.0000
 0493,0.00004342,-0.00001980,-0.00001058,0.00000680,0.00000279,-0.00000
 229,0.00000109,-0.00000880,-0.00001699,-0.00000132,0.00000343,-0.00000
 732,0.00000047,-0.00000134,-0.00000236,-0.00001762,0.00000387,-0.00001
 360,-0.00000517,0.00000417,0.00003664,0.00005507,-0.00008052,0.0000073
 9,-0.00000939,0.00000971,-0.00000823,0.00000355,-0.00000320,-0.0000000
 8,0.00000541,-0.00000132,0.00000393,0.00000469,0.00000596,0.00000184,0
 .00000080,0.00001245,-0.00001139,0.00000025,-0.00000056,0.00000303,-0.
 00000589,-0.00000360,0.00004396,-0.00031545,-0.00012090,-0.00015376,0.
 00013897,-0.00001398,-0.04187718,0.01867849,0.00175504,-0.00842161,-0.
 03645290,-0.01438970,0.00441097,0.01011031,-0.00290369,0.04554163,0.00
 003840,-0.00014340,0.00009603,0.00003413,0.00016596,-0.00002420,0.0001
 6404,0.00023083,0.00002965,-0.00027934,0.00033155,0.00005928,0.0000427
 7,-0.00005985,-0.00007354,-0.00006240,0.00002969,-0.00007956,0.0000091
 1,-0.00000760,-0.00000207,0.00018243,-0.00043544,0.00008263,0.00001279
 ,0.00001171,0.00004046,0.00000297,0.00000330,0.00001450,-0.00080766,0.
 00146048,0.00109712,-0.00003064,0.00025347,0.00022415,0.00022556,-0.00
 000795,-0.00058328,0.00017579,0.00005413,-0.00012201,-0.00051412,-0.00
 079477,-0.00020952,-0.00003210,0.00010101,-0.00004618,-0.00003091,-0.0
 0005530,0.00006234,-0.00000785,0.00001030,0.00000317,-0.00000038,0.000
 00305,0.00000857,-0.00000230,0.00000228,-0.00000063,-0.00000048,-0.000
 00712,0.00000434,0.00000453,-0.00000425,-0.00000012,0.00002769,-0.0000
 3352,-0.00001271,-0.00001176,0.00000066,-0.00000391,0.00000026,-0.0000
 0285,0.00000986,0.00000127,-0.00000616,-0.00001645,-0.00000126,0.00000
 558,-0.00001037,-0.00000060,-0.00000629,0.00000975,0.00000960,0.000002
 83,0.00000227,0.00000567,-0.00000211,0.00000242,-0.00000390,0.00000547
 ,-0.00000185,0.00000200,0.00000052,0.00000821,-0.00000018,-0.00000120,
 -0.00000185,-0.00000644,0.00000302,0.00000441,-0.00000333,0.00000016,-
 0.00000300,0.00000306,0.00000102,0.00000381,-0.00000091,-0.00000031,-0
 .00000058,-0.00000241,0.00000612,-0.00000189,0.00000444,-0.00000170,0.
 00000032,-0.00000218,0.00000237,-0.00000404,-0.00001695,0.00002137,0.0
 0000008,0.00000611,-0.00000158,-0.00000069,-0.00000398,-0.00000107,-0.
 00000090,-0.00000060,0.00000219,-0.00000022,0.00000358,-0.00000044,0.0
 0000055,-0.00000015,-0.00000016,0.00000199,-0.00000214,0.00000131,-0.0
 0000052,0.00000281,0.00000022,-0.00000192,-0.00008294,0.00003115,-0.00
 001289,0.00004296,-0.00000735,0.00002570,-0.00640501,-0.32206011,-0.03
 723384,-0.00446527,-0.00581728,-0.00748574,0.00716165,-0.01538791,0.00
 520242,0.00466693,0.34211031,-0.00031780,0.00024894,-0.00022103,-0.000
 21838,0.00000209,-0.00009059,-0.00086971,-0.00127409,-0.00034664,0.000
 66909,-0.00029183,0.00077020,0.00006616,0.00034616,0.00016049,0.000426
 51,-0.00008816,0.00030836,0.00000249,0.00002184,0.00000279,-0.00008163
 ,0.00128397,-0.00034929,-0.00000642,0.00000286,-0.00004371,0.00000504,
 -0.00002243,-0.00000929,-0.00080148,-0.00182099,0.00166758,0.00129767,
 -0.00082367,0.00013408,-0.00013637,-0.00009557,-0.00045923,0.00017812,
 0.00009934,0.00012960,0.00028111,-0.00031069,-0.00207219,0.00024609,-0
 .00045927,0.00022716,0.00005111,-0.00015327,-0.00007789,0.00001784,0.0
 0001258,0.00001631,-0.00016009,0.00000296,-0.00012514,0.00001202,-0.00
 000323,0.00001181,0.00001189,0.00001215,0.00000789,0.00000700,0.000020
 49,0.00000360,-0.00002589,0.00010106,0.00004278,-0.00000984,-0.0000316
 9,0.00000342,-0.00001760,0.00000315,0.00001836,-0.00000426,-0.00000889
 ,-0.00005464,-0.00001462,0.00003751,-0.00000250,-0.00001889,0.00003916
 ,-0.00002150,-0.00000059,0.00000582,0.00000762,0.00000004,-0.00000152,
 -0.00001693,0.00001106,-0.00000549,0.00000604,-0.00000466,0.00000001,-
 0.00000386,-0.00000682,-0.00000955,0.00003234,0.00000367,-0.00003079,0
 .00001766,0.00001364,-0.00001176,0.00000003,0.00000289,0.00000274,0.00
 001018,0.00001960,0.00000091,-0.00000326,0.00001078,-0.00000284,0.0000
 0149,-0.00000154,0.00001313,-0.00000126,0.00001594,0.00000036,-0.00000
 523,-0.00000020,-0.00004379,0.00005392,-0.00001238,0.00000832,-0.00001
 180,0.00000842,-0.00000158,0.00000520,0.00000003,-0.00000636,-0.000000
 07,-0.00000405,-0.00000441,-0.00000578,0.00000007,-0.00000126,-0.00001
 214,0.00001081,0.00000011,0.00000120,-0.00000073,0.00000581,0.00000347
 ,0.00003826,0.00018131,0.00008097,0.00003363,-0.00005207,-0.00003883,-
 0.00391987,-0.06204418,-0.04913949,-0.00537352,-0.01104072,0.00150595,
 -0.00655440,0.03724711,-0.00227009,0.01520923,0.03892988,0.04994446,0.
 00052200,0.00042529,0.00040734,-0.00021567,-0.00079690,-0.00048468,0.0
 0202381,0.00193730,-0.00139097,-0.01006987,0.00018671,-0.00683632,0.00
 100613,-0.00162481,0.00241507,-0.00086979,0.00010477,-0.00042661,0.000
 02495,0.00011196,-0.00013906,-0.00022114,0.00036874,0.00008767,0.00011
 655,0.00037630,-0.00022236,0.00007047,-0.00005685,-0.00006054,-0.00488
 679,-0.00103786,-0.00374667,0.00261201,-0.00210217,-0.00161591,-0.0002
 8734,0.00110008,0.00188952,0.00027690,0.00008332,-0.00052951,-0.295436
 74,-0.04539504,-0.19023874,0.00001499,-0.00017976,0.00004959,-0.000368
 96,-0.00019413,0.00046265,0.00013210,0.00003821,0.00007118,-0.00002486
 ,-0.00000613,-0.00002463,0.00000092,-0.00000499,0.00000427,-0.00001141
 ,0.00001182,-0.00001143,-0.00001380,0.00000725,-0.00000596,-0.00004351
 ,0.00006834,-0.00006330,0.00002963,-0.00002805,-0.00000782,-0.00002198
 ,0.00004295,0.00002268,-0.00000782,0.00001076,-0.00002676,-0.00000655,
 0.00003352,-0.00000910,-0.00001696,0.00001764,-0.00000423,-0.00000183,
 0.00000127,0.00000006,-0.00000065,0.00000035,0.00001151,0.00001012,-0.
 00000755,0.00000521,-0.00000314,-0.00000508,-0.00000749,-0.00000200,-0
 .00000997,0.00001590,0.00000098,-0.00001438,0.00000339,0.00000997,-0.0
 0000470,0.00000413,-0.00000097,0.00000078,0.00000021,0.00000909,0.0000
 0015,-0.00000029,0.00000778,-0.00000295,0.00000226,-0.00000172,0.00000
 754,-0.00000245,0.00000909,-0.00000078,0.00000185,-0.00001001,-0.00005
 384,0.00004877,-0.00001692,0.00000880,-0.00000536,0.00001140,0.0000009
 2,0.00000201,0.00000006,-0.00000619,-0.00000072,0.00000136,-0.00000134
 ,-0.00000257,-0.00000498,0.00000007,-0.00000366,0.00000691,-0.00000086
 ,0.00000346,-0.00000271,-0.00000141,0.00000216,0.00001477,0.00016149,0
 .00002401,0.00001649,-0.00002924,-0.00001152,0.00248067,0.00078207,0.0
 0110154,-0.00219548,-0.00067080,-0.00070620,-0.00040060,-0.00017242,0.
 00014346,-0.00018830,-0.00004584,-0.00008837,0.30589762,0.00006922,0.0
 0085039,-0.00004583,0.00072955,0.00022600,0.00053876,0.00099384,-0.004
 69822,0.00202552,0.02394629,0.01083134,0.01549119,0.00230418,0.0017469
 8,0.00094151,-0.00038081,-0.00031185,-0.00027742,0.00008289,-0.0003434
 2,0.00014512,0.00012135,-0.00057400,0.00017337,-0.00135997,-0.00085274
 ,-0.00067899,-0.00000601,-0.00002704,0.00001641,-0.03024372,0.00014586
 ,-0.02049191,-0.00038465,-0.00642006,-0.00000413,0.00022863,0.00040873
 ,0.00009890,-0.00103365,0.00008503,-0.00068567,-0.04109755,-0.08003796
 ,-0.02457162,0.00003691,-0.00061325,0.00008545,-0.00000506,-0.00014054
 ,-0.00008917,0.00000215,0.00002607,0.00000271,-0.00005947,0.00002114,-
 0.00004555,-0.00000972,-0.00000866,-0.00000255,0.00000435,0.00000883,-
 0.00000732,-0.00000192,0.00000741,0.00000895,-0.00001871,0.00004346,0.
 00002487,0.00002185,-0.00001896,-0.00000686,-0.00001392,0.00000581,0.0
 0001492,-0.00000275,-0.00000684,-0.00002012,-0.00000071,0.00002462,0.0
 0001194,-0.00001450,0.00000831,0.00000044,0.00000900,0.00000681,0.0000
 0025,0.00001246,0.00000538,-0.00000316,0.00000183,-0.00000090,0.000003
 13,-0.00000774,-0.00000364,-0.00000194,0.00000180,0.00000156,0.0000049
 2,-0.00000070,-0.00000529,0.00000139,0.00000523,-0.00000417,0.00000379
 ,0.00000293,-0.00000183,-0.00000117,0.00000288,-0.00000091,0.00000065,
 0.00000227,-0.00000132,0.00000070,0.00000219,0.00000222,-0.00000242,0.
 00000188,-0.00000008,-0.00000137,0.00003350,-0.00001055,0.00002085,-0.
 00000050,0.00000415,-0.00000570,0.00000770,0.00000106,0.00000054,0.000
 00170,-0.00000458,0.00000019,-0.00000081,0.00000135,0.00000027,0.00000
 020,-0.00000026,-0.00000151,0.00000027,-0.00000006,0.00000087,0.000000
 38,-0.00000223,-0.00000054,-0.00010891,0.00015865,-0.00007142,0.000005
 59,0.00000310,0.00001955,-0.00199477,-0.00006476,-0.00109587,0.0010620
 8,0.00045366,0.00079798,0.00037469,-0.00024594,0.00043206,0.00008955,-
 0.00000596,0.00000779,0.04657563,0.07932595,0.00005490,0.00010154,-0.0
 0006604,-0.00081675,-0.00045134,-0.00001936,-0.00146469,0.00298222,0.0
 0245721,-0.01081482,-0.00135794,-0.00789737,0.00193710,-0.00181426,-0.
 00052939,-0.00016900,-0.00010850,-0.00059346,-0.00010355,0.00022857,0.
 00005630,-0.00014684,0.00121116,-0.00045779,-0.00004162,0.00047419,0.0
 0032028,-0.00005148,0.00000385,0.00014933,-0.00265033,-0.00463057,-0.0
 0397711,-0.00013525,-0.00035735,0.00576707,0.00206254,-0.00047484,-0.0
 0096289,-0.00042850,0.00021639,0.00051453,-0.18668640,-0.02367168,-0.1
 5171743,0.00006919,-0.00008931,0.00008211,0.00049049,-0.00025345,-0.00
 086472,-0.00009281,0.00002724,-0.00002515,-0.00004111,0.00001093,-0.00
 002369,0.00000636,-0.00000892,0.00000422,0.00000989,0.00000755,0.00000
 020,0.00000246,0.00001720,0.00000012,-0.00000452,0.00021950,0.00029424
 ,0.00005076,-0.00008632,0.00003190,-0.00004578,-0.00001580,0.00000622,
 -0.00001478,-0.00000766,-0.00004904,-0.00001430,0.00008129,0.00004943,
 -0.00002228,0.00003955,-0.00004097,-0.00001624,0.00000188,0.00000177,0
 .00000817,0.00001127,-0.00003109,0.00001970,-0.00000374,0.00000602,-0.
 00000222,-0.00000402,-0.00001430,-0.00001117,-0.00000663,0.00002126,-0
 .00000609,-0.00001689,0.00001953,0.00002183,-0.00001342,-0.00000543,-0
 .00000891,-0.00000174,-0.00000129,0.00002397,0.00000347,0.00000305,0.0
 0001269,-0.00000304,0.00000131,0.00000159,0.00000811,-0.00000548,0.000
 01309,-0.00000490,-0.00000968,0.00005459,-0.00013484,0.00000177,0.0000
 1682,0.00000532,-0.00000324,0.00000559,0.00000589,0.00001381,0.0000065
 6,-0.00000918,-0.00000341,-0.00000635,-0.00000153,-0.00000318,0.000004
 00,-0.00000443,-0.00001981,0.00000303,0.00000169,-0.00000042,0.0000006
 0,0.00000090,0.00000886,0.00012882,0.00001616,0.00006721,-0.00004768,-
 0.00001644,-0.00004621,-0.00239583,-0.00038714,-0.00093163,0.00102362,
 0.00112178,0.00078711,0.00032723,-0.00011878,0.00040074,-0.00001578,0.
 00002256,0.00020883,0.19987603,0.02723644,0.15700122\\-0.00000001,-0.0
 0000004,0.00000012,-0.00000016,-0.00000024,-0.00000003,0.00000010,0.00
 000010,0.,-0.00000002,0.00000007,-0.00000006,-0.00000013,0.,-0.0000000
 4,-0.00000016,-0.00000016,-0.00000018,-0.00000015,0.00000006,0.0000000
 8,-0.00000002,-0.00000016,0.00000002,0.00000017,0.00000002,0.00000004,
 0.00000010,0.00000023,0.00000003,0.00000014,-0.00000025,-0.00000009,0.
 00000005,0.00000003,-0.00000017,0.,-0.00000004,0.00000001,0.,-0.000000
 06,-0.00000004,-0.00000022,0.00000011,-0.00000002,-0.00000006,-0.00000
 005,-0.00000006,0.00000010,-0.00000011,-0.00000015,0.,0.00000003,0.,0.
 00000018,-0.00000002,-0.00000016,0.00000002,0.00000019,-0.00000001,-0.
 00000005,0.00000007,0.00000013,-0.00000053,-0.00000044,0.00000030,0.00
 000015,0.00000008,-0.00000018,0.00000051,0.00000003,0.00000021,0.00000
 006,0.00000012,0.00000012,0.00000002,0.00000007,0.00000006,0.00000022,
 -0.00000004,-0.00000012,-0.00000021,-0.00000012,-0.00000002,0.,-0.0000
 0006,-0.00000006,-0.00000008,0.00000002,-0.00000007,-0.00000002,0.0000
 0003,-0.00000005,0.,-0.00000006,-0.00000004,0.00000002,0.,-0.00000010,
 -0.00000014,0.00000014,0.00000014,-0.00000001,-0.00000005,-0.00000004,
 0.00000018,0.00000017,-0.00000002,0.00000008,0.00000008,-0.00000008,0.
 00000009,-0.00000002,0.00000004,0.,0.,0.00000006,0.00000005,-0.0000000
 4,0.,0.00000011,0.00000022,0.00000010,0.00000020,-0.00000007,-0.000000
 05,-0.00000022,0.,-0.00000006,-0.00000001,0.00000005,0.,0.00000026,0.0
 0000003,0.00000016,-0.00000002,-0.00000002,-0.00000005,-0.00000030,0.0
 0000010,0.00000001,0.00000003,-0.00000002,-0.00000004,-0.00000013,0.,0
 .,0.00000002,0.00000005,0.,0.00000008,-0.00000026,0.00000037,-0.000000
 01,0.00000012,0.00000010,-0.00000007,0.00000020,-0.00000012,-0.0000002
 0,-0.00000009,0.00000004,-0.00000002,0.00000002,-0.00000005\\\@


 IF AT FIRST YOU DON'T SUCCEED, TRY LOOKING IN 
 THE WASTEBASKET FOR THE DIRECTIONS.
 Job cpu time:       0 days  0 hours  0 minutes  0.9 seconds.
 Elapsed time:       0 days  0 hours  1 minutes  7.0 seconds.
 File lengths (MBytes):  RWF=     10 Int=      0 D2E=      0 Chk=      4 Scr=      1
 Normal termination of Gaussian 16 at Mon Dec  1 22:46:47 2025.
